260
Properties=species:S:1:pos:R:3:initial_charges:R:1:initial_magmoms:R:1:forces:R:3:charge:R:1 energy=-8551.502377418228 free_energy=-8551.502377418228 dipole="-0.8191715396381606 0.5273941701978556 -0.01984061364617577" pbc="F F F"
Gd      -0.33306690      -0.05774592      -0.06672495       3.00000000       0.00000000       0.00466699      -0.01083710       0.09264154       0.82176154
C       -6.91919478       6.22062459       1.31400549       0.00000000       0.00000000       0.05737278      -0.00140399      -0.04972890      -0.11541443
C       -5.43803242       5.85434205       1.17965069       0.00000000       0.00000000      -0.04779630      -0.03659859       0.01667764      -0.05833933
C       -5.24779244       4.32500812       1.25538887       0.00000000       0.00000000      -0.01719580       0.05406637      -0.05082754      -0.07486885
C       -4.10979306       3.81878190       2.16172471       0.00000000       0.00000000      -0.07353486       0.00931138       0.11024821      -0.02188282
N       -2.78191570       3.49454599       1.63666615       0.00000000       0.00000000       0.01828041       0.02142192      -0.04688249      -0.06313990
C       -1.64213696       4.19762274       2.22087573       0.00000000       0.00000000       0.15175255       0.04639554       0.04291160      -0.00878177
C       -0.92420675       5.18664829       1.30507370       0.00000000       0.00000000      -0.03968698       0.03068753      -0.01650424      -0.07101622
C       -1.62026472       6.54486997       1.15729328       0.00000000       0.00000000       0.07619691      -0.02656440       0.00596008      -0.06099538
C       -1.55819281       7.37710716       2.43831077       0.00000000       0.00000000      -0.01696540      -0.03289141      -0.03867183      -0.11143316
C       -2.49511674       2.33196454       1.02804262       0.00000000       0.00000000      -0.07250670      -0.13609243       0.06090091       0.26527428
O       -1.31834198       1.95231921       0.85600819       0.00000000       0.00000000      -0.06487472       0.05815881       0.04946480      -0.35731906
C       -3.62630876       1.38939762       0.67606837       0.00000000       0.00000000      -0.00130133      -0.04943553       0.12132869      -0.10122350
C       -4.16974599       1.43424288      -0.75883872       0.00000000       0.00000000      -0.07262050       0.09123396       0.12786650      -0.08999992
C       -3.45408193       0.57753371      -1.78704561       0.00000000       0.00000000       0.06555846       0.04499598      -0.03982238       0.26230288
O       -2.24275281       0.29331929      -1.66118979       0.00000000       0.00000000       0.08569889      -0.04221641      -0.00178603      -0.37449211
N       -4.15822383       0.16915197      -2.85201777       0.00000000       0.00000000       0.01995582      -0.06637712      -0.08590665      -0.06263374
C       -5.60835949       0.25784545      -2.99068378       0.00000000       0.00000000      -0.14485482      -0.02111353      -0.06274160      -0.02479409
C       -6.14336143       1.02274193      -4.20749220       0.00000000       0.00000000      -0.06426890       0.03577915      -0.02239518      -0.07064181
C       -7.61828030       1.41769201      -4.02820487       0.00000000       0.00000000       0.02490262      -0.02385872      -0.03536698      -0.06558277
C       -7.86136617       2.43191727      -2.91537751       0.00000000       0.00000000       0.03123383      -0.01875912      -0.00786720      -0.11078588
C       -3.50291983      -0.72142389      -3.81227541       0.00000000       0.00000000       0.09586310      -0.06340022      -0.14272401      -0.01288240
C       -2.66529971      -0.05716681      -4.91830683       0.00000000       0.00000000      -0.00433205      -0.02863630       0.04763402      -0.07253827
C       -3.40827217       0.45945549      -6.15270479       0.00000000       0.00000000      -0.05109003      -0.07822872       0.16807395      -0.06445745
C       -2.43510881       0.96285742      -7.21267924       0.00000000       0.00000000      -0.05436371      -0.02097555       0.06631210      -0.11137106
H       -7.05840711       7.29478074       1.22146199       0.00000000       0.00000000       0.06159820      -0.02127219       0.05980667       0.05668886
H       -7.30698123       5.90365818       2.28195811       0.00000000       0.00000000       0.04716165       0.05697112      -0.07811003       0.04490664
H       -7.51471434       5.74942093       0.53564319       0.00000000       0.00000000       0.04867589      -0.05309139      -0.01594553       0.04296615
H       -4.89727244       6.34006133       1.99614844       0.00000000       0.00000000       0.00498375      -0.02268978      -0.09404914       0.04330624
H       -5.06206741       6.25411664       0.23177708       0.00000000       0.00000000       0.01916481      -0.08867043       0.15107569       0.03641332
H       -5.17429819       3.90459286       0.25478231       0.00000000       0.00000000       0.06714304       0.01653539      -0.01451391       0.04276912
H       -6.16032200       3.92590392       1.70869003       0.00000000       0.00000000       0.03730252       0.00069097      -0.11346570       0.06180352
H       -4.48569181       2.92029864       2.65260538       0.00000000       0.00000000      -0.05385536      -0.00174903       0.17929390       0.05175764
H       -3.97299904       4.55543058       2.94868678       0.00000000       0.00000000       0.06503245       0.15478267       0.03822567       0.07760514
H       -0.91743540       3.42837529       2.48967703       0.00000000       0.00000000       0.06908686      -0.15309699       0.03045299       0.05672947
H       -1.95079408       4.69622863       3.13602029       0.00000000       0.00000000      -0.12684873       0.08759231      -0.02074661       0.06512410
H       -0.79528751       4.69683193       0.33847247       0.00000000       0.00000000      -0.02860655       0.00248375       0.12146305       0.05450310
H        0.07577415       5.36205720       1.72098058       0.00000000       0.00000000      -0.15356572      -0.03906784      -0.02911364       0.04798952
H       -2.66212654       6.41790147       0.84645317       0.00000000       0.00000000       0.17061803      -0.01303427       0.04954422       0.04165046
H       -1.09935342       7.09620556       0.37089461       0.00000000       0.00000000      -0.06348155       0.02113682       0.00363977       0.03907353
H       -2.26409612       7.01989893       3.18327714       0.00000000       0.00000000       0.00364538      -0.01193946       0.03002924       0.03216720
H       -1.79593147       8.41550292       2.22759772       0.00000000       0.00000000      -0.07703748      -0.02020528      -0.02734186       0.05598071
H       -0.55931657       7.35476094       2.86928840       0.00000000       0.00000000      -0.00740325      -0.03315836      -0.03060864       0.04273475
H       -4.47495512       1.58197399       1.33339946       0.00000000       0.00000000       0.05469376      -0.04292737      -0.13140517       0.08145991
H       -3.25438145       0.38002154       0.90365300       0.00000000       0.00000000       0.01255493       0.06359159      -0.14240122       0.12330949
H       -4.18257743       2.45475038      -1.14102896       0.00000000       0.00000000       0.04366686       0.09787161      -0.00079821       0.09155979
H       -5.19982739       1.11606083      -0.65794281       0.00000000       0.00000000      -0.14289867      -0.08275291      -0.11049485       0.08205195
H       -6.04279741       0.72955618      -2.11964197       0.00000000       0.00000000      -0.00813366      -0.01054331       0.05420079       0.07129387
H       -5.98336299      -0.76709280      -3.03315297       0.00000000       0.00000000      -0.09124974      -0.08557764       0.00049703       0.06237542
H       -6.07231084       0.40420847      -5.10280262       0.00000000       0.00000000       0.07753745       0.05681213       0.03386822       0.05559996
H       -5.56500690       1.93507221      -4.36233717       0.00000000       0.00000000       0.00885861      -0.04072070       0.05512009       0.05275944
H       -8.23250298       0.53391948      -3.84813025       0.00000000       0.00000000       0.07926234      -0.04144366      -0.00156930       0.04595703
H       -7.95529816       1.85315897      -4.96985339       0.00000000       0.00000000       0.03471607      -0.00812629       0.00115603       0.05890138
H       -7.78784685       1.98084541      -1.92941739       0.00000000       0.00000000       0.00215489      -0.02321561       0.05302393       0.02551547
H       -8.86133775       2.84324807      -3.00906942       0.00000000       0.00000000      -0.00309933       0.01138954      -0.00024208       0.05898458
H       -7.14829650       3.24943645      -2.97768226       0.00000000       0.00000000       0.00838589       0.06742003      -0.02652528       0.03586675
H       -4.26871103      -1.34060510      -4.27942966       0.00000000       0.00000000      -0.02150800      -0.02342883       0.05616456       0.06960808
H       -2.82038602      -1.36186741      -3.23947277       0.00000000       0.00000000      -0.05192802      -0.00339890       0.01317197       0.05732432
H       -1.97526063      -0.82309654      -5.27745120       0.00000000       0.00000000      -0.07393192       0.02239496       0.07961867       0.06150916
H       -2.08351532       0.74788189      -4.46423594       0.00000000       0.00000000      -0.03802637      -0.03937101      -0.07773029       0.04553275
H       -4.08176051       1.26748010      -5.87993280       0.00000000       0.00000000       0.00661888       0.02561097      -0.03951837       0.04464376
H       -4.00377646      -0.35162548      -6.57397968       0.00000000       0.00000000      -0.01923787      -0.00927884      -0.00539386       0.04201049
H       -1.83318065       1.77521956      -6.81827951       0.00000000       0.00000000       0.04353882       0.07525733       0.01278878       0.03274698
H       -2.98111350       1.32790155      -8.07417540       0.00000000       0.00000000      -0.05714584       0.05325609      -0.06032097       0.05505747
H       -1.77304819       0.17322715      -7.55232479       0.00000000       0.00000000       0.01413026      -0.08261310       0.02076186       0.04202249
C        5.69203500      -5.21340199      -4.04882604       0.00000000       0.00000000      -0.02980876       0.03017524      -0.02489654      -0.11187894
C        4.91775726      -4.24390931      -3.16189374       0.00000000       0.00000000       0.04448491      -0.05386319       0.01082129      -0.06072207
C        3.39727013      -4.34542659      -3.36207696       0.00000000       0.00000000       0.10249826      -0.05270780      -0.04606509      -0.07066742
C        2.71427388      -3.47102135      -2.31144910       0.00000000       0.00000000       0.03391914       0.00243732      -0.03368577      -0.01817023
N        1.31980499      -3.08060139      -2.49431584       0.00000000       0.00000000       0.06155797       0.13472013       0.01763967      -0.06952399
C        1.04722651      -2.01598920      -3.44666492       0.00000000       0.00000000       0.04974660       0.00857483      -0.01843442      -0.01149716
C        0.53718238      -2.58385241      -4.77609589       0.00000000       0.00000000      -0.01015392       0.02411050       0.04981604      -0.06775108
C        0.65414213      -1.57918632      -5.93458079       0.00000000       0.00000000       0.01360569       0.00934830       0.02726710      -0.06134142
C        0.61826228      -0.11476166      -5.50305964       0.00000000       0.00000000       0.03479155       0.01475301      -0.05118490      -0.11695059
C        0.40839632      -3.28677246      -1.54276922       0.00000000       0.00000000      -0.04018279       0.11024627       0.01854132       0.26597193
O       -0.51806004      -2.47227450      -1.32325919       0.00000000       0.00000000      -0.03803124       0.05718916       0.02981565      -0.41467956
C        0.46738524      -4.61266482      -0.81282171       0.00000000       0.00000000      -0.02097829       0.06119847      -0.02379745      -0.08592706
C        0.72277951      -4.47533543       0.69617635       0.00000000       0.00000000       0.01738216      -0.01494559       0.00387394      -0.09010153
C       -0.28630569      -3.60344021       1.41667944       0.00000000       0.00000000      -0.01134603       0.03310300       0.04285587       0.25614076
O       -0.22479303      -2.36000320       1.29029383       0.00000000       0.00000000       0.05824539      -0.01772229      -0.00432066      -0.39972044
N       -1.19265661      -4.18350069       2.21515759       0.00000000       0.00000000      -0.06508162       0.01198497       0.05656721      -0.06460234
C       -1.98248186      -3.32452130       3.09193588       0.00000000       0.00000000      -0.00345197       0.03748160       0.00703285      -0.01876305
C       -2.01656128      -3.76461476       4.56278773       0.00000000       0.00000000      -0.04970927       0.03307902      -0.08581771      -0.07503551
C       -0.66651884      -3.75355382       5.27742582       0.00000000       0.00000000      -0.07152971      -0.05100034      -0.04727964      -0.05991616
C       -0.02742727      -2.37616609       5.33680739       0.00000000       0.00000000       0.01668176      -0.01333850       0.01121340      -0.11015335
C       -1.42134061      -5.61662244       2.37226146       0.00000000       0.00000000      -0.01844197      -0.03943200      -0.00980274      -0.01936136
C       -2.89537889      -6.04530889       2.37184680       0.00000000       0.00000000      -0.04170429      -0.02271233      -0.05366499      -0.07528787
C       -3.50525264      -6.19931031       0.98033908       0.00000000       0.00000000      -0.00935982      -0.01963471      -0.06879186      -0.06456166
C       -3.48167225      -4.93805354       0.12517074       0.00000000       0.00000000      -0.00649552       0.01370765      -0.02324570      -0.11126327
H        6.74262618      -4.93250784      -4.08687901       0.00000000       0.00000000      -0.05134621      -0.08481269       0.06504679       0.05107346
H        5.30490125      -5.18683619      -5.06341528       0.00000000       0.00000000       0.01442597      -0.05458591      -0.03848258       0.04474891
H        5.61597764      -6.23216678      -3.67402078       0.00000000       0.00000000      -0.00851795       0.06458828      -0.06509707       0.04784544
H        5.25323323      -3.22494279      -3.37186501       0.00000000       0.00000000      -0.09071462      -0.09455896      -0.03192637       0.03588128
H        5.16096614      -4.45466548      -2.11883918       0.00000000       0.00000000      -0.03319685      -0.01236443       0.00506485       0.03692464
H        3.10039018      -5.39039085      -3.26275605       0.00000000       0.00000000      -0.08250824       0.01116952       0.03621752       0.04749847
H        3.14401859      -4.03198092      -4.37318006       0.00000000       0.00000000       0.00406951       0.03886843      -0.01105178       0.05390252
H        3.26467659      -2.52647833      -2.24566751       0.00000000       0.00000000      -0.00272401       0.02900086       0.03488521       0.08045059
H        2.81630379      -3.97340529      -1.35199498       0.00000000       0.00000000       0.00685424       0.06428368       0.02047859       0.05811722
H        1.94782940      -1.43058385      -3.59930439       0.00000000       0.00000000       0.07399153      -0.10306042       0.01370370       0.08927755
H        0.28880624      -1.35326357      -2.99825788       0.00000000       0.00000000       0.05687661      -0.00354191      -0.06262189       0.07851631
H       -0.49938743      -2.89812814      -4.64347860       0.00000000       0.00000000      -0.04212340       0.02801534      -0.01587660       0.03636946
H        1.10626338      -3.47990045      -5.03104068       0.00000000       0.00000000      -0.04205561       0.04134054       0.03100295       0.05423660
H       -0.15094288      -1.78315849      -6.64293473       0.00000000       0.00000000       0.06057799       0.05113421      -0.00116136       0.04735400
H        1.59508700      -1.74208603      -6.46086247       0.00000000       0.00000000      -0.05229001      -0.04465166      -0.03871950       0.04732097
H       -0.14371249       0.06211415      -4.75367562       0.00000000       0.00000000       0.04272399       0.01745043      -0.05924917       0.03989484
H        0.41655577       0.52077945      -6.35889703       0.00000000       0.00000000      -0.00589953       0.00241508      -0.06547398       0.05062641
H        1.57486036       0.18743871      -5.08781650       0.00000000       0.00000000       0.03301431      -0.00680868      -0.03522939       0.02786608
H        1.23676975      -5.23980942      -1.26104116       0.00000000       0.00000000      -0.05218467      -0.05501176       0.07545516       0.07787244
H       -0.48965113      -5.10798807      -0.99669786       0.00000000       0.00000000      -0.05799603       0.02954402       0.10022091       0.08121166
H        1.68584386      -3.98829605       0.85223090       0.00000000       0.00000000       0.03768359      -0.00029918      -0.05443268       0.08406881
H        0.77398990      -5.46938720       1.12821743       0.00000000       0.00000000       0.08976794      -0.03551010       0.06413885       0.07338894
H       -3.01556711      -3.27659883       2.72465264       0.00000000       0.00000000       0.05805364       0.00309994       0.04036121       0.04998468
H       -1.53279995      -2.33106762       3.01652302       0.00000000       0.00000000      -0.05169977      -0.00463473      -0.00271551       0.08477628
H       -2.44495693      -4.76214255       4.65140104       0.00000000       0.00000000       0.00298649       0.04764900       0.02954815       0.06127649
H       -2.69925996      -3.07824241       5.06862998       0.00000000       0.00000000       0.04811604      -0.00044618       0.04327697       0.05254607
H        0.01993428      -4.44998400       4.79405247       0.00000000       0.00000000       0.03306291      -0.01302317      -0.00716719       0.03566048
H       -0.83361345      -4.11005744       6.29377414       0.00000000       0.00000000       0.02614990      -0.02194033       0.02151756       0.05621318
H        0.28224369      -2.04662885       4.34863810       0.00000000       0.00000000       0.00839494       0.03708681      -0.05207461       0.02567723
H        0.84053933      -2.41035232       5.98366062       0.00000000       0.00000000       0.11345671       0.01926846       0.02116814       0.04773724
H       -0.72175157      -1.65377784       5.74995515       0.00000000       0.00000000      -0.01147461       0.03892877       0.04423024       0.03596098
H       -0.97059558      -5.93420168       3.31622615       0.00000000       0.00000000       0.04479345      -0.00299745      -0.00055838       0.06876545
H       -0.94572744      -6.16928241       1.56737853       0.00000000       0.00000000       0.05949711       0.01385584      -0.05194006       0.07007855
H       -3.52168840      -5.38305652       2.96412138       0.00000000       0.00000000       0.02919983       0.02474583      -0.00325111       0.05687419
H       -2.92344710      -7.02672291       2.84812103       0.00000000       0.00000000      -0.04406099       0.01297988       0.02090556       0.06529507
H       -4.54400032      -6.50712965       1.10422274       0.00000000       0.00000000       0.01647559      -0.06879198      -0.01326354       0.05765164
H       -2.98469913      -6.99905847       0.45274194       0.00000000       0.00000000      -0.00195187      -0.02474700      -0.05274550       0.04553976
H       -4.01892633      -4.12825309       0.61448028       0.00000000       0.00000000      -0.03489551      -0.00474263       0.01849575       0.03064393
H       -3.97138311      -5.14424535      -0.82240715       0.00000000       0.00000000      -0.03100086       0.02814406      -0.02672432       0.04798626
H       -2.46372499      -4.62113447      -0.08797222       0.00000000       0.00000000       0.02218743       0.04561769       0.02040713       0.02261006
C        1.36450197       4.63730013       5.86407142       0.00000000       0.00000000      -0.05438598      -0.00024354       0.01257875      -0.11379985
C        0.12833082       4.00365071       5.22946071       0.00000000       0.00000000       0.07044843       0.04040036      -0.02799996      -0.06472505
C       -0.54219285       2.97823899       6.15249783       0.00000000       0.00000000       0.09521883       0.08329122      -0.01911241      -0.07671889
C       -1.63471763       2.14350541       5.48791653       0.00000000       0.00000000      -0.04478632       0.05564721       0.05958884      -0.01588764
N       -1.37968305       0.97177435       4.64175361       0.00000000       0.00000000      -0.04948545      -0.06632823       0.00128502      -0.09574673
C       -2.50869882       0.04383104       4.67446267       0.00000000       0.00000000      -0.12256561      -0.03417465      -0.12721140      -0.01619890
C       -3.86897850       0.57933832       4.22685145       0.00000000       0.00000000      -0.08583830       0.07634322      -0.07437527      -0.07402079
C       -4.76133175      -0.56389778       3.72682081       0.00000000       0.00000000       0.09490120      -0.00521341      -0.00920440      -0.06230226
C       -6.16900158      -0.13059019       3.32376491       0.00000000       0.00000000       0.11956438       0.00302624       0.06113186      -0.11341732
C       -0.41989762       0.74251764       3.71914772       0.00000000       0.00000000       0.02085962      -0.03570321      -0.02897971       0.26606157
O       -0.65288351       0.11402015       2.66924423       0.00000000       0.00000000      -0.03019168       0.04062827       0.02122974      -0.38743511
C        1.01459668       1.05069813       4.10410963       0.00000000       0.00000000       0.05394544      -0.02300789      -0.08569107      -0.09811384
C        1.85771725       1.56349039       2.92562998       0.00000000       0.00000000      -0.08546141      -0.00499659      -0.02764943      -0.08301301
C        2.39705275       0.46649109       2.02818709       0.00000000       0.00000000      -0.12693928      -0.03440655       0.01939658       0.26670344
O        1.82692574       0.25358637       0.93009045       0.00000000       0.00000000      -0.04034066      -0.05053834      -0.00510614      -0.36780247
N        3.51014054      -0.19004517       2.36084501       0.00000000       0.00000000      -0.08183401      -0.06002960      -0.07207262      -0.05400877
C        4.20899490      -0.12898315       3.64220601       0.00000000       0.00000000       0.00765517       0.02890247      -0.04068878      -0.02339423
C        3.81833159      -1.09758680       4.77564639       0.00000000       0.00000000      -0.03022025      -0.10548667       0.03772378      -0.07120811
C        3.68905789      -2.57672420       4.41246803       0.00000000       0.00000000      -0.01523899      -0.08474902       0.00247335      -0.05497472
C        3.64895141      -3.48421355       5.64295027       0.00000000       0.00000000       0.01566023       0.05805111      -0.02587419      -0.11230897
C        4.20440347      -0.88229294       1.27850779       0.00000000       0.00000000       0.00635658      -0.10545488      -0.06098243      -0.01165241
C        3.77411806      -2.33530217       1.04114335       0.00000000       0.00000000      -0.00447134      -0.01567365       0.01511571      -0.07031573
C        4.99618530      -3.22080508       0.77361656       0.00000000       0.00000000      -0.02370870       0.08536253      -0.01250950      -0.06196490
C        4.70538101      -4.71401724       0.85001146       0.00000000       0.00000000      -0.00580876       0.04865068      -0.02628469      -0.11071988
H        1.86896936       5.28040146       5.14459663       0.00000000       0.00000000      -0.02190641      -0.04688770       0.06245823       0.04581186
H        2.06679269       3.87697201       6.20591358       0.00000000       0.00000000      -0.03614066       0.06336576      -0.04575061       0.03675689
H        1.08228661       5.24726068       6.71758035       0.00000000       0.00000000       0.02241549      -0.04282986       0.02270245       0.05753532
H        0.41242871       3.54250134       4.28320951       0.00000000       0.00000000      -0.01192807       0.02694624       0.01082626       0.02674312
H       -0.58603685       4.79663546       4.99309822       0.00000000       0.00000000       0.02659398      -0.05666153       0.08269209       0.03985285
H       -1.05836003       3.53392885       6.93973923       0.00000000       0.00000000       0.09124765       0.00153115       0.01783906       0.07013272
H        0.18816092       2.34871139       6.66149015       0.00000000       0.00000000       0.04754484      -0.02830369      -0.06039881       0.05345334
H       -2.23300993       2.83861026       4.88671410       0.00000000       0.00000000      -0.10583146      -0.03690400       0.00880927       0.05316194
H       -2.26567029       1.76875928       6.29524355       0.00000000       0.00000000      -0.04761980      -0.02165564      -0.00494762       0.07589824
H       -2.56786683      -0.34590472       5.69790024       0.00000000       0.00000000      -0.08160609       0.04288892      -0.07390045       0.05905004
H       -2.26237276      -0.76867226       3.99863619       0.00000000       0.00000000       0.12774144      -0.08498622      -0.01661572       0.07472864
H       -3.69256105       1.27243700       3.40691351       0.00000000       0.00000000       0.00882789       0.03191595      -0.01106641       0.03354348
H       -4.36915774       1.11743739       5.03031828       0.00000000       0.00000000      -0.02413932      -0.00710798       0.04507352       0.05375520
H       -4.84025768      -1.32329784       4.50857146       0.00000000       0.00000000      -0.00794187       0.07048158      -0.00747052       0.04519365
H       -4.26977410      -1.02049850       2.86418095       0.00000000       0.00000000      -0.00322111      -0.05679551      -0.01521622       0.02923960
H       -6.65539420       0.38157085       4.14812281       0.00000000       0.00000000      -0.05177160       0.00185607      -0.00131149       0.05546613
H       -6.75554619      -1.01071110       3.07093814       0.00000000       0.00000000      -0.02551338       0.07636029       0.01171374       0.05459692
H       -6.16234178       0.53192706       2.45810787       0.00000000       0.00000000       0.04045060      -0.02978658       0.08825813       0.02778081
H        1.39874282       0.07301826       4.41026458       0.00000000       0.00000000      -0.01628112       0.00500745       0.00927769       0.08971443
H        1.09888559       1.69935259       4.96953535       0.00000000       0.00000000      -0.07644357      -0.00902389      -0.14712213       0.09574656
H        2.67847268       2.18677502       3.29179619       0.00000000       0.00000000      -0.05788976      -0.10625262      -0.01306662       0.07639833
H        1.22419050       2.17098658       2.26867476       0.00000000       0.00000000      -0.00399639       0.06386079       0.02757878       0.08680843
H        4.13786568       0.87907028       4.04714415       0.00000000       0.00000000      -0.00652732       0.12821919       0.01718674       0.06503929
H        5.25624410      -0.32141766       3.41784084       0.00000000       0.00000000       0.11254170       0.04871684       0.00375336       0.07806056
H        2.90163171      -0.77885596       5.26993085       0.00000000       0.00000000      -0.05995479       0.02121523      -0.00405250       0.04016777
H        4.61633432      -0.99889996       5.51375292       0.00000000       0.00000000       0.01016992       0.01460173       0.02526867       0.07002057
H        4.53383700      -2.88278703       3.79495190       0.00000000       0.00000000       0.01566286       0.04482002       0.00021677       0.04830036
H        2.76432765      -2.73087121       3.84914236       0.00000000       0.00000000       0.00797848       0.02765984      -0.01448981       0.02301994
H        4.58856583      -3.44032695       6.18822060       0.00000000       0.00000000      -0.03219810       0.02083179      -0.02354105       0.05378623
H        3.48012201      -4.51800075       5.34018070       0.00000000       0.00000000       0.03250227       0.11708009       0.03628158       0.04630991
H        2.84808415      -3.19297242       6.31989363       0.00000000       0.00000000       0.05962968      -0.01352772      -0.01091649       0.03897058
H        5.26656497      -0.86381579       1.52201793       0.00000000       0.00000000       0.03738083       0.03801888      -0.05861022       0.06772341
H        4.05024088      -0.30742281       0.36090742       0.00000000       0.00000000      -0.03662522      -0.01114645       0.03567810       0.06939827
H        3.07084886      -2.35591626       0.20545127       0.00000000       0.00000000       0.06437305      -0.00006988       0.02625261       0.04617318
H        3.25797406      -2.70765843       1.92322291       0.00000000       0.00000000      -0.00824379       0.03126966      -0.00943256       0.05271921
H        5.76083358      -2.99670779       1.52047015       0.00000000       0.00000000       0.00657543      -0.00216886      -0.01578478       0.04486736
H        5.41088203      -2.96172601      -0.20132905       0.00000000       0.00000000       0.02613330      -0.05727713      -0.03575710       0.03851350
H        4.38557053      -4.98929960       1.85155003       0.00000000       0.00000000      -0.02394724      -0.01815983       0.00826040       0.04305350
H        5.60610944      -5.27218118       0.61587015       0.00000000       0.00000000       0.02934770      -0.04076748       0.02841449       0.05893138
H        3.93664745      -5.01457711       0.14474901       0.00000000       0.00000000      -0.05685550      -0.02326590      -0.02856891       0.02799920
C        5.19915474       2.74819657      -7.37230382       0.00000000       0.00000000      -0.00249693       0.02142314       0.01505756      -0.11507228
C        5.08988388       1.93815784      -6.08965361       0.00000000       0.00000000       0.01251874       0.01039053       0.00774121      -0.06059549
C        4.76916433       2.78738868      -4.85920556       0.00000000       0.00000000       0.02716138      -0.00519558      -0.06376625      -0.06696829
C        5.11761975       2.08814358      -3.53909150       0.00000000       0.00000000       0.05153031       0.06450522      -0.07169593      -0.01386626
N        4.36585615       0.87666101      -3.23492711       0.00000000       0.00000000       0.02352225      -0.01766308      -0.04338085      -0.07864820
C        4.94456456      -0.39066133      -3.67394403       0.00000000       0.00000000       0.00601459      -0.08333855      -0.07039736      -0.00608528
C        4.24730104      -1.04708229      -4.88439414       0.00000000       0.00000000      -0.03460365      -0.04018977      -0.02544322      -0.07191578
C        5.19266922      -1.49603286      -6.00533308       0.00000000       0.00000000       0.05082149       0.00928083       0.09751543      -0.06383766
C        4.52587962      -2.53825045      -6.90126665       0.00000000       0.00000000       0.03945866       0.02451592       0.00282491      -0.10925290
C        3.29382377       0.86546953      -2.43308219       0.00000000       0.00000000      -0.00132278       0.02635166       0.02035774       0.25924646
O        2.77563769      -0.16894649      -1.99199189       0.00000000       0.00000000      -0.07330893       0.04975228       0.04339082      -0.46211000
C        2.59585453       2.17741392      -2.12699671       0.00000000       0.00000000      -0.09173567       0.05867076      -0.00298313      -0.08001851
C        1.38273825       2.25483492      -3.06806887       0.00000000       0.00000000      -0.09529400      -0.03203140      -0.01000380      -0.08292364
C        0.28785834       3.06101124      -2.39590038       0.00000000       0.00000000      -0.06246955      -0.11607534       0.01910776       0.25932779
O       -0.30968892       2.48289209      -1.46794249       0.00000000       0.00000000      -0.03207810      -0.02103494       0.06871165      -0.40138105
N        0.03500851       4.29926582      -2.81772498       0.00000000       0.00000000      -0.03426304      -0.04418422      -0.03750013      -0.06357562
C        0.84255255       4.98754965      -3.82159766       0.00000000       0.00000000       0.01164363       0.02423939      -0.07117582      -0.01805052
C        0.18948342       4.93742815      -5.20839321       0.00000000       0.00000000      -0.02525778       0.01962116      -0.02493726      -0.06604260
C        0.95385958       5.70151927      -6.29270207       0.00000000       0.00000000      -0.05498011       0.01063754       0.03161439      -0.06308349
C        2.22728510       5.00406981      -6.74570292       0.00000000       0.00000000      -0.03515292       0.02791255       0.02287973      -0.11003708
C       -1.00749273       5.16785787      -2.26564201       0.00000000       0.00000000      -0.04423239      -0.01670047       0.00386504      -0.01169299
C       -2.37665807       4.54163753      -2.00322524       0.00000000       0.00000000      -0.05225724      -0.00931802      -0.01735218      -0.07203446
C       -3.26740369       4.52635806      -3.24870057       0.00000000       0.00000000      -0.02010605      -0.02321400      -0.00108894      -0.05928029
C       -2.91832222       3.37708130      -4.18226404       0.00000000       0.00000000      -0.01540770      -0.00666715       0.00967927      -0.10892147
H        5.44926249       2.09202653      -8.20123693       0.00000000       0.00000000      -0.02416402       0.00809845      -0.02074556       0.05058965
H        5.97907529       3.49830109      -7.29409147       0.00000000       0.00000000       0.01277234       0.06802673       0.01694369       0.04674517
H        4.25703665       3.23860453      -7.59092463       0.00000000       0.00000000      -0.00586925       0.07933866      -0.07254375       0.04182450
H        6.03714705       1.42259510      -5.92686154       0.00000000       0.00000000       0.00525021       0.01736978       0.02765971       0.04109910
H        4.30549607       1.19579504      -6.22681013       0.00000000       0.00000000       0.04004260       0.03453186      -0.00606902       0.03942238
H        3.71787778       3.08227418      -4.88268089       0.00000000       0.00000000       0.04114188      -0.06008453       0.05467289       0.03149520
H        5.36726129       3.70049109      -4.90071971       0.00000000       0.00000000      -0.00195163      -0.01482926       0.03249441       0.05714717
H        5.00757074       2.79316007      -2.71511673       0.00000000       0.00000000       0.03112851       0.02515347       0.01750432       0.04915778
H        6.17626378       1.82389038      -3.57027855       0.00000000       0.00000000       0.02371620      -0.08512033      -0.03383594       0.06836688
H        4.90564069      -1.07971850      -2.82496947       0.00000000       0.00000000       0.05178141       0.05607985       0.04903257       0.05289731
H        5.98830497      -0.21434122      -3.92568140       0.00000000       0.00000000       0.04447428       0.02385018       0.05484578       0.06389966
H        3.51223274      -0.36851660      -5.31510863       0.00000000       0.00000000       0.01844299       0.06634049       0.08535138       0.04121781
H        3.70474097      -1.92510226      -4.54673292       0.00000000       0.00000000       0.00592250      -0.04048357       0.01083240       0.05365622
H        6.09497400      -1.92263598      -5.56957436       0.00000000       0.00000000       0.05897183      -0.06971754      -0.00119830       0.04018181
H        5.49891652      -0.64446360      -6.61196862       0.00000000       0.00000000      -0.03797723      -0.03106059       0.04976513       0.04738224
H        4.61698648      -3.53106305      -6.47021601       0.00000000       0.00000000      -0.04655846      -0.00711270      -0.01634123       0.04056727
H        4.99521049      -2.54584714      -7.87892370       0.00000000       0.00000000       0.04730967      -0.07605832      -0.01757282       0.05418776
H        3.46897743      -2.32121468      -7.04309432       0.00000000       0.00000000       0.04833754       0.05110743      -0.04295648       0.03196417
H        3.19953350       3.07292770      -2.22814797       0.00000000       0.00000000       0.06769475      -0.00337483       0.00054708       0.05503254
H        2.24313130       2.10729002      -1.09094122       0.00000000       0.00000000      -0.10597524      -0.04695336       0.02886286       0.07699072
H        0.96389567       1.24705086      -3.15914588       0.00000000       0.00000000      -0.02195766      -0.04945101       0.06583909       0.08373367
H        1.65650699       2.59722028      -4.06220924       0.00000000       0.00000000       0.02676203       0.00564412       0.02785507       0.06350367
H        1.84981362       4.58005322      -3.84261037       0.00000000       0.00000000       0.02191653      -0.00030443      -0.03795454       0.06007349
H        0.92677314       6.02828247      -3.50275616       0.00000000       0.00000000       0.06588198       0.04728820      -0.03099222       0.06832150
H       -0.80590896       5.37762415      -5.13845841       0.00000000       0.00000000      -0.03048116      -0.04388386       0.02777987       0.05168183
H        0.07253399       3.89544260      -5.52086681       0.00000000       0.00000000       0.03377827       0.02826969       0.00437054       0.03684903
H        1.18701961       6.70991846      -5.94778879       0.00000000       0.00000000      -0.00326698      -0.02249736       0.04521767       0.04597092
H        0.29084880       5.79912240      -7.15403307       0.00000000       0.00000000       0.00595134       0.00534285       0.00745499       0.05466956
H        2.97860061       4.99244513      -5.96134795       0.00000000       0.00000000       0.01869533       0.02871482       0.01560654       0.03369251
H        2.63905148       5.53364806      -7.59873319       0.00000000       0.00000000       0.05977741      -0.03804969      -0.02061943       0.05673362
H        2.00695604       3.98094580      -7.04457724       0.00000000       0.00000000       0.02306531      -0.00086190      -0.03127226       0.03464617
H       -1.16013245       5.97377996      -2.98381979       0.00000000       0.00000000       0.07710284       0.04593872       0.02472879       0.07534231
H       -0.62073588       5.61303818      -1.34554194       0.00000000       0.00000000       0.03938617       0.00050859      -0.04940820       0.05908089
H       -2.86011563       5.14961195      -1.23696035       0.00000000       0.00000000       0.01016898      -0.02192894       0.02071972       0.04670606
H       -2.24239623       3.53179361      -1.61616513       0.00000000       0.00000000      -0.02606765       0.01259170       0.01829823       0.06237293
H       -3.18322767       5.48135501      -3.77156252       0.00000000       0.00000000       0.03160648      -0.02389965       0.01443469       0.04390812
H       -4.31517948       4.42770082      -2.95493564       0.00000000       0.00000000       0.00230020       0.01751818       0.05961146       0.03217403
H       -3.23550680       2.44135157      -3.73295571       0.00000000       0.00000000      -0.00589712      -0.02028696      -0.00673075       0.03087300
H       -3.41188906       3.49154377      -5.14322342       0.00000000       0.00000000      -0.00741138       0.02232727       0.00783882       0.04849196
H       -1.84741576       3.32091703      -4.34844974       0.00000000       0.00000000      -0.01631832       0.04179584      -0.04280722       0.03361611
O       -2.64910963      -1.58393804       0.20741384       0.00000000       0.00000000       0.02997194       0.00477091      -0.02051701      -0.51283535
H       -2.73211408      -2.00552341      -0.66127749       0.00000000       0.00000000       0.05819478       0.01682090       0.06267927       0.34457262
H       -2.47238349      -2.30758089       0.82452574       0.00000000       0.00000000       0.05975719       0.03297980       0.02707048       0.34239193
