412
Properties=species:S:1:pos:R:3:initial_charges:R:1:initial_magmoms:R:1:forces:R:3:charge:R:1 energy=-12842.155042738292 free_energy=-12842.155042738292 dipole="0.8256146720173866 0.3279148543633492 0.26825769432401014" pbc="F F F"
Gd       0.37127892      -0.21119543      -0.07270945       3.00000000       0.00000000      -0.00055355       0.01310470      -0.04431851       0.86336857
C       -1.79561533      -6.23349283       5.99272249       0.00000000       0.00000000      -0.00260824       0.00193566       0.00876506      -0.10251035
C       -2.99454896      -5.48172200       6.56353188       0.00000000       0.00000000      -0.03676746       0.00159526      -0.01792455      -0.05811623
C       -3.96899555      -5.00456439       5.48147406       0.00000000       0.00000000      -0.00691319      -0.04195176       0.00425162      -0.06406348
C       -3.45495143      -3.80409635       4.67917869       0.00000000       0.00000000      -0.01645601      -0.02607918       0.02445086      -0.05149430
C       -3.69611372      -2.46533139       5.38606699       0.00000000       0.00000000       0.03634024       0.02144201       0.02464451      -0.05876172
C       -5.08482004      -1.88209171       5.12240237       0.00000000       0.00000000       0.03145971      -0.01894422      -0.01308883      -0.06255388
C       -5.33640684      -0.56143409       5.87154466       0.00000000       0.00000000      -0.00259389       0.03867896      -0.00397146      -0.06503932
C       -5.90186394       0.53370856       4.96013738       0.00000000       0.00000000       0.00222490      -0.02662595       0.01297261      -0.06740282
C       -4.82807443       1.22004916       4.10543678       0.00000000       0.00000000      -0.03285590      -0.01430906      -0.02927845      -0.05780807
C       -4.20286207       2.40663137       4.83954731       0.00000000       0.00000000       0.01606382      -0.01309339      -0.03205340      -0.06922695
C       -3.21764763       3.22027088       3.99379320       0.00000000       0.00000000      -0.01352784       0.01057224      -0.07137354      -0.06976211
C       -1.92418281       2.45085722       3.74380161       0.00000000       0.00000000       0.01420351       0.05337582      -0.04762186      -0.00729755
N       -0.95411393       3.12152814       2.87464148       0.00000000       0.00000000      -0.01073292      -0.02273696       0.01938516      -0.05187036
C       -0.72474792       4.53922383       3.10772756       0.00000000       0.00000000       0.08771516       0.08333633      -0.00875297      -0.02056717
C       -0.19256276       4.89909337       4.49867267       0.00000000       0.00000000      -0.07895028      -0.01052009       0.08604857      -0.07467915
C        1.21012708       4.37641710       4.81751920       0.00000000       0.00000000       0.02172109      -0.05592820      -0.02357058      -0.06563000
C        1.20805268       2.89735572       5.21389392       0.00000000       0.00000000      -0.02658918      -0.09566098       0.05499303      -0.05849122
C        2.43712276       2.46055366       6.01239813       0.00000000       0.00000000      -0.04134268      -0.06020204       0.00952042      -0.06265202
C        2.28663753       1.01716772       6.51826669       0.00000000       0.00000000       0.09381879       0.03094955       0.02779019      -0.05806460
C        3.21762823       0.71339801       7.69850800       0.00000000       0.00000000      -0.03100075       0.00511024      -0.04751623      -0.06628312
C        3.55533677      -0.75991285       7.88774212       0.00000000       0.00000000       0.04345827      -0.00660794      -0.04041363      -0.10117987
C       -0.30656698       2.41297129       1.96006431       0.00000000       0.00000000       0.02532482       0.00324248       0.06739700       0.25935715
O       -0.58844800       1.23063629       1.67893280       0.00000000       0.00000000      -0.02046247       0.07345973       0.02483972      -0.39901738
C        0.90849312       3.03992594       1.26767172       0.00000000       0.00000000      -0.05821504      -0.00217660       0.04209984       0.05306793
O        1.52037098       1.99410367       0.53734259       0.00000000       0.00000000       0.00799672      -0.01840972       0.02619201      -0.21909159
C        2.89304043       2.21675755       0.29089644       0.00000000       0.00000000       0.07122336       0.01182412      -0.04833744       0.04990586
C        3.36507234       1.03018277      -0.55884487       0.00000000       0.00000000      -0.06529092      -0.03006141      -0.03955128       0.26479976
O        2.50496281       0.22086598      -0.95321006       0.00000000       0.00000000      -0.04239909       0.09433713       0.04483928      -0.37771905
N        4.64746244       0.95729752      -0.87877736       0.00000000       0.00000000       0.07198276      -0.01269698      -0.03561129      -0.05519370
C        5.67441846       1.78397684      -0.24587369       0.00000000       0.00000000      -0.00647336       0.00008223       0.03561399      -0.02688156
C        5.92261267       3.12669664      -0.96168016       0.00000000       0.00000000       0.02091008      -0.02014083      -0.02902307      -0.07814158
C        5.92995884       4.33174720      -0.01685773       0.00000000       0.00000000      -0.02335802      -0.02210573       0.02161756      -0.06374782
C        6.10094159       5.66348198      -0.76350442       0.00000000       0.00000000       0.00709314      -0.02664453       0.01518583      -0.06704210
C        4.77242053       6.22057068      -1.27914943       0.00000000       0.00000000      -0.03469233       0.01259928      -0.00937684      -0.05502841
C        4.95708342       7.40196296      -2.23298351       0.00000000       0.00000000      -0.00166784       0.03851328      -0.02358409      -0.06364877
C        3.65921480       8.14622975      -2.56477545       0.00000000       0.00000000      -0.03458955       0.00030870       0.03247245      -0.05860645
C        2.57647729       7.26862556      -3.18347206       0.00000000       0.00000000       0.02254222       0.02083596      -0.00614177      -0.09867129
C        5.15670133      -0.02721232      -1.84333213       0.00000000       0.00000000       0.01774416       0.01295058       0.02000568      -0.01147489
C        4.20618733      -0.40135095      -2.98760258       0.00000000       0.00000000       0.01860896      -0.01026437      -0.04772030      -0.06169705
C        4.95927717      -0.57853543      -4.31589082       0.00000000       0.00000000      -0.00420110       0.07994304       0.02972880      -0.07105441
C        4.04776066      -0.37610934      -5.52649725       0.00000000       0.00000000      -0.01270995      -0.03791756       0.02792870      -0.05383660
C        4.77196447      -0.60639073      -6.85405101       0.00000000       0.00000000       0.02021618       0.00038793       0.04770844      -0.06386856
C        3.96317816      -0.09794122      -8.04858674       0.00000000       0.00000000      -0.05262839       0.04047302      -0.07588898      -0.06161965
C        3.99347264       1.42380953      -8.23307545       0.00000000       0.00000000      -0.01700511       0.06313511       0.00278102      -0.05715506
C        5.35876795       1.94957977      -8.68947010       0.00000000       0.00000000      -0.00978022       0.03491482      -0.02456193      -0.05933177
C        5.30822343       3.28522003      -9.44662338       0.00000000       0.00000000       0.01653637      -0.00563218      -0.02362289      -0.06501557
C        5.15333313       4.54983712      -8.58783422       0.00000000       0.00000000       0.02259476      -0.01112534      -0.02059918      -0.06289528
C        3.71147056       5.02614654      -8.42114423       0.00000000       0.00000000      -0.01266933       0.02803561      -0.00913668      -0.05241232
C        3.62976269       6.32493722      -7.62278852       0.00000000       0.00000000       0.00157462       0.01873418      -0.00788440      -0.10521305
H       -1.13608996      -6.55367917       6.79559245       0.00000000       0.00000000      -0.01345147       0.00988335      -0.01570828       0.04137754
H       -1.21709434      -5.61389077       5.30768357       0.00000000       0.00000000      -0.00884974      -0.01370128       0.01987925       0.01389424
H       -2.12658460      -7.11782238       5.45292045       0.00000000       0.00000000      -0.00074536       0.01160932       0.00704991       0.04214805
H       -2.65100076      -4.63099985       7.15719161       0.00000000       0.00000000      -0.00496315      -0.02601185      -0.01693374       0.03185402
H       -3.52886494      -6.15481721       7.23645435       0.00000000       0.00000000       0.01572988       0.04142107      -0.02044208       0.04619283
H       -4.92038411      -4.73834638       5.94596782       0.00000000       0.00000000       0.03902761      -0.00570105      -0.02557322       0.04279258
H       -4.16040180      -5.83795085       4.80153251       0.00000000       0.00000000       0.00315798       0.02501844       0.00532821       0.03918340
H       -3.95207806      -3.79157038       3.70553230       0.00000000       0.00000000      -0.01009154       0.02034012      -0.00672463       0.01346834
H       -2.38474936      -3.94077997       4.49254739       0.00000000       0.00000000      -0.03195190       0.01823088       0.01288345       0.01125391
H       -2.94565164      -1.73469656       5.06145759       0.00000000       0.00000000       0.01464209       0.00400427      -0.00380101       0.00244197
H       -3.57290970      -2.60977861       6.46026328       0.00000000       0.00000000      -0.00170671       0.00572905      -0.01517389       0.04914659
H       -5.83911068      -2.61570125       5.40413126       0.00000000       0.00000000      -0.00339251       0.00185377       0.01015981       0.04596972
H       -5.19992865      -1.71035875       4.04902429       0.00000000       0.00000000       0.02014292      -0.01482528      -0.02483147       0.01660456
H       -4.40853298      -0.20082814       6.32140346       0.00000000       0.00000000       0.00387342      -0.02192057      -0.02916609       0.03451897
H       -6.03559295      -0.73400843       6.68929831       0.00000000       0.00000000       0.00758618      -0.00754042      -0.02418046       0.04828803
H       -6.38602888       1.29579903       5.56788965       0.00000000       0.00000000      -0.06684307       0.00072635       0.05454530       0.04975138
H       -6.67076890       0.09899016       4.31838533       0.00000000       0.00000000       0.02991374      -0.00970891       0.01474915       0.03901241
H       -5.27800750       1.58758051       3.17956743       0.00000000       0.00000000       0.00000680      -0.00919650       0.00930852       0.02604007
H       -4.06279159       0.48543604       3.83819899       0.00000000       0.00000000      -0.02070156       0.03872650       0.00565197       0.01289493
H       -3.70631279       2.06184614       5.74765635       0.00000000       0.00000000      -0.00168710       0.00610832       0.00191507       0.04944232
H       -5.00803058       3.07888217       5.13918185       0.00000000       0.00000000       0.01222547      -0.02023232       0.02332886       0.05945882
H       -3.00274763       4.14513370       4.53227050       0.00000000       0.00000000      -0.02511143      -0.05908737      -0.05141508       0.05751963
H       -3.68459846       3.47706214       3.04011781       0.00000000       0.00000000      -0.00789966       0.00774697       0.01097394       0.04413492
H       -2.14445778       1.48985187       3.28021048       0.00000000       0.00000000      -0.03115829       0.01585173      -0.05064428       0.06118800
H       -1.43533139       2.26173480       4.70257256       0.00000000       0.00000000      -0.00800868      -0.01170424       0.03441772       0.06920992
H       -1.67940213       5.05070565       2.95760848       0.00000000       0.00000000      -0.00027739      -0.01049945      -0.00292643       0.08100864
H       -0.02967454       4.92243194       2.35868808       0.00000000       0.00000000      -0.11182720      -0.02223821       0.07877876       0.05826393
H       -0.87749035       4.55104052       5.27693981       0.00000000       0.00000000       0.04977530       0.05640972      -0.09615620       0.06182482
H       -0.18932716       5.98965511       4.54523915       0.00000000       0.00000000       0.05606551      -0.01166642      -0.01266265       0.06816696
H        1.60011109       4.96564611       5.64951388       0.00000000       0.00000000      -0.01363110      -0.08658931       0.02047381       0.06264992
H        1.87643887       4.54740567       3.96864878       0.00000000       0.00000000       0.02590864       0.02731555       0.02647432       0.02320503
H        1.10142924       2.25597820       4.32779472       0.00000000       0.00000000       0.01292611       0.05484254       0.08390475      -0.00024455
H        0.34318105       2.72711902       5.86422289       0.00000000       0.00000000       0.10953816       0.03318348      -0.10196445       0.04002976
H        2.55125843       3.13434586       6.86195913       0.00000000       0.00000000      -0.05308708      -0.03296980       0.01258008       0.05079599
H        3.34359109       2.54323119       5.40577023       0.00000000       0.00000000      -0.04960137       0.04689761       0.00069118       0.02267436
H        2.50316271       0.33172891       5.69589252       0.00000000       0.00000000      -0.02561656      -0.01849426      -0.03463566       0.01206213
H        1.25117838       0.84908741       6.82239771       0.00000000       0.00000000       0.06961556       0.00543682       0.02057378       0.02940566
H        2.75452091       1.08422694       8.61160881       0.00000000       0.00000000       0.04680856      -0.01485230      -0.09148037       0.05198174
H        4.15280171       1.25037012       7.55603079       0.00000000       0.00000000       0.00716686       0.02370114      -0.01159744       0.05217192
H        2.68048993      -1.34598949       8.15265395       0.00000000       0.00000000      -0.04205040       0.01456608       0.04267138       0.03209687
H        4.27505912      -0.87198626       8.69512201       0.00000000       0.00000000       0.00132723       0.02248539       0.00402505       0.04469130
H        4.00216145      -1.17482118       6.98512092       0.00000000       0.00000000       0.01583712      -0.00808455      -0.01224313       0.02217103
H        1.59784177       3.43181030       2.02992906       0.00000000       0.00000000      -0.04323881      -0.03948313      -0.06286413       0.07970032
H        0.60569612       3.85135721       0.59169150       0.00000000       0.00000000       0.03290612       0.02363402      -0.03786716       0.07485874
H        3.44428943       2.28755597       1.24030777       0.00000000       0.00000000      -0.02817495      -0.03837732      -0.02342147       0.07469920
H        3.03778401       3.15087500      -0.27423492       0.00000000       0.00000000       0.02683954      -0.05367623       0.00733438       0.08398188
H        6.58856101       1.18833208      -0.22343673       0.00000000       0.00000000      -0.00074918       0.03163326      -0.01238343       0.08147046
H        5.39171236       1.96277755       0.79251850       0.00000000       0.00000000       0.01948745       0.01376482       0.00803779       0.05857848
H        5.15234445       3.26193028      -1.71869754       0.00000000       0.00000000       0.00996978       0.01413538       0.01629361       0.05483812
H        6.87984171       3.09879504      -1.48180498       0.00000000       0.00000000      -0.00840543      -0.02246815      -0.00483281       0.06728009
H        6.73872885       4.20670251       0.70464065       0.00000000       0.00000000       0.03327151       0.01816987      -0.05162421       0.04603281
H        4.99334772       4.36533534       0.54660930       0.00000000       0.00000000       0.01444971       0.01657884       0.04120179       0.01976678
H        6.80084995       5.53292851      -1.59069189       0.00000000       0.00000000      -0.02123863      -0.01720608       0.01017274       0.04537641
H        6.53863323       6.39725452      -0.08585731       0.00000000       0.00000000       0.00917986      -0.00392180      -0.01238272       0.05050084
H        4.18189928       6.54200490      -0.41762648       0.00000000       0.00000000      -0.00931948      -0.01260457      -0.00454194       0.02609359
H        4.20998203       5.43713708      -1.79057828       0.00000000       0.00000000       0.01359840      -0.02939585       0.00140379       0.01854374
H        5.41017592       7.05002254      -3.16199195       0.00000000       0.00000000       0.00460018      -0.01305312       0.01794338       0.03774768
H        5.65098753       8.11222834      -1.78026304       0.00000000       0.00000000       0.00739642       0.00975421      -0.00313136       0.04160490
H        3.89486942       8.95346322      -3.26178284       0.00000000       0.00000000       0.01321545      -0.04613810       0.04076040       0.04433462
H        3.25531258       8.60747809      -1.66156669       0.00000000       0.00000000       0.03614153       0.00078018       0.00467931       0.03749680
H        2.94306554       6.80103999      -4.09495944       0.00000000       0.00000000      -0.02255924       0.03145443       0.02680130       0.03566882
H        1.70961064       7.87670404      -3.43375976       0.00000000       0.00000000       0.01720396      -0.01826056      -0.01696244       0.03478322
H        2.25668349       6.49277579      -2.48829928       0.00000000       0.00000000       0.00444024       0.01244137      -0.02071800       0.01527764
H        5.46575482      -0.92423797      -1.29777708       0.00000000       0.00000000       0.01005891       0.00503480       0.00233061       0.06327202
H        6.04839289       0.42937187      -2.28080664       0.00000000       0.00000000      -0.00839274      -0.03231592       0.07401047       0.08440117
H        3.46317311       0.38888365      -3.11159660       0.00000000       0.00000000       0.06336895      -0.02082638       0.01431633       0.05133742
H        3.66666606      -1.31823552      -2.73969375       0.00000000       0.00000000      -0.00241802       0.07076228       0.01210418       0.03888481
H        5.42920521      -1.56139581      -4.35238939       0.00000000       0.00000000      -0.02418534      -0.01645078      -0.02437270       0.04336602
H        5.75443796       0.16626970      -4.38237732       0.00000000       0.00000000       0.01994112      -0.06372243      -0.01338157       0.04981944
H        3.67253433       0.64859308      -5.51236318       0.00000000       0.00000000      -0.02104338      -0.00636780       0.02489529       0.03740262
H        3.18396975      -1.04686509      -5.45651196       0.00000000       0.00000000       0.03029673      -0.01161888      -0.05065412       0.00712708
H        4.95880134      -1.67337671      -6.97660166       0.00000000       0.00000000       0.01075409      -0.04702204       0.00623489       0.03476405
H        5.74306464      -0.10886300      -6.83713949       0.00000000       0.00000000      -0.05934770       0.00933941       0.02487783       0.04706213
H        2.92382159      -0.42777227      -7.94210701       0.00000000       0.00000000       0.03802755       0.02421035       0.01719932       0.02138318
H        4.35042720      -0.55662156      -8.95970844       0.00000000       0.00000000       0.01563989       0.00005668       0.01699408       0.04567447
H        3.69026067       1.91435525      -7.30394497       0.00000000       0.00000000       0.01062032      -0.01081409      -0.05555272       0.01953403
H        3.25531690       1.68489554      -8.99608213       0.00000000       0.00000000       0.01356514      -0.03220019       0.03358581       0.03648653
H        5.79226149       1.21252514      -9.36805167       0.00000000       0.00000000      -0.01030659      -0.02161354      -0.01089550       0.03862229
H        6.04168793       2.04025909      -7.83936288       0.00000000       0.00000000      -0.06170353       0.01411632      -0.05169039       0.02552039
H        4.50055417       3.24414436     -10.18255894       0.00000000       0.00000000       0.05836870       0.01777099       0.02392265       0.03807849
H        6.24334805       3.37302354     -10.00499441       0.00000000       0.00000000      -0.03050377      -0.02004356       0.04168398       0.04096464
H        5.71266418       5.36105448      -9.05849829       0.00000000       0.00000000      -0.01003796      -0.01890359      -0.00632420       0.03935543
H        5.60376261       4.38327093      -7.60696453       0.00000000       0.00000000      -0.01457221      -0.01176986      -0.01430069       0.03104151
H        3.11382772       4.25313666      -7.93360634       0.00000000       0.00000000      -0.00749582      -0.02376338       0.02086724       0.01522787
H        3.27705340       5.19730634      -9.40759659       0.00000000       0.00000000      -0.00410130      -0.02815012      -0.00678635       0.03598387
H        4.16285806       6.23908639      -6.67769481       0.00000000       0.00000000      -0.00996119       0.00573250      -0.06383413       0.02884257
H        2.59233204       6.58396842      -7.41457078       0.00000000       0.00000000       0.03294881       0.00439323      -0.02555714       0.02766751
H        4.07873164       7.14426362      -8.17875275       0.00000000       0.00000000      -0.01021143      -0.03608355      -0.02511578       0.04407394
C       -1.48848871      -4.00014137      -8.39193705       0.00000000       0.00000000      -0.00544959      -0.00311672       0.00408532      -0.10282796
C       -2.03108549      -2.68202112      -8.93469428       0.00000000       0.00000000       0.00629849      -0.02600673       0.01729632      -0.05737975
C       -1.39146862      -1.45288257      -8.28824902       0.00000000       0.00000000       0.00373147      -0.01514663       0.02936105      -0.06094537
C       -1.61611258      -1.31658155      -6.77890394       0.00000000       0.00000000      -0.00433742      -0.01377487       0.04632125      -0.05059203
C       -3.08247290      -1.25015396      -6.33829007       0.00000000       0.00000000       0.01001377      -0.02272637       0.01253387      -0.05478296
C       -3.84584270      -0.09271042      -6.97993503       0.00000000       0.00000000      -0.00302394      -0.00850298       0.00793338      -0.06452961
C       -5.25570905       0.12258165      -6.40675856       0.00000000       0.00000000      -0.01614780       0.00396121       0.01259965      -0.06695787
C       -5.35367069       1.29805015      -5.42940406       0.00000000       0.00000000      -0.01197895       0.00485931       0.01618244      -0.06462015
C       -4.86502322       1.01970746      -4.00441186       0.00000000       0.00000000      -0.02310523      -0.03097849       0.02954180      -0.05744393
C       -5.88224888       0.21585023      -3.19206017       0.00000000       0.00000000      -0.01234362       0.01513250       0.03289586      -0.06823585
C       -5.54836999       0.13345035      -1.69482718       0.00000000       0.00000000      -0.00445813       0.00299280      -0.04376442      -0.06980253
C       -4.50973001      -0.95424987      -1.42654073       0.00000000       0.00000000       0.00997463      -0.01771854      -0.02970343      -0.01004012
N       -4.08881975      -1.08407252      -0.02954119       0.00000000       0.00000000       0.06961056       0.02974414      -0.01618372      -0.05054625
C       -5.14557689      -1.08347876       0.97962598       0.00000000       0.00000000       0.00296197      -0.03577082      -0.01010453      -0.01836495
C       -6.28214801      -2.10699999       0.81228121       0.00000000       0.00000000       0.00367440      -0.01164229       0.00762508      -0.07230783
C       -5.92118778      -3.53127559       1.23850399       0.00000000       0.00000000       0.00620487       0.02464365       0.02835648      -0.06738642
C       -5.12465440      -4.27036593       0.16067691       0.00000000       0.00000000      -0.00191502       0.04748411      -0.00728426      -0.06582694
C       -4.03825890      -5.18437565       0.71582561       0.00000000       0.00000000       0.02333515      -0.01107823      -0.03852328      -0.05972687
C       -3.16750075      -5.73181219      -0.42068677       0.00000000       0.00000000      -0.00236384       0.01666302      -0.04780406      -0.06604624
C       -1.68798204      -5.82818176      -0.05665208       0.00000000       0.00000000      -0.02245866       0.00392450       0.00147369      -0.05216051
C       -1.05132053      -4.45681371       0.14559096       0.00000000       0.00000000       0.02334756       0.03155039      -0.02233848      -0.09547010
C       -2.78792510      -1.07252468       0.24385451       0.00000000       0.00000000      -0.00888719       0.01996880      -0.07387700       0.26084178
O       -1.90276021      -0.90343124      -0.62131678       0.00000000       0.00000000      -0.12931779      -0.04482586       0.08776344      -0.39183620
C       -2.30862069      -1.27233784       1.68442975       0.00000000       0.00000000      -0.02723367       0.01263506       0.01384950       0.05312261
O       -0.89847318      -1.44628081       1.61046746       0.00000000       0.00000000      -0.08201519       0.01527141      -0.01710266      -0.21585685
C       -0.30326403      -1.57347219       2.88845222       0.00000000       0.00000000       0.03619595       0.06068434       0.01187533       0.04995207
C        1.22310466      -1.52628509       2.69441658       0.00000000       0.00000000      -0.03415112      -0.03330852      -0.01042248       0.26385745
O        1.66655336      -0.83047532       1.76049061       0.00000000       0.00000000      -0.04636288       0.02443044      -0.00122779      -0.38270108
N        1.98775686      -2.18737243       3.54813069       0.00000000       0.00000000       0.07965019      -0.04071130       0.08050907      -0.05099734
C        1.43587232      -3.03527520       4.60412702       0.00000000       0.00000000       0.01170425       0.01805875      -0.11070987      -0.02282975
C        0.98075737      -2.19712323       5.79924759       0.00000000       0.00000000      -0.02756324      -0.03286394       0.00929886      -0.07801467
C        0.05036450      -2.95103341       6.74497162       0.00000000       0.00000000      -0.05352990      -0.03371283       0.03828968      -0.06597704
C       -0.30932408      -2.15422903       8.00396329       0.00000000       0.00000000      -0.01410285      -0.00092535      -0.01042511      -0.06455531
C       -1.10434291      -0.87362872       7.74417379       0.00000000       0.00000000      -0.02781611       0.00643107       0.00551942      -0.05729096
C       -1.28295264      -0.05512436       9.02306761       0.00000000       0.00000000      -0.01811240       0.03296962       0.01180417      -0.06370369
C       -2.15085003       1.19242731       8.83790543       0.00000000       0.00000000      -0.00521661       0.02874077      -0.01955850      -0.05668932
C       -1.46671727       2.30090513       8.04268419       0.00000000       0.00000000       0.00116556      -0.00116706       0.01728168      -0.09700153
C        3.45491502      -2.11948069       3.52215150       0.00000000       0.00000000      -0.03716881      -0.07817833      -0.01999606      -0.01344000
C        4.09108797      -0.73546080       3.36281472       0.00000000       0.00000000       0.01382185      -0.06911442      -0.04655687      -0.06168141
C        5.50742386      -0.74629372       3.97256382       0.00000000       0.00000000       0.00471544      -0.04873863      -0.00167738      -0.06887743
C        5.87037182       0.52308373       4.74814510       0.00000000       0.00000000       0.00255826       0.03624312       0.06269546      -0.06107973
C        6.96641838       0.24227051       5.78317804       0.00000000       0.00000000       0.07058848      -0.04773418       0.03327875      -0.06264659
C        7.64633607       1.50306197       6.31744337       0.00000000       0.00000000       0.01747295       0.12277308      -0.02640287      -0.06375896
C        6.77642644       2.36846849       7.24354870       0.00000000       0.00000000       0.03041781       0.03589326      -0.00751005      -0.05860763
C        6.74798879       1.84856387       8.68572696       0.00000000       0.00000000       0.08050594       0.01040714       0.08418923      -0.06284356
C        6.18540529       2.81846220       9.74890768       0.00000000       0.00000000      -0.01561312      -0.02646178      -0.05611863      -0.06750943
C        4.76209903       2.56686034      10.27477691       0.00000000       0.00000000      -0.03884318       0.04108970       0.00003893      -0.06323440
C        3.71547859       3.46665733       9.62457803       0.00000000       0.00000000      -0.09701097       0.14139369      -0.06033544      -0.05533658
C        2.31089172       3.24314275      10.19103674       0.00000000       0.00000000       0.08038526       0.03704081       0.02706668      -0.10073118
H       -1.84820024      -4.83009841      -8.99477273       0.00000000       0.00000000      -0.00843089       0.02273581       0.01858188       0.04477516
H       -1.81523984      -4.16651928      -7.36651876       0.00000000       0.00000000       0.02962262       0.00577177      -0.04711723       0.02656974
H       -0.39964383      -4.01019252      -8.42075312       0.00000000       0.00000000      -0.02955772       0.00451027      -0.00000326       0.03097498
H       -3.11408252      -2.65708728      -8.80504990       0.00000000       0.00000000       0.01166354       0.01971951      -0.01153463       0.03856869
H       -1.83149496      -2.63203200     -10.00635857       0.00000000       0.00000000      -0.00215061      -0.01294612       0.01127303       0.04323564
H       -1.76242606      -0.55711659      -8.78727993       0.00000000       0.00000000      -0.01390016      -0.00054422       0.00205724       0.03793618
H       -0.31249939      -1.49355969      -8.46146776       0.00000000       0.00000000       0.00254869       0.00118794      -0.00495910       0.03127701
H       -1.10460702      -0.40300995      -6.45032958       0.00000000       0.00000000      -0.01173152      -0.01401534      -0.00804918      -0.00028333
H       -1.13661157      -2.15912953      -6.27036686       0.00000000       0.00000000      -0.00470646       0.00998118      -0.01009586       0.01589486
H       -3.11629689      -1.15265720      -5.24658670       0.00000000       0.00000000       0.01914039      -0.01101990      -0.01294502       0.00307569
H       -3.58025194      -2.18849293      -6.58682216       0.00000000       0.00000000       0.01185128       0.01985300      -0.00772231       0.04414891
H       -3.92630787      -0.29364825      -8.04674440       0.00000000       0.00000000      -0.01338513      -0.00399705      -0.01392651       0.04924364
H       -3.26819764       0.82819875      -6.86972279       0.00000000       0.00000000       0.02965608       0.01369945      -0.00209526       0.02460485
H       -5.61108635      -0.79303840      -5.93244890       0.00000000       0.00000000       0.01959574       0.01147300       0.00245667       0.04011768
H       -5.93595591       0.33434638      -7.23209292       0.00000000       0.00000000       0.01414910      -0.00001979       0.00103864       0.04845111
H       -4.78732812       2.13338664      -5.84680434       0.00000000       0.00000000       0.00804702       0.02336610       0.00484237       0.03244645
H       -6.39418617       1.62180472      -5.36794712       0.00000000       0.00000000       0.00012090      -0.01488465      -0.01181422       0.04546229
H       -4.71066942       1.97704381      -3.50062817       0.00000000       0.00000000      -0.00441355       0.00445793      -0.00110893       0.02503994
H       -3.90366770       0.50330060      -4.03041170       0.00000000       0.00000000       0.00984977       0.00384755      -0.00624785       0.01545195
H       -5.97992697      -0.79245174      -3.59977323       0.00000000       0.00000000       0.01034299       0.04414692       0.01974324       0.04608467
H       -6.85448373       0.70054408      -3.29629082       0.00000000       0.00000000       0.02535781       0.00571201       0.00796731       0.05783349
H       -6.46540510      -0.09220211      -1.15033433       0.00000000       0.00000000       0.01293918       0.01331221      -0.04424973       0.05679855
H       -5.18355493       1.10397256      -1.35090656       0.00000000       0.00000000       0.03330519      -0.02397550       0.00779000       0.03904879
H       -3.60915707      -0.75917115      -2.01071183       0.00000000       0.00000000       0.01529241       0.00748426       0.02825133       0.07121355
H       -4.92261862      -1.91721956      -1.74079807       0.00000000       0.00000000      -0.01497418       0.01144157      -0.06570153       0.07378328
H       -5.59110979      -0.08430076       0.97567200       0.00000000       0.00000000       0.02560834       0.03011114      -0.00305344       0.06999401
H       -4.69783074      -1.24094081       1.95816317       0.00000000       0.00000000      -0.01291036       0.03117678       0.01452108       0.05933785
H       -6.65656289      -2.12908965      -0.21043980       0.00000000       0.00000000       0.01080459       0.03842644       0.03827633       0.06354445
H       -7.09457672      -1.74967380       1.44758281       0.00000000       0.00000000      -0.00060119      -0.00134884      -0.00202765       0.06306586
H       -6.84058299      -4.07182698       1.46422009       0.00000000       0.00000000       0.03084395      -0.00654920      -0.03864912       0.05720263
H       -5.34816896      -3.49366396       2.16783917       0.00000000       0.00000000      -0.00757928       0.01280471      -0.01223996       0.03306408
H       -4.63416230      -3.53219461      -0.47595958       0.00000000       0.00000000       0.03058068      -0.05479948       0.00351520       0.02457531
H       -5.79981985      -4.84881518      -0.47183758       0.00000000       0.00000000       0.02470941       0.02080969       0.02453296       0.04639046
H       -4.48474512      -5.99883462       1.28581192       0.00000000       0.00000000       0.00339592      -0.01463742      -0.02181319       0.04232422
H       -3.41245974      -4.61339026       1.40537010       0.00000000       0.00000000      -0.05499853       0.01279827       0.01929693       0.01983254
H       -3.26269534      -5.07704675      -1.29302899       0.00000000       0.00000000       0.02503304      -0.02438409       0.04641112       0.02614276
H       -3.52846364      -6.71462281      -0.71625580       0.00000000       0.00000000       0.00649347       0.03101412       0.01402671       0.05445715
H       -1.16842212      -6.35798019      -0.85747242       0.00000000       0.00000000       0.02228777       0.00179888      -0.01203668       0.03033684
H       -1.57938155      -6.41675682       0.85520390       0.00000000       0.00000000       0.00577041       0.01655713       0.01838664       0.04079540
H       -1.24812566      -3.80434891      -0.70867772       0.00000000       0.00000000       0.03125551      -0.01360710       0.05853741       0.02343916
H        0.02275960      -4.54025693       0.28013933       0.00000000       0.00000000      -0.00088662      -0.01548285      -0.02780593       0.03514305
H       -1.45034182      -3.97671612       1.03460785       0.00000000       0.00000000      -0.02152236       0.01810826      -0.00715799       0.02414656
H       -2.77594005      -2.14659336       2.15766153       0.00000000       0.00000000       0.02095467      -0.02304751      -0.03566925       0.08414326
H       -2.54453349      -0.36726770       2.26512788       0.00000000       0.00000000      -0.01374018      -0.05885903       0.02919427       0.07921305
H       -0.65610306      -2.49405763       3.36224460       0.00000000       0.00000000      -0.00760956      -0.00562437       0.04096458       0.08106061
H       -0.57397088      -0.71191368       3.52387153       0.00000000       0.00000000      -0.01785190      -0.06736309      -0.05201838       0.08359822
H        2.21305702      -3.73894964       4.89824608       0.00000000       0.00000000      -0.02271380      -0.04238453       0.08686500       0.08311726
H        0.61813921      -3.63192232       4.19935349       0.00000000       0.00000000      -0.06622932      -0.04571170       0.04348097       0.05662455
H        0.47684318      -1.30845836       5.42696848       0.00000000       0.00000000      -0.06202241       0.06804359      -0.01990435       0.03046491
H        1.85533924      -1.86782689       6.34820914       0.00000000       0.00000000       0.06410519       0.00388128       0.04594257       0.07581318
H        0.53356403      -3.88056694       7.04998275       0.00000000       0.00000000      -0.00784611       0.00172084       0.01698442       0.04798074
H       -0.86719275      -3.21179218       6.21885977       0.00000000       0.00000000      -0.04854380      -0.01706468      -0.02542960       0.03971894
H        0.60162338      -1.90492084       8.54891390       0.00000000       0.00000000       0.02911619       0.01997730      -0.01859020       0.04157768
H       -0.90132125      -2.80010525       8.65421755       0.00000000       0.00000000       0.01356619      -0.00083320       0.01492507       0.04828607
H       -2.08958466      -1.12976922       7.35058483       0.00000000       0.00000000       0.01227015      -0.01402788      -0.01283006       0.02966247
H       -0.59604508      -0.26278481       6.99659032       0.00000000       0.00000000       0.02425674       0.00028909      -0.00661964       0.01647635
H       -0.30521346       0.24382050       9.40305428       0.00000000       0.00000000       0.04027836       0.01085193       0.00704175       0.03872234
H       -1.74578308      -0.68797751       9.77997089       0.00000000       0.00000000      -0.02447949      -0.03743946       0.01679285       0.04200471
H       -2.40917298       1.58883646       9.82159162       0.00000000       0.00000000       0.02245662      -0.04113907      -0.03062729       0.04668074
H       -3.08466688       0.91417390       8.34081771       0.00000000       0.00000000       0.00271160      -0.00172457       0.03958374       0.02785439
H       -0.51974056       2.57685565       8.50457323       0.00000000       0.00000000      -0.04047382      -0.04739223      -0.01937935       0.04357871
H       -2.09755614       3.18775045       8.01345743       0.00000000       0.00000000       0.00502946      -0.03369925      -0.01303331       0.03399988
H       -1.27616377       1.98160041       7.01702525       0.00000000       0.00000000      -0.02415927      -0.01162400       0.05025392       0.00821442
H        3.82236889      -2.79287223       2.74137841       0.00000000       0.00000000      -0.01990533       0.04317022      -0.01633698       0.06849734
H        3.77272163      -2.51390931       4.49021118       0.00000000       0.00000000       0.00670706       0.00309567      -0.10551942       0.08255112
H        3.47587110      -0.00215364       3.88386452       0.00000000       0.00000000      -0.03134100       0.01228181       0.02350175       0.04746262
H        4.12484275      -0.45442195       2.30846878       0.00000000       0.00000000      -0.05659399       0.02044252       0.04448450       0.03864033
H        6.24945381      -0.93222108       3.19183015       0.00000000       0.00000000      -0.05387288       0.01296573       0.08812545       0.03884332
H        5.57693574      -1.57493358       4.68067837       0.00000000       0.00000000       0.02705238      -0.00074367      -0.03273385       0.04538431
H        4.98471588       0.88266120       5.27151758       0.00000000       0.00000000       0.00443925       0.02911190      -0.01742521       0.04120272
H        6.20063719       1.31184443       4.06924294       0.00000000       0.00000000       0.01014605      -0.02039689      -0.04050486       0.02613325
H        7.72982097      -0.39847557       5.33105147       0.00000000       0.00000000      -0.03780456       0.09513418      -0.02563802       0.03380520
H        6.54019549      -0.30897204       6.62206470       0.00000000       0.00000000      -0.03359304      -0.04556616      -0.01952619       0.04153800
H        7.98439674       2.10229907       5.46630926       0.00000000       0.00000000      -0.08937295       0.02091216       0.02025891       0.02871298
H        8.54443832       1.21267920       6.86286852       0.00000000       0.00000000       0.00580322      -0.04358529       0.03527412       0.04481384
H        5.77346829       2.44615938       6.82087623       0.00000000       0.00000000      -0.04274630       0.05578586       0.08344570       0.02149983
H        7.20335598       3.37383851       7.25753912       0.00000000       0.00000000      -0.02545232      -0.00430914       0.01577015       0.03545403
H        7.78730390       1.65378803       8.96022480       0.00000000       0.00000000      -0.00247690      -0.04324258      -0.02494260       0.03784080
H        6.23023869       0.89095081       8.73796039       0.00000000       0.00000000      -0.08561037      -0.00209929      -0.00887662       0.03106815
H        6.23847794       3.84026040       9.36819707       0.00000000       0.00000000       0.06100299      -0.01840908       0.01678978       0.03778274
H        6.84562622       2.76004847      10.61071012       0.00000000       0.00000000       0.11969071       0.04491311       0.03005062       0.04213557
H        4.74048765       2.77221051      11.34598606       0.00000000       0.00000000       0.05585515      -0.00163260       0.02814475       0.03901160
H        4.48532943       1.51830578      10.15595492       0.00000000       0.00000000       0.04248008      -0.01166837      -0.06575168       0.03137259
H        3.72383720       3.30788092       8.54252020       0.00000000       0.00000000      -0.02795013       0.02320227       0.09806424       0.02190955
H        3.99132499       4.51210956       9.79860116       0.00000000       0.00000000      -0.01112460      -0.09143200      -0.02649421       0.03333868
H        2.04117100       2.18649915      10.19790255       0.00000000       0.00000000       0.02091146       0.07489932      -0.03022950       0.02681371
H        1.56632323       3.79161278       9.61319506       0.00000000       0.00000000       0.05678284      -0.02729500       0.02045983       0.02422348
H        2.26176878       3.59577787      11.21893588       0.00000000       0.00000000       0.02366537      -0.01750328      -0.02606590       0.04372139
C        4.02948663       9.55171904       1.12091915       0.00000000       0.00000000      -0.00045520       0.00190895       0.00409994      -0.10653171
C        2.55964885       9.70995008       1.49637237       0.00000000       0.00000000       0.01008742      -0.04241201      -0.03059156      -0.05681956
C        1.94541789       8.41210469       2.02956288       0.00000000       0.00000000       0.00528757      -0.01671715      -0.00260521      -0.06245765
C        1.54118199       7.40043327       0.95253372       0.00000000       0.00000000       0.01821119       0.01674606      -0.01207715      -0.05179196
C        0.29657333       7.76885758       0.13927813       0.00000000       0.00000000      -0.00904674       0.01655193      -0.01327406      -0.05790649
C       -0.92945149       8.05238432       1.00821075       0.00000000       0.00000000      -0.03402236      -0.01953403       0.01713839      -0.06434269
C       -2.26279143       8.02806422       0.24313709       0.00000000       0.00000000      -0.02273216      -0.00083946      -0.02858899      -0.06735744
C       -3.11072294       6.78370611       0.52148026       0.00000000       0.00000000      -0.01704172      -0.01702900      -0.02305470      -0.06312310
C       -2.62929106       5.49941231      -0.16405040       0.00000000       0.00000000      -0.01132298      -0.03262583      -0.04070502      -0.05690574
C       -3.07045015       5.43808013      -1.62894410       0.00000000       0.00000000      -0.00202526       0.04802037      -0.03312567      -0.06752580
C       -2.84630668       4.07427959      -2.29419532       0.00000000       0.00000000      -0.01973928       0.09401740       0.03958730      -0.06459119
C       -1.36645232       3.78120225      -2.53449536       0.00000000       0.00000000       0.06051234       0.02817182      -0.00964890      -0.01205366
N       -1.14204824       2.54657938      -3.28284965       0.00000000       0.00000000       0.01048868       0.07149399       0.03747672      -0.04508468
C       -1.32554626       2.60563273      -4.72322656       0.00000000       0.00000000       0.00971217       0.01302513      -0.01041602      -0.02240653
C       -0.23533215       3.38494488      -5.47543347       0.00000000       0.00000000       0.01049620       0.02727779      -0.00646447      -0.07540772
C        1.21555392       2.94006865      -5.26497738       0.00000000       0.00000000      -0.02592725      -0.00244626       0.01038837      -0.06532465
C        1.82104488       3.40701232      -3.94106233       0.00000000       0.00000000       0.01792401       0.03460814       0.02020060      -0.06019687
C        3.34196922       3.24644790      -3.86394967       0.00000000       0.00000000       0.02374892       0.00949488       0.01054266      -0.05369836
C        4.09148216       4.06296527      -4.91519879       0.00000000       0.00000000       0.01790466       0.01865265      -0.02403167      -0.06470735
C        5.56698717       4.31716865      -4.59685950       0.00000000       0.00000000      -0.01952896      -0.00412886       0.03882705      -0.05705418
C        6.43170130       3.06811323      -4.69681327       0.00000000       0.00000000      -0.00792284       0.00603533       0.00115540      -0.10349937
C       -0.70918752       1.47971325      -2.63133996       0.00000000       0.00000000      -0.00270392      -0.07623159       0.00676499       0.26532807
O       -0.49456525       1.47917889      -1.40259695       0.00000000       0.00000000      -0.01210573       0.06177453       0.02670908      -0.38901053
C       -0.43986813       0.18693375      -3.40484313       0.00000000       0.00000000       0.00728846      -0.02459012      -0.00586691       0.05099806
O        0.16951570      -0.69257168      -2.48265935       0.00000000       0.00000000       0.00588332      -0.02427141       0.00035944      -0.21415121
C        0.62579303      -1.89192690      -3.07418681       0.00000000       0.00000000       0.06314107      -0.02795234       0.02508121       0.04676760
C        1.24043368      -2.71214486      -1.92142117       0.00000000       0.00000000      -0.05667657       0.03421250      -0.07280351       0.26888300
O        1.10610736      -2.26131713      -0.77033783       0.00000000       0.00000000      -0.01512741      -0.02636952       0.02639190      -0.37063488
N        1.87700402      -3.82891278      -2.23613293       0.00000000       0.00000000       0.05807934      -0.07297972      -0.05571831      -0.05327111
C        1.77082754      -4.42973262      -3.56641769       0.00000000       0.00000000       0.02033241       0.02079267       0.01283448      -0.02808108
C        0.57290631      -5.38594329      -3.65512406       0.00000000       0.00000000       0.05064086       0.00672415       0.01885950      -0.06916082
C        0.18811553      -5.70539558      -5.09945232       0.00000000       0.00000000       0.02659706       0.02795171       0.01379480      -0.06389836
C       -1.04198160      -6.61132626      -5.17230813       0.00000000       0.00000000       0.00905314       0.03245806      -0.00529808      -0.06658814
C       -2.32814641      -5.90190585      -4.75261686       0.00000000       0.00000000      -0.02224460      -0.00679943       0.01408958      -0.05573053
C       -3.55026878      -6.79952766      -4.94523044       0.00000000       0.00000000      -0.01485566      -0.01265751      -0.00591574      -0.06345744
C       -4.86898210      -6.02779048      -4.98716506       0.00000000       0.00000000       0.01489607       0.00989404      -0.01816311      -0.05678014
C       -5.18680404      -5.28549319      -3.69393853       0.00000000       0.00000000       0.00705793      -0.01118176      -0.02693902      -0.10046559
C        2.51668808      -4.73965327      -1.27792732       0.00000000       0.00000000      -0.03512753      -0.01123975      -0.03837324      -0.01289906
C        2.94259908      -4.21712338       0.09045517       0.00000000       0.00000000       0.02597857      -0.05080215       0.04584074      -0.06430463
C        3.38209894      -5.40602727       0.96326370       0.00000000       0.00000000       0.00822526      -0.06999079       0.03009058      -0.06876012
C        2.20077773      -6.21395289       1.51073018       0.00000000       0.00000000       0.01210382       0.00622747       0.02500708      -0.06053927
C        2.61996199      -7.49643975       2.23446318       0.00000000       0.00000000       0.00208672       0.02577956      -0.05110336      -0.06361374
C        1.42476615      -8.25687648       2.82237134       0.00000000       0.00000000       0.04419479       0.02355140       0.00393076      -0.06251569
C        0.39612954      -8.75291872       1.80187082       0.00000000       0.00000000       0.02879759       0.00786653      -0.00193293      -0.06038154
C        0.98017786      -9.72649033       0.77719411       0.00000000       0.00000000      -0.02275091      -0.01464860      -0.00835145      -0.05888249
C       -0.04826725     -10.68495521       0.17129280       0.00000000       0.00000000      -0.00270433      -0.04111252      -0.02457887      -0.06502957
C       -1.13904387     -10.04200164      -0.69484065       0.00000000       0.00000000       0.02019527       0.00537327      -0.03944061      -0.05918531
C       -2.40022437      -9.64811414       0.07577458       0.00000000       0.00000000       0.01125433      -0.04453409      -0.01830429      -0.05651805
C       -3.57305933      -9.38799544      -0.86255942       0.00000000       0.00000000      -0.01750847       0.00273828      -0.01387758      -0.10223729
H        4.42710027      10.49303554       0.75122044       0.00000000       0.00000000      -0.01356028      -0.00577891      -0.00973390       0.04366474
H        4.16613660       8.79991532       0.34686647       0.00000000       0.00000000       0.00147610       0.03588608       0.04899371       0.03251744
H        4.61323034       9.25880483       1.99121463       0.00000000       0.00000000      -0.00112377      -0.00636778       0.00013369       0.03406046
H        1.99681022      10.06744012       0.63308907       0.00000000       0.00000000      -0.02261683      -0.02159625       0.00387696       0.03676389
H        2.48423624      10.47298780       2.27185924       0.00000000       0.00000000      -0.01009056       0.00198642       0.00347059       0.04027483
H        1.07389476       8.64427658       2.64074454       0.00000000       0.00000000      -0.01549515       0.02065913       0.00687775       0.03345268
H        2.67769714       7.93491093       2.68545648       0.00000000       0.00000000       0.02012813      -0.00392479       0.02841042       0.02959092
H        1.36688293       6.43339258       1.44350552       0.00000000       0.00000000      -0.01456179       0.02425912      -0.00574114      -0.00904783
H        2.37382674       7.26751394       0.25936111       0.00000000       0.00000000      -0.01795246      -0.01283897       0.02316617       0.03471439
H        0.08046404       6.94577902      -0.54909899       0.00000000       0.00000000       0.01158446      -0.01956670       0.00824099       0.01314717
H        0.50500406       8.64407772      -0.47580386       0.00000000       0.00000000       0.01759290       0.01755586       0.01278234       0.04373531
H       -0.80259783       9.03410894       1.46186831       0.00000000       0.00000000      -0.00780059       0.00017250       0.00832734       0.04719836
H       -0.97302781       7.32323475       1.82124926       0.00000000       0.00000000       0.01866469      -0.01006763       0.01635973       0.02188992
H       -2.08194935       8.12069885      -0.82741194       0.00000000       0.00000000       0.01874233       0.00001783      -0.01781035       0.04127520
H       -2.85510850       8.89476591       0.53831932       0.00000000       0.00000000       0.01251793      -0.01401779       0.00536814       0.04763247
H       -4.13385755       6.97397670       0.19276615       0.00000000       0.00000000      -0.00953314       0.02945286       0.03278784       0.04398010
H       -3.14600073       6.62969210       1.60284203       0.00000000       0.00000000      -0.00021912      -0.01070602      -0.00192351       0.02917347
H       -3.05994373       4.63860095       0.35890018       0.00000000       0.00000000       0.03965692       0.01294380      -0.01476677       0.01675402
H       -1.54226123       5.42806270      -0.09106367       0.00000000       0.00000000      -0.03487276      -0.01120701       0.01723857       0.02266326
H       -2.56329965       6.21662970      -2.20480369       0.00000000       0.00000000      -0.00070629      -0.07973295       0.04175805       0.04784748
H       -4.13994605       5.65959080      -1.67022475       0.00000000       0.00000000       0.04445282      -0.03790244      -0.00214065       0.05568237
H       -3.37064799       4.07201491      -3.25163418       0.00000000       0.00000000      -0.01066666      -0.00315744       0.02885055       0.05036400
H       -3.27560293       3.29228993      -1.66399427       0.00000000       0.00000000       0.01646268      -0.03671019      -0.03047296       0.03889521
H       -0.84994983       3.67299501      -1.57843863       0.00000000       0.00000000      -0.01858559       0.01629951      -0.03077637       0.06896519
H       -0.91543923       4.60387204      -3.09199580       0.00000000       0.00000000      -0.02510100      -0.00371545      -0.00824964       0.07716695
H       -2.28212156       3.09538166      -4.91569649       0.00000000       0.00000000      -0.02927988       0.04016739       0.00796052       0.08238207
H       -1.39988100       1.59406402      -5.11675038       0.00000000       0.00000000       0.01621083       0.00329096      -0.02678006       0.06021383
H       -0.30269430       4.44796719      -5.23766465       0.00000000       0.00000000      -0.02662061      -0.01831652       0.01070402       0.05898408
H       -0.47334636       3.28608035      -6.53597920       0.00000000       0.00000000      -0.02150053      -0.00407075       0.00830067       0.06923189
H        1.79416289       3.38638954      -6.07348250       0.00000000       0.00000000       0.01148131       0.00141218      -0.00249241       0.06633350
H        1.30515683       1.85642954      -5.36559024       0.00000000       0.00000000      -0.00617552      -0.01483647      -0.00601732       0.02224981
H        1.37859575       2.86652962      -3.09778174       0.00000000       0.00000000       0.01252746      -0.03038278      -0.02141079       0.00550984
H        1.59542839       4.46859470      -3.81311880       0.00000000       0.00000000      -0.03183299      -0.01174723      -0.01078517       0.04040319
H        3.61359836       2.19399839      -3.94232573       0.00000000       0.00000000      -0.02274421       0.03360948      -0.03538428       0.02583670
H        3.64115287       3.58732420      -2.86904889       0.00000000       0.00000000       0.00602129       0.01878870      -0.02419328       0.01432016
H        3.58667067       5.02677474      -5.00970232       0.00000000       0.00000000       0.04842543      -0.06431328      -0.01010296       0.04101639
H        4.03990045       3.55963221      -5.88087018       0.00000000       0.00000000      -0.02603202       0.03371338       0.03401616       0.04723074
H        5.66388449       4.75034645      -3.59868405       0.00000000       0.00000000      -0.02469235      -0.03754869      -0.06877860       0.03389857
H        5.95024610       5.05031344      -5.30925541       0.00000000       0.00000000      -0.02881862       0.03110034       0.02310055       0.04183063
H        6.07695130       2.29637584      -4.02010694       0.00000000       0.00000000       0.00131719      -0.02357645       0.05436903       0.01993246
H        7.46178945       3.30506150      -4.44379655       0.00000000       0.00000000       0.01149556      -0.01346853      -0.00436931       0.03799035
H        6.41702116       2.67219693      -5.70953757       0.00000000       0.00000000      -0.02065874       0.00073012       0.00866160       0.04173481
H        0.23687052       0.36600671      -4.24965606       0.00000000       0.00000000       0.00500134       0.03220504      -0.02396325       0.08189705
H       -1.38311417      -0.24310734      -3.77819437       0.00000000       0.00000000       0.02278759       0.03290792       0.00041729       0.08049575
H        1.38513397      -1.66028198      -3.83552929       0.00000000       0.00000000       0.01624317      -0.01323804      -0.00156845       0.07644777
H       -0.20405103      -2.43687269      -3.54652137       0.00000000       0.00000000      -0.02057450       0.00102334       0.05197765       0.08445463
H        2.69501544      -4.97420105      -3.76504822       0.00000000       0.00000000      -0.00218338      -0.01082408      -0.02845949       0.08170225
H        1.68219793      -3.65584939      -4.32836374       0.00000000       0.00000000       0.00669656      -0.02460235       0.03038900       0.05933981
H       -0.27629640      -4.93724279      -3.13659154       0.00000000       0.00000000       0.01116275       0.02511815      -0.01533671       0.04173261
H        0.81227858      -6.32359955      -3.15292015       0.00000000       0.00000000      -0.00819632       0.01209278       0.03901632       0.05704849
H        1.02811756      -6.19684948      -5.59328580       0.00000000       0.00000000      -0.01557511       0.00370134       0.02458410       0.04815886
H       -0.01989277      -4.78144295      -5.64486109       0.00000000       0.00000000       0.02453076       0.00285602       0.01580245       0.03360018
H       -0.88687816      -7.49231358      -4.54677504       0.00000000       0.00000000      -0.01035915       0.00553403      -0.02282137       0.04284363
H       -1.15702750      -6.95120205      -6.20211279       0.00000000       0.00000000       0.01568694      -0.01325426       0.00366966       0.05330613
H       -2.45009717      -4.99829167      -5.35674309       0.00000000       0.00000000      -0.00207855      -0.01449874      -0.01510429       0.02559931
H       -2.26353024      -5.59819805      -3.70631212       0.00000000       0.00000000      -0.01411628       0.00262204       0.01311500       0.02063396
H       -3.58656664      -7.54481664      -4.14857197       0.00000000       0.00000000       0.00357468      -0.00020407      -0.00009612       0.03630190
H       -3.43960790      -7.33433704      -5.88978871       0.00000000       0.00000000      -0.03431039      -0.01393404      -0.00486053       0.04237701
H       -5.67366677      -6.73435818      -5.19551998       0.00000000       0.00000000      -0.00163697       0.02647082       0.00442540       0.04453483
H       -4.83400224      -5.31405622      -5.81387170       0.00000000       0.00000000      -0.02099725      -0.00017724      -0.00350118       0.03180471
H       -5.23219784      -5.98192686      -2.85980987       0.00000000       0.00000000       0.00897782       0.01636211      -0.00555288       0.03882103
H       -6.14903852      -4.78660272      -3.78038447       0.00000000       0.00000000      -0.02017198      -0.00963801       0.01948511       0.03384341
H       -4.43080945      -4.53009476      -3.48263328       0.00000000       0.00000000      -0.00616739      -0.01250721       0.00733919       0.01567030
H        3.41038301      -5.11951351      -1.78150503       0.00000000       0.00000000       0.00062909      -0.02121736       0.02343612       0.07452800
H        1.83720739      -5.58275006      -1.13475466       0.00000000       0.00000000      -0.04454562      -0.03100791      -0.00364937       0.07918966
H        2.13025999      -3.68638154       0.58510245       0.00000000       0.00000000      -0.02115673      -0.00624610       0.00823383       0.05816547
H        3.76833191      -3.51444236      -0.03366880       0.00000000       0.00000000       0.02032776       0.00337127       0.00414404       0.03917886
H        3.97703426      -5.04103130       1.80310801       0.00000000       0.00000000      -0.01196740       0.01135846      -0.01817905       0.03869507
H        4.02765470      -6.06575450       0.37926932       0.00000000       0.00000000      -0.01355710       0.02141735       0.01031716       0.04849750
H        1.54202734      -6.49742340       0.69090575       0.00000000       0.00000000      -0.02110860       0.02099702      -0.00913016       0.03832158
H        1.62645691      -5.58774401       2.20008962       0.00000000       0.00000000      -0.00964310       0.01053131      -0.01325526       0.01978887
H        3.30856136      -7.25239418       3.04796807       0.00000000       0.00000000      -0.03012264       0.02435773      -0.03714763       0.03225343
H        3.15645682      -8.14429558       1.53894414       0.00000000       0.00000000      -0.03146305       0.02676438       0.01510566       0.04431379
H        0.91344561      -7.61263578       3.54359462       0.00000000       0.00000000       0.01527891       0.01322520       0.00944273       0.02442643
H        1.80678522      -9.11973219       3.37150608       0.00000000       0.00000000       0.00882629       0.03074422      -0.01284042       0.04541773
H       -0.05786622      -7.89990162       1.29487125       0.00000000       0.00000000       0.00573348      -0.04559806      -0.00568072       0.02261960
H       -0.39683381      -9.26260253       2.35193977       0.00000000       0.00000000       0.02990773      -0.00925868       0.03249899       0.04137866
H        1.73933284     -10.33503456       1.27294019       0.00000000       0.00000000       0.00008213      -0.00406952       0.00453654       0.03926107
H        1.47680253      -9.17949871      -0.02930994       0.00000000       0.00000000      -0.02047027       0.01168103       0.02807438       0.02095142
H       -0.52850875     -11.25077669       0.97209320       0.00000000       0.00000000       0.05032803      -0.00526904       0.00522945       0.04086622
H        0.50090469     -11.40288507      -0.44315808       0.00000000       0.00000000      -0.00538971       0.03307286       0.01646622       0.03802512
H       -1.43402853     -10.76543442      -1.45960696       0.00000000       0.00000000       0.01012906       0.03451939       0.03025126       0.03912106
H       -0.73389488      -9.16718986      -1.21492313       0.00000000       0.00000000      -0.02704805      -0.04842610       0.02112292       0.01784317
H       -2.21373860      -8.76325545       0.68465896       0.00000000       0.00000000       0.00144810       0.01522225      -0.00335200       0.02462336
H       -2.67371958     -10.46100662       0.75002337       0.00000000       0.00000000       0.00509580      -0.00504551       0.01199420       0.03770406
H       -3.30561025      -8.66293537      -1.62983492       0.00000000       0.00000000       0.01725230      -0.00399899      -0.00915696       0.02380119
H       -4.42998291      -9.01408602      -0.30638191       0.00000000       0.00000000      -0.02180922      -0.00097139      -0.01075921       0.03160257
H       -3.87245888     -10.30477592      -1.36239052       0.00000000       0.00000000       0.01546553      -0.02927496      -0.01071731       0.04363088
