64
Properties=species:S:1:pos:R:3:initial_charges:R:1:initial_magmoms:R:1:forces:R:3:charge:R:1 energy=-2582.2418922381976 free_energy=-2582.2418922381976 dipole="0.9878912258030147 0.4714711903399564 0.6817668947551244" pbc="F F F"
Gd      -0.19276030      -0.05750658      -0.04689592       3.00000000       0.00000000      -0.04151915      -0.02580982      -0.03051945       0.79792087
C       -2.04531749      -1.51945193      -2.19702681       0.00000000       0.00000000       0.00711072       0.06305159      -0.00397911      -0.01748355
O       -0.71813192      -1.83487566      -1.71332366       0.00000000       0.00000000      -0.08788622      -0.05091389       0.01137642      -0.24283088
C       -0.60606673      -3.25130083      -1.42895151       0.00000000       0.00000000       0.02970427       0.02666278      -0.00508565       0.04568026
C        0.57704675      -3.57695653      -0.51427526       0.00000000       0.00000000       0.00288650       0.01034385      -0.00799994      -0.02966715
N        0.57324477      -3.12053840       0.89522096       0.00000000       0.00000000      -0.04948602      -0.03871460      -0.03179794      -0.03477404
C        1.83518637      -3.35309371       1.57895672       0.00000000       0.00000000      -0.01299205       0.01833615      -0.01511018      -0.04391457
C        2.62284232      -2.03239119       1.70544080       0.00000000       0.00000000       0.01761289       0.00920278      -0.01409017       0.04063498
O        2.33367497      -1.15473061       0.58872702       0.00000000       0.00000000       0.10826377      -0.05879240       0.04523763      -0.27480282
C        3.51691932      -0.43899461       0.17167508       0.00000000       0.00000000      -0.01692276      -0.04048251       0.00540485      -0.01003489
C       -0.42571529      -2.40243880       1.40957412       0.00000000       0.00000000      -0.05539992      -0.03699782      -0.01128006       0.26176228
O       -1.35464149      -2.00010753       0.69657043       0.00000000       0.00000000      -0.02566273       0.01954666       0.09590469      -0.37182158
C       -0.47341550      -1.83835078       2.83965815       0.00000000       0.00000000       0.06144709      -0.00226289      -0.10400550       0.03291252
O       -0.48661795      -0.41317077       2.62465200       0.00000000       0.00000000       0.06141390       0.07975520      -0.04423746      -0.25204779
C       -1.69655675       0.34865444       2.77017350       0.00000000       0.00000000       0.05559485       0.07452522      -0.07844421       0.03819783
C       -2.00603374       1.00404837       1.40565348       0.00000000       0.00000000      -0.07449012      -0.10263302      -0.04999933       0.25483823
O       -2.33408237       0.24408163       0.47587434       0.00000000       0.00000000       0.10037585       0.08475627       0.09553775      -0.35734737
N       -1.95829400       2.31774063       1.14083074       0.00000000       0.00000000      -0.01043565       0.10209502      -0.00552252      -0.02961018
C       -2.70479461       2.74557267      -0.05039099       0.00000000       0.00000000      -0.00914161      -0.03125343       0.03224536      -0.03511337
C       -1.96393564       2.83010213      -1.38979151       0.00000000       0.00000000       0.00569403      -0.00861231       0.02244369       0.04871773
O       -1.22865728       1.63093661      -1.72578457       0.00000000       0.00000000       0.05900557       0.11037589      -0.04265367      -0.24253950
C       -0.59444684       1.81434225      -3.01013281       0.00000000       0.00000000       0.00204078      -0.03367198      -0.02269655      -0.01009007
C       -1.17298470       3.31497566       1.83698724       0.00000000       0.00000000       0.01630041       0.01059219       0.01055990      -0.03625445
C        0.04117317       3.72839360       0.97067353       0.00000000       0.00000000      -0.01659488       0.00072537       0.01259220       0.04461141
O        0.48483383       2.61193896       0.17586828       0.00000000       0.00000000       0.05009111       0.09185331       0.05704400      -0.25593194
C        1.70898338       2.93451929      -0.49650585       0.00000000       0.00000000      -0.02239122       0.01118126       0.01161830       0.00047564
H       -2.38745639      -2.26822427      -2.91685911       0.00000000       0.00000000       0.08283967       0.03491521       0.01605595       0.10630432
H       -1.99191877      -0.54509913      -2.68690856       0.00000000       0.00000000       0.00497317      -0.07263446      -0.06866732       0.10992637
H       -2.75904002      -1.44886378      -1.36869380       0.00000000       0.00000000       0.00586030      -0.18802078       0.04178839       0.12296642
H       -0.40396737      -3.75995086      -2.38235139       0.00000000       0.00000000      -0.06893068      -0.05798924       0.02002742       0.10192586
H       -1.54347662      -3.63364610      -1.01236827       0.00000000       0.00000000       0.03344733       0.06862239      -0.00243447       0.11579626
H        1.48929339      -3.18873017      -0.98361908       0.00000000       0.00000000       0.03576082       0.02801825       0.05803755       0.09844045
H        0.65019494      -4.66986562      -0.48216475       0.00000000       0.00000000       0.00474939      -0.00015049      -0.03362545       0.12320677
H        2.41114350      -4.06555305       0.98786310       0.00000000       0.00000000      -0.02649824      -0.04557137       0.00365154       0.11827823
H        1.67837977      -3.80113620       2.56174280       0.00000000       0.00000000       0.00027839       0.03523328       0.01777474       0.11146445
H        3.68966704      -2.27679475       1.73790983       0.00000000       0.00000000      -0.04160702       0.06252321      -0.05453317       0.10544768
H        2.36102393      -1.50786450       2.63372405       0.00000000       0.00000000       0.02833592      -0.03914879      -0.03212586       0.06916954
H        4.18689892      -1.09030889      -0.39722471       0.00000000       0.00000000       0.00037257      -0.06091151       0.06984624       0.08768356
H        4.06892012      -0.04093029       1.02634884       0.00000000       0.00000000      -0.01599094      -0.04614538      -0.01046563       0.08441745
H        3.20008376       0.39306321      -0.45567405       0.00000000       0.00000000       0.01173028      -0.01475863       0.04892639       0.09663591
H        0.38699955      -2.05817889       3.47103975       0.00000000       0.00000000       0.00863500      -0.04623124       0.05392834       0.10940062
H       -1.38426555      -2.18635104       3.33661901       0.00000000       0.00000000      -0.01378973      -0.00650541      -0.05641700       0.12737130
H       -1.54404877       1.05507920       3.58981633       0.00000000       0.00000000      -0.05212268       0.11926095       0.02671806       0.10575099
H       -2.55599638      -0.28662166       3.01802353       0.00000000       0.00000000       0.02268611      -0.01308259      -0.08999339       0.13347404
H       -3.11743863       3.73305321       0.16573346       0.00000000       0.00000000       0.00038226       0.02734659      -0.04535372       0.12081546
H       -3.53206742       2.04123501      -0.17076111       0.00000000       0.00000000      -0.04582925      -0.02028460       0.04054832       0.12577105
H       -1.28308775       3.68793929      -1.42751347       0.00000000       0.00000000       0.00778690      -0.04379992       0.04058303       0.08399817
H       -2.74567670       2.98285845      -2.14615025       0.00000000       0.00000000       0.04027236       0.01729393      -0.01717210       0.10424310
H       -1.14153424       2.52958360      -3.63073923       0.00000000       0.00000000      -0.02910379      -0.07301274       0.07242557       0.10642849
H       -0.59048452       0.85835369      -3.53732376       0.00000000       0.00000000      -0.03664339      -0.00933991       0.00171215       0.09024947
H        0.43047344       2.17586515      -2.88502889       0.00000000       0.00000000      -0.05871971       0.08722612      -0.03658656       0.08250906
H       -0.82661210       2.91893095       2.79119685       0.00000000       0.00000000      -0.07728239      -0.05840398       0.03238049       0.09013446
H       -1.79403431       4.19205202       2.03942107       0.00000000       0.00000000       0.06207850       0.03356648       0.01727115       0.12379555
H        0.85069141       4.07656260       1.62648325       0.00000000       0.00000000      -0.00528960      -0.03104637      -0.03500544       0.08678506
H       -0.21533102       4.56711660       0.31043514       0.00000000       0.00000000      -0.03776061      -0.06444507      -0.00023345       0.08926515
H        1.60998647       3.85986686      -1.07067624       0.00000000       0.00000000      -0.01044806       0.01784410       0.01698262       0.08882048
H        1.92620667       2.10912862      -1.17626425       0.00000000       0.00000000       0.01128939       0.01095843       0.00738100       0.09035349
H        2.53639103       3.05186708       0.21150680       0.00000000       0.00000000      -0.07654252       0.03943437       0.00929837       0.08364497
O        1.43976965      -0.27874013      -2.00333451       0.00000000       0.00000000       0.07261618      -0.01463113      -0.00960667      -0.50912441
H        1.21243668      -0.22456826      -2.94705788       0.00000000       0.00000000      -0.01452790       0.00362530       0.02224609       0.36281894
H        2.16302746      -0.92743275      -1.97542974       0.00000000       0.00000000      -0.02669765       0.04542079      -0.03364119       0.36000008
O        1.48187927       1.02376624       1.88195516       0.00000000       0.00000000       0.05822515       0.04929438       0.05539349      -0.51190099
H        1.25225911       1.78680304       2.43050187       0.00000000       0.00000000       0.00250131      -0.04698921      -0.04240429       0.34065008
H        2.26872814       0.66112722       2.31051467       0.00000000       0.00000000      -0.01165625      -0.01033978      -0.03725425       0.34159448
