394
Properties=species:S:1:pos:R:3:initial_charges:R:1:initial_magmoms:R:1:forces:R:3:charge:R:1 energy=-12323.176734882312 free_energy=-12323.176734882312 dipole="-1.224035119786812 -1.3792720979464996 0.6761757446197029" pbc="F F F"
Gd      -0.23939258       0.15034478       0.07903434       3.00000000       0.00000000       0.07441148       0.02320240       0.06014764       0.82804044
C        0.83876602       7.81416225      -0.68174797       0.00000000       0.00000000       0.06044828      -0.03728164       0.07252759      -0.10697739
C       -0.02322214       7.65510864       0.56920424       0.00000000       0.00000000      -0.01805843      -0.01372567       0.00754418      -0.05816844
C        0.57458876       6.75423920       1.65712699       0.00000000       0.00000000       0.01940911      -0.02210040      -0.01395489      -0.06290812
C        0.67895128       5.26979104       1.29102219       0.00000000       0.00000000      -0.01368468       0.04254973      -0.02173114      -0.06557259
C        1.22072010       4.40917481       2.44809806       0.00000000       0.00000000      -0.00553394       0.04737751      -0.02679734      -0.07135825
C        0.45400082       3.09897896       2.69681936       0.00000000       0.00000000      -0.03374629       0.07894716      -0.03643831      -0.05805205
C        1.37001927       2.03863882       3.33699967       0.00000000       0.00000000      -0.05635110       0.03910297      -0.14073655      -0.07357250
C        0.79407802       1.28422339       4.53111952       0.00000000       0.00000000       0.00464602       0.06746727      -0.02916745      -0.01116174
N       -0.52114134       0.63911721       4.42219514       0.00000000       0.00000000       0.03283892      -0.01238982       0.01150622      -0.04445226
C       -1.21020327       0.65615473       5.70626332       0.00000000       0.00000000       0.01864289       0.02453733       0.02386942      -0.02633885
C       -0.46923873      -0.04139475       6.86172256       0.00000000       0.00000000      -0.06591505       0.06783868      -0.02470893      -0.07783061
C       -0.63096936      -1.57021340       6.86519972       0.00000000       0.00000000      -0.05269848       0.13846147       0.02488321      -0.06620488
C        0.59426766      -2.35893720       6.39603467       0.00000000       0.00000000      -0.07103336       0.01357880      -0.00715913      -0.05958637
C        1.69987796      -2.44392746       7.45337321       0.00000000       0.00000000       0.05484717      -0.04036662       0.02035534      -0.06525427
C        2.57676798      -3.69390740       7.31726054       0.00000000       0.00000000       0.11803716      -0.06571968      -0.06687514      -0.06763740
C        3.74621749      -3.55519693       6.33169972       0.00000000       0.00000000       0.09783579       0.04045988      -0.00049138      -0.05096448
C        5.02060953      -3.06931431       7.02147236       0.00000000       0.00000000      -0.02851653       0.00456739      -0.01042585      -0.10888429
C       -0.99885187       0.14418876       3.29167859       0.00000000       0.00000000       0.02868634      -0.01382464      -0.01142608       0.25549931
O       -0.30551363       0.12680706       2.24863249       0.00000000       0.00000000      -0.02852231      -0.04295438      -0.05222152      -0.38025216
C       -2.41845707      -0.45922289       3.22012104       0.00000000       0.00000000       0.00557081      -0.01252393      -0.00612073       0.09220115
C       -3.54459531       0.54349988       3.57148823       0.00000000       0.00000000       0.01036084      -0.00228787      -0.01921291      -0.08146568
C       -4.54594246       0.03464173       4.61565761       0.00000000       0.00000000       0.00945311      -0.03632328      -0.05594638      -0.05787872
C       -5.75551979       0.95983641       4.67268457       0.00000000       0.00000000       0.00431479      -0.01347509      -0.02792388      -0.11266658
O       -2.62396083      -0.96376744       1.88965864       0.00000000       0.00000000      -0.00303233      -0.06674654      -0.11117809      -0.28889862
C       -3.17515851      -2.30272696       1.84297410       0.00000000       0.00000000      -0.13464091      -0.04020706      -0.01879107       0.08329525
C       -4.15313392      -2.52923971       0.65182930       0.00000000       0.00000000      -0.08516196      -0.03666652       0.02049795      -0.09111648
C       -5.55173336      -3.11549489       0.93037235       0.00000000       0.00000000      -0.00686069      -0.04057204      -0.06542110      -0.06700560
C       -6.33693730      -3.36820674      -0.35872893       0.00000000       0.00000000      -0.06267180       0.10795778      -0.05389640      -0.11201173
C       -2.01283450      -3.28251597       1.60520757       0.00000000       0.00000000       0.06567978       0.05883150       0.13480006       0.24373464
O       -1.02467047      -2.84408417       0.99149807       0.00000000       0.00000000      -0.04297357       0.06142175       0.05154913      -0.43971241
N       -2.15393117      -4.54087619       2.03133407       0.00000000       0.00000000       0.00726570       0.03691437      -0.07905079      -0.07504907
C       -1.15297821      -5.56355456       1.75173018       0.00000000       0.00000000       0.06384929      -0.02376030      -0.05977744      -0.02181560
C       -1.33274614      -6.30005001       0.41511807       0.00000000       0.00000000      -0.03408765       0.00441011      -0.04104322      -0.06606214
C       -0.63485692      -7.67282413       0.42078562       0.00000000       0.00000000      -0.00948547       0.02053071       0.00187006      -0.07056941
C        0.74963348      -7.72539358      -0.24739088       0.00000000       0.00000000      -0.01098101       0.00329738       0.02484436      -0.06087658
C        0.71374284      -8.25272975      -1.68735825       0.00000000       0.00000000       0.02773069      -0.00828295      -0.00102229      -0.06344820
C        2.11237363      -8.60984732      -2.20533529       0.00000000       0.00000000       0.05041234      -0.03801819      -0.03897888      -0.05943530
C        2.11647034      -9.64861547      -3.33458562       0.00000000       0.00000000      -0.00157730       0.00992048      -0.06818996      -0.05920412
C        1.80494761      -9.07191687      -4.71062553       0.00000000       0.00000000      -0.01952643       0.03181578      -0.01983487      -0.10340364
C       -3.36976958      -5.09322323       2.61716986       0.00000000       0.00000000      -0.02206324       0.00622278      -0.03240729      -0.02868764
C       -3.33937364      -5.42623347       4.11573523       0.00000000       0.00000000       0.02377316       0.02613669       0.02317315      -0.07261253
C       -3.85313635      -4.30899446       5.03376639       0.00000000       0.00000000       0.02787116       0.00762323       0.03836976      -0.06176719
C       -5.27173692      -3.78998285       4.75358097       0.00000000       0.00000000       0.04321878       0.05586727      -0.01611398      -0.05984073
C       -6.36569495      -4.85689674       4.75607243       0.00000000       0.00000000       0.01311366       0.00863088       0.02369066      -0.06478291
C       -7.78158468      -4.26786023       4.71831170       0.00000000       0.00000000      -0.02787862      -0.00326027      -0.03187944      -0.06666304
C       -8.17995742      -3.64123843       3.38109611       0.00000000       0.00000000      -0.02389584       0.02362981       0.00374867      -0.05162342
C       -9.63200636      -3.16608923       3.38162696       0.00000000       0.00000000       0.04463778      -0.02766441       0.00278617      -0.10870508
H        0.44177262       8.60145220      -1.32145241       0.00000000       0.00000000      -0.04428797      -0.12983945       0.05515124       0.04482924
H        1.85312025       8.09741546      -0.41413752       0.00000000       0.00000000       0.04001874       0.01696946       0.06523142       0.03988473
H        0.88650012       6.89085833      -1.25477617       0.00000000       0.00000000      -0.04832535      -0.00006212      -0.00085075       0.02704099
H       -0.17066405       8.64314047       1.01034131       0.00000000       0.00000000       0.01064945      -0.01508487      -0.00967359       0.04469703
H       -1.00817709       7.27686777       0.28642169       0.00000000       0.00000000      -0.00347728      -0.01909106      -0.02083527       0.02266695
H        1.56646878       7.13330651       1.90998401       0.00000000       0.00000000       0.01925563      -0.02105763      -0.05524017       0.03943031
H       -0.04649164       6.84613284       2.55343591       0.00000000       0.00000000       0.01031060      -0.00481832      -0.05638224       0.03348515
H       -0.30736372       4.90666781       1.01187240       0.00000000       0.00000000       0.05640214       0.01332661      -0.05141038       0.03598275
H        1.31640519       5.15925493       0.41010840       0.00000000       0.00000000      -0.08812514       0.04116872       0.07160387       0.03470993
H        2.26086756       4.15485831       2.25103182       0.00000000       0.00000000       0.00482283       0.03325572      -0.04822337       0.03625839
H        1.21363176       4.99597298       3.36617298       0.00000000       0.00000000      -0.05458279       0.00046291       0.00068144       0.05634195
H       -0.39757657       3.30905097       3.34918033       0.00000000       0.00000000       0.00025227      -0.03571504       0.01475375       0.03298661
H        0.05631627       2.71228159       1.74180667       0.00000000       0.00000000       0.06443552      -0.00492689       0.03353847       0.07219100
H        1.67402328       1.33784133       2.56319266       0.00000000       0.00000000       0.04838881      -0.01701444      -0.04797609       0.07603830
H        2.27131399       2.52771107       3.72522204       0.00000000       0.00000000      -0.11078200      -0.05831972      -0.01772872       0.06039812
H        1.52769752       0.53563160       4.84430670       0.00000000       0.00000000      -0.02596286      -0.06949242      -0.03368791       0.06750210
H        0.68516485       2.00290802       5.34241528       0.00000000       0.00000000       0.04580481       0.06057925       0.09893070       0.08182849
H       -1.34513126       1.71129809       5.96680738       0.00000000       0.00000000      -0.09909097      -0.01705812       0.06566441       0.06919274
H       -2.18687112       0.19532910       5.60548603       0.00000000       0.00000000       0.05557339       0.02851107       0.03003161       0.07331479
H        0.58729657       0.22697378       6.88327916       0.00000000       0.00000000      -0.11013939      -0.05305351      -0.00746763       0.06306758
H       -0.91274872       0.37188200       7.77011813       0.00000000       0.00000000       0.02221288      -0.09119136      -0.00236095       0.06752307
H       -0.87273830      -1.88508603       7.88109103       0.00000000       0.00000000       0.02634802      -0.07567990      -0.03831165       0.05892278
H       -1.49082195      -1.83672654       6.24258287       0.00000000       0.00000000       0.04871673      -0.01095239       0.01447090       0.01994049
H        0.25426634      -3.37226255       6.18381667       0.00000000       0.00000000       0.00642804      -0.09945814      -0.03102309       0.03827338
H        0.97299771      -1.93978461       5.46114233       0.00000000       0.00000000       0.02104512       0.01633509      -0.03007843       0.01504969
H        2.33176618      -1.55636722       7.42676664       0.00000000       0.00000000      -0.00053810       0.05219073       0.01931794       0.03407940
H        1.22717322      -2.47969420       8.43389711       0.00000000       0.00000000      -0.03538520       0.02519650       0.04222727       0.04562983
H        2.99687109      -3.93891475       8.29306386       0.00000000       0.00000000      -0.03085502       0.00764391       0.00862961       0.05268067
H        1.94919466      -4.53651879       7.02191281       0.00000000       0.00000000      -0.04645259      -0.00218090       0.00698752       0.03144864
H        3.95997631      -4.52627712       5.87369629       0.00000000       0.00000000      -0.04559352       0.07535933       0.04396446       0.03202821
H        3.47737815      -2.85769175       5.53043952       0.00000000       0.00000000       0.00720485      -0.03749813       0.02844706       0.01135883
H        5.33310200      -3.79039203       7.77504295       0.00000000       0.00000000      -0.03074342       0.06469434      -0.04582092       0.04781139
H        5.83425638      -2.96139963       6.30422767       0.00000000       0.00000000      -0.08114336       0.01321038       0.05303434       0.03483504
H        4.85808764      -2.11094284       7.51357019       0.00000000       0.00000000       0.02072653      -0.05425520      -0.04477618       0.03677516
H       -2.45296740      -1.30716513       3.91476151       0.00000000       0.00000000       0.09021970      -0.00107827       0.09733878       0.05317019
H       -4.10014334       0.72641336       2.65328071       0.00000000       0.00000000       0.03985727       0.04022045       0.01907134       0.07494964
H       -3.13147341       1.50365930       3.88218627       0.00000000       0.00000000       0.03306628      -0.03687862       0.03762518       0.04720661
H       -4.87037374      -0.97280287       4.35180471       0.00000000       0.00000000      -0.05390093       0.01059624      -0.03951223       0.03940427
H       -4.09077077      -0.03026665       5.60778741       0.00000000       0.00000000      -0.07061483       0.06083001      -0.04901511       0.03685674
H       -6.30387558       0.93478750       3.73094622       0.00000000       0.00000000       0.07723453       0.06647154       0.07391935       0.04400671
H       -6.43723045       0.64880668       5.45857436       0.00000000       0.00000000       0.03637533       0.04161898       0.03502595       0.06165858
H       -5.42841718       1.98020525       4.86870272       0.00000000       0.00000000      -0.11715059      -0.06910635       0.00393592       0.04781296
H       -3.68034736      -2.46350575       2.79402284       0.00000000       0.00000000      -0.03532720      -0.10780619       0.00977041       0.05215196
H       -3.67661275      -3.22207666      -0.03686699       0.00000000       0.00000000       0.02100494       0.05181661       0.02057740       0.06274442
H       -4.27012185      -1.58276976       0.13741662       0.00000000       0.00000000       0.02140159      -0.03871217      -0.04425461       0.07980566
H       -5.48374797      -4.08572075       1.41746821       0.00000000       0.00000000      -0.03204841       0.04948942      -0.02431192       0.04754355
H       -6.14621359      -2.47115155       1.57555798       0.00000000       0.00000000       0.12057630       0.02424180      -0.01805512       0.05111963
H       -5.79983904      -4.02771841      -1.04185129       0.00000000       0.00000000      -0.02421271       0.08950986       0.13831711       0.03922140
H       -7.28787625      -3.83896339      -0.11632662       0.00000000       0.00000000       0.08670575      -0.03019172       0.03214324       0.05893695
H       -6.57726085      -2.44495110      -0.88021499       0.00000000       0.00000000       0.11152786      -0.03045532      -0.01379388       0.03936461
H       -0.18237595      -5.09017722       1.76425896       0.00000000       0.00000000       0.00083063       0.02081523      -0.02174213       0.08069080
H       -1.20555078      -6.28683415       2.56684761       0.00000000       0.00000000       0.00213328       0.03218755       0.01079091       0.06665152
H       -2.39808265      -6.44264248       0.22397101       0.00000000       0.00000000       0.01194812      -0.00373181       0.00903386       0.03923360
H       -0.93345827      -5.68072006      -0.38907716       0.00000000       0.00000000      -0.03356483      -0.03350823      -0.03091810       0.04161953
H       -0.53503038      -8.00111537       1.45622287       0.00000000       0.00000000      -0.01400668      -0.02938810      -0.00295148       0.04194951
H       -1.27514938      -8.40224046      -0.07604549       0.00000000       0.00000000      -0.00779047       0.03320947       0.00003360       0.05441569
H        1.22581502      -6.74104125      -0.20925317       0.00000000       0.00000000      -0.03830697       0.00329757      -0.01207347       0.01342415
H        1.38125578      -8.40299464       0.33057531       0.00000000       0.00000000      -0.01488846       0.00348544      -0.00156910       0.04332580
H        0.10455323      -9.15710212      -1.70249023       0.00000000       0.00000000       0.00336416      -0.03104041       0.03076772       0.04563382
H        0.23310995      -7.53153320      -2.35166479       0.00000000       0.00000000      -0.02348136       0.00760327       0.02172645       0.02523782
H        2.68943064      -9.02672034      -1.37790686       0.00000000       0.00000000      -0.01458247       0.00138147       0.04912315       0.03470201
H        2.63502830      -7.71043562      -2.54437585       0.00000000       0.00000000      -0.00246984       0.00990591       0.00912370       0.01799809
H        3.10394019     -10.11275124      -3.38301326       0.00000000       0.00000000      -0.01465235       0.03134200       0.05140823       0.04116776
H        1.39785306     -10.43751971      -3.10404247       0.00000000       0.00000000       0.03064643       0.01913478       0.02755830       0.04110356
H        2.53929247      -8.31383190      -4.98183664       0.00000000       0.00000000      -0.04843956       0.00918999       0.00934558       0.02949190
H        1.84440511      -9.85578873      -5.46421215       0.00000000       0.00000000      -0.01315266       0.02760227       0.05898514       0.04662039
H        0.81052954      -8.63110397      -4.73944938       0.00000000       0.00000000       0.00153298       0.00693119       0.01317766       0.02824019
H       -4.18125824      -4.40436595       2.46328645       0.00000000       0.00000000      -0.06987716      -0.03132972      -0.02515669       0.07433048
H       -3.58896436      -6.00098821       2.05058263       0.00000000       0.00000000       0.00158189      -0.04959448       0.04575335       0.06795882
H       -3.96723881      -6.30341314       4.27032915       0.00000000       0.00000000       0.03340078      -0.00022782       0.00139543       0.06685937
H       -2.32790510      -5.68877153       4.42552170       0.00000000       0.00000000       0.02796845      -0.02011884       0.02980574       0.04775832
H       -3.83145047      -4.69179888       6.05450002       0.00000000       0.00000000      -0.00684681      -0.04983069       0.01574358       0.05447668
H       -3.14828159      -3.46963483       5.00712991       0.00000000       0.00000000      -0.03971192       0.04308457      -0.06096834       0.00775986
H       -5.51291975      -3.05086100       5.52137762       0.00000000       0.00000000       0.02576707      -0.04190238       0.07221161       0.04046539
H       -5.29908914      -3.26278950       3.79975340       0.00000000       0.00000000      -0.03652468       0.02546837      -0.07040911       0.01328634
H       -6.23228824      -5.53146683       3.90803235       0.00000000       0.00000000      -0.02761536       0.00503489      -0.00703050       0.03133967
H       -6.27087315      -5.44539970       5.66804384       0.00000000       0.00000000       0.02020307      -0.04159754       0.04141145       0.04564342
H       -8.48585851      -5.07235310       4.93366830       0.00000000       0.00000000      -0.00379694       0.00197754       0.02931759       0.04910095
H       -7.88630922      -3.51744792       5.50646381       0.00000000       0.00000000       0.01611715      -0.05852947      -0.00863914       0.03843158
H       -7.53784279      -2.78196061       3.17108969       0.00000000       0.00000000      -0.00200797      -0.00996731       0.01695817       0.01439890
H       -8.04559587      -4.37327961       2.57915591       0.00000000       0.00000000       0.02372196       0.02595364       0.05366817       0.02728218
H       -9.78898930      -2.41308930       4.15344455       0.00000000       0.00000000       0.00466280      -0.06050797      -0.06690384       0.04004896
H       -9.88939541      -2.73406633       2.41430265       0.00000000       0.00000000       0.01646874      -0.01140339       0.08929770       0.03423928
H      -10.30928309      -3.99653494       3.57062709       0.00000000       0.00000000       0.05667138       0.03999688       0.00829892       0.04720831
C        7.49298669       1.19064004      -7.34775692       0.00000000       0.00000000      -0.02259456       0.04775421       0.02377039      -0.10476272
C        7.44381747      -0.33092459      -7.26494774       0.00000000       0.00000000       0.02455950       0.03402790      -0.00837140      -0.05850191
C        6.35922204      -0.85287362      -6.31816129       0.00000000       0.00000000      -0.00742180       0.00169676      -0.02929768      -0.05796019
C        4.94305343      -0.69882897      -6.88012949       0.00000000       0.00000000       0.00234628       0.01214021       0.00421637      -0.06515332
C        3.86447601      -1.12213554      -5.86929971       0.00000000       0.00000000      -0.04827578       0.03194198      -0.00356600      -0.05823799
C        2.60049673      -0.25711971      -5.95891851       0.00000000       0.00000000      -0.01691702       0.04012950      -0.01889887      -0.06905535
C        1.68069256      -0.41309798      -4.74305581       0.00000000       0.00000000       0.01327569      -0.07029872       0.01375997      -0.06375420
C        0.67039002       0.73521477      -4.60849086       0.00000000       0.00000000      -0.02043970       0.00036108      -0.00827102      -0.01454093
N       -0.64911316       0.27147056      -4.18949397       0.00000000       0.00000000      -0.00158786       0.00044428      -0.00552875      -0.05122248
C       -1.42387352      -0.41322832      -5.21706724       0.00000000       0.00000000      -0.01568141       0.02628540      -0.01964451      -0.02407008
C       -2.45401143       0.45484480      -5.96020126       0.00000000       0.00000000      -0.00342885      -0.01620050      -0.02999936      -0.07129416
C       -1.94641930       1.19852499      -7.20550473       0.00000000       0.00000000      -0.02565918       0.03036114      -0.00973871      -0.06863930
C       -1.39630550       2.61804857      -7.02038660       0.00000000       0.00000000      -0.01485378       0.03209459       0.02465156      -0.06535816
C       -2.30440098       3.57289307      -6.23347463       0.00000000       0.00000000      -0.00260320       0.01262472       0.02708719      -0.06663837
C       -1.96261787       3.67242605      -4.74135296       0.00000000       0.00000000       0.04058826       0.00694358      -0.00007795      -0.05294560
C       -0.67390857       4.44861221      -4.46997705       0.00000000       0.00000000       0.00257799      -0.00408835       0.03722223      -0.05909148
C       -0.26982153       4.37783038      -2.99921584       0.00000000       0.00000000       0.00743146       0.01877606      -0.02270382      -0.09861082
C       -1.01443743       0.39136934      -2.92155375       0.00000000       0.00000000       0.06444769       0.00476547       0.00508289       0.25396544
O       -0.26418503       0.88145062      -2.04834057       0.00000000       0.00000000       0.09961017      -0.02260301      -0.00544385      -0.38470227
C       -2.34361641      -0.20817540      -2.44059383       0.00000000       0.00000000      -0.00393564      -0.12583937      -0.09127838       0.08505888
C       -2.03502854      -1.69916325      -2.19296065       0.00000000       0.00000000      -0.06638821      -0.06355004      -0.04468104      -0.07599511
C       -3.15300730      -2.65753836      -2.59515817       0.00000000       0.00000000      -0.06340779      -0.08821315      -0.00619766      -0.06049183
C       -2.79266728      -4.06655973      -2.12841847       0.00000000       0.00000000       0.02505921      -0.03246787      -0.04472923      -0.11994196
O       -2.70506278       0.28900392      -1.15376144       0.00000000       0.00000000       0.08080189       0.09399275      -0.11193406      -0.24424246
C       -3.66478573       1.35274334      -1.03986390       0.00000000       0.00000000      -0.09651794       0.00568209       0.08365187       0.08477474
C       -4.65185593       0.93659153       0.06339461       0.00000000       0.00000000      -0.11876408      -0.05601170       0.01837018      -0.07762270
C       -5.98365838       0.37816128      -0.42995754       0.00000000       0.00000000       0.00010721      -0.03028625       0.05089094      -0.05906797
C       -6.84046141       0.04260694       0.78645990       0.00000000       0.00000000      -0.04079962       0.06057460       0.03914616      -0.11426000
C       -2.95608187       2.59493427      -0.50337332       0.00000000       0.00000000       0.08086987      -0.00263656      -0.00199579       0.25106664
O       -1.80461335       2.43615934      -0.05285692       0.00000000       0.00000000       0.08782868       0.04373783       0.05933756      -0.38741461
N       -3.63885014       3.73995255      -0.45995204       0.00000000       0.00000000      -0.02938968      -0.07905159       0.02000247      -0.06290904
C       -5.06285558       3.91813628      -0.76869527       0.00000000       0.00000000      -0.06666033       0.03303939      -0.05692328      -0.02837659
C       -5.39458799       4.23838715      -2.24126651       0.00000000       0.00000000      -0.05620511      -0.09184478      -0.07970859      -0.07117960
C       -6.57818155       3.43112463      -2.81061472       0.00000000       0.00000000      -0.00634875      -0.00288398      -0.02130481      -0.06246570
C       -7.90320264       3.64045603      -2.06514699       0.00000000       0.00000000       0.08747156       0.02562287       0.00181016      -0.06397468
C       -9.10034701       2.92433367      -2.70991604       0.00000000       0.00000000       0.06814631       0.10940464       0.01355847      -0.06687258
C       -9.14590107       1.40716885      -2.50358749       0.00000000       0.00000000       0.03624876       0.08760882      -0.08718196      -0.06110250
C       -9.70218608       0.99249032      -1.14422791       0.00000000       0.00000000       0.02239100       0.04072717      -0.03581882      -0.05815532
C       -9.80539512      -0.52254694      -1.03386047       0.00000000       0.00000000      -0.02790899      -0.03730716      -0.01886983      -0.10504126
C       -2.97386865       4.91759756       0.08022140       0.00000000       0.00000000      -0.02068077      -0.06846889       0.04900206      -0.00960793
C       -2.90835702       4.95985098       1.62471542       0.00000000       0.00000000       0.01223209      -0.01265408       0.02548812      -0.07495992
C       -4.00835961       4.24707441       2.42515043       0.00000000       0.00000000       0.05106224      -0.01128862      -0.04744490      -0.05753477
C       -5.17380607       5.12927839       2.90663996       0.00000000       0.00000000       0.03253858       0.00425171      -0.04839517      -0.06496242
C       -5.10153851       5.29966788       4.42621566       0.00000000       0.00000000      -0.01979840       0.00102021       0.04602627      -0.05933233
C       -6.23258001       6.13140637       5.04522069       0.00000000       0.00000000      -0.09544126       0.01033103       0.05377129      -0.06626682
C       -6.90659191       5.43626129       6.23309729       0.00000000       0.00000000      -0.06168986      -0.05750361       0.05283343      -0.05682305
C       -7.94112119       4.41508458       5.77433376       0.00000000       0.00000000      -0.05788639      -0.02091294      -0.03652172      -0.10546826
H        8.29170292       1.50360791      -8.01497891       0.00000000       0.00000000      -0.00689797      -0.02237799       0.01444849       0.04587257
H        7.68361318       1.62122071      -6.36582137       0.00000000       0.00000000       0.00378100      -0.01292160      -0.00365924       0.02977506
H        6.56222751       1.60536032      -7.72642074       0.00000000       0.00000000      -0.01602794      -0.02375869      -0.02301491       0.03292205
H        8.41402232      -0.68079199      -6.90722729       0.00000000       0.00000000      -0.00909437      -0.03877246       0.00005989       0.03903044
H        7.29538801      -0.74398279      -8.26409422       0.00000000       0.00000000      -0.04460927      -0.01816394       0.03237008       0.04044473
H        6.43007158      -0.30348331      -5.37207496       0.00000000       0.00000000       0.00074461      -0.06878012      -0.04537968       0.02513496
H        6.55312474      -1.90872329      -6.11094441       0.00000000       0.00000000      -0.04453694       0.02924612       0.01300398       0.02815973
H        4.84586714      -1.28540287      -7.79441439       0.00000000       0.00000000       0.02078617       0.00564867       0.02094734       0.04211662
H        4.79526085       0.34635488      -7.15529512       0.00000000       0.00000000      -0.03067903      -0.00812811       0.01919679       0.04142163
H        4.27544850      -1.03308402      -4.85890246       0.00000000       0.00000000       0.00698252       0.03350514      -0.01184309       0.02256724
H        3.61258675      -2.17449433      -6.01550074       0.00000000       0.00000000      -0.02754014       0.02298204       0.00613351       0.02862369
H        2.04271461      -0.49716820      -6.86641749       0.00000000       0.00000000       0.06383401      -0.03630260      -0.00680094       0.04115959
H        2.89904379       0.78719728      -6.03782020       0.00000000       0.00000000       0.02018434       0.03187617       0.04295458       0.05257000
H        2.27474909      -0.45506436      -3.83066619       0.00000000       0.00000000       0.07087120      -0.00256281       0.05754338       0.03901280
H        1.15089791      -1.36109982      -4.82710135       0.00000000       0.00000000      -0.09462002      -0.07133442      -0.05772575       0.03653502
H        0.54613369       1.23022170      -5.57028088       0.00000000       0.00000000      -0.00531031       0.00027742      -0.02747268       0.08636707
H        1.02057488       1.45821400      -3.87197750       0.00000000       0.00000000      -0.00470514       0.03447407      -0.03679059       0.08136164
H       -1.93508167      -1.26731376      -4.76998667       0.00000000       0.00000000       0.02133011       0.05847487       0.02205205       0.05185488
H       -0.71160455      -0.81082681      -5.94293378       0.00000000       0.00000000      -0.01108614       0.04017372      -0.00215176       0.08944693
H       -2.91554803       1.16203514      -5.27173404       0.00000000       0.00000000      -0.02068433      -0.05842196      -0.04072528       0.04899270
H       -3.23068951      -0.23262179      -6.29961233       0.00000000       0.00000000      -0.03432234       0.01938849       0.02040165       0.05600472
H       -2.78642616       1.27231057      -7.89682688       0.00000000       0.00000000      -0.06199455       0.03315463       0.01762936       0.05615152
H       -1.19091151       0.59409150      -7.71307987       0.00000000       0.00000000      -0.00110994      -0.01341385       0.04979454       0.04279540
H       -1.25674989       3.01844562      -8.02597725       0.00000000       0.00000000       0.02245527       0.00776627       0.02806385       0.05146956
H       -0.41169954       2.60505368      -6.55335836       0.00000000       0.00000000      -0.00944599      -0.03719318      -0.00976066       0.03315760
H       -3.34631741       3.26738837      -6.34987225       0.00000000       0.00000000       0.01367947      -0.03437450      -0.01747844       0.03791890
H       -2.22238630       4.57283044      -6.66158451       0.00000000       0.00000000       0.01436422      -0.00316662       0.02165386       0.04959962
H       -1.86009104       2.67423032      -4.30550156       0.00000000       0.00000000      -0.01733002       0.03118784       0.02365991       0.00697495
H       -2.78417940       4.17899930      -4.22462618       0.00000000       0.00000000       0.03474606      -0.02553294      -0.03234643       0.02127985
H       -0.82123447       5.49371762      -4.75053909       0.00000000       0.00000000       0.03487192      -0.04795413      -0.00860286       0.04551836
H        0.13744960       4.05407714      -5.08642477       0.00000000       0.00000000      -0.04103923       0.02813129       0.04319308       0.03409182
H       -1.03275611       4.84488245      -2.37682779       0.00000000       0.00000000       0.05474817      -0.02087039      -0.03394285       0.02764655
H        0.66811975       4.90824981      -2.84655612       0.00000000       0.00000000      -0.03622158      -0.00949540       0.01921996       0.03797589
H       -0.13899096       3.34624375      -2.66317393       0.00000000       0.00000000      -0.02338671       0.07384393      -0.00812042       0.02833754
H       -3.15837926      -0.06529121      -3.15765919       0.00000000       0.00000000      -0.01897320       0.03289399       0.02880364       0.07160864
H       -1.09530208      -1.98178985      -2.67077554       0.00000000       0.00000000      -0.02816221      -0.06098381      -0.10055477       0.07353174
H       -1.87543925      -1.78593424      -1.10265042       0.00000000       0.00000000       0.09528809      -0.04291253       0.01007949       0.12719780
H       -3.30166387      -2.66118310      -3.67816857       0.00000000       0.00000000       0.01828499       0.02375776       0.04212171       0.04512107
H       -4.09190463      -2.33363560      -2.14556580       0.00000000       0.00000000       0.02020995       0.00232275      -0.00052226       0.05355607
H       -2.23638331      -4.02215546      -1.19491635       0.00000000       0.00000000      -0.03995320      -0.04942544      -0.00663498       0.04207961
H       -2.15970940      -4.55159267      -2.85968304       0.00000000       0.00000000       0.01010986      -0.08041132      -0.04356041       0.06446250
H       -3.67137731      -4.69002657      -1.99232276       0.00000000       0.00000000      -0.03310619       0.04134250      -0.04461707       0.05365452
H       -4.17024458       1.54021464      -1.99208343       0.00000000       0.00000000       0.07418137      -0.02658827      -0.00006306       0.06242977
H       -4.11844752       0.20404349       0.67162707       0.00000000       0.00000000      -0.02862976       0.00185413      -0.08468577       0.08305570
H       -4.86519536       1.77055964       0.73292441       0.00000000       0.00000000       0.04404106       0.00222889      -0.01398384       0.04728408
H       -5.81995622      -0.51010632      -1.04434725       0.00000000       0.00000000       0.01573817       0.03016001       0.04681831       0.03328421
H       -6.49351008       1.10962378      -1.06097750       0.00000000       0.00000000       0.00423266      -0.07783358       0.12504517       0.05233103
H       -7.22618001       0.94630704       1.25411805       0.00000000       0.00000000       0.01528129       0.02377615      -0.05162248       0.03982493
H       -6.23609243      -0.47724469       1.52312001       0.00000000       0.00000000      -0.02456617       0.01700741       0.06545737       0.03661852
H       -7.68356719      -0.58690498       0.52721125       0.00000000       0.00000000       0.01379728       0.03939193      -0.01187406       0.06982080
H       -5.41637439       4.73940074      -0.14287907       0.00000000       0.00000000       0.10288326      -0.00711775       0.01889827       0.08354520
H       -5.63627675       3.04795799      -0.46563798       0.00000000       0.00000000       0.07588640      -0.04955160      -0.11026229       0.07050936
H       -4.51584369       4.03515831      -2.85658141       0.00000000       0.00000000       0.02223463       0.02851281      -0.00708017       0.03764397
H       -5.63324717       5.29925450      -2.34476768       0.00000000       0.00000000       0.07827050      -0.07751363       0.00920299       0.05914847
H       -6.32744137       2.36499097      -2.84331939       0.00000000       0.00000000       0.01099274       0.09384231       0.04954862       0.01930795
H       -6.72254242       3.75111391      -3.84633876       0.00000000       0.00000000       0.02066789      -0.02124343       0.05427968       0.05147161
H       -8.11099511       4.71260978      -2.05775358       0.00000000       0.00000000      -0.01638950      -0.03482844       0.02688478       0.04322902
H       -7.81261941       3.31702240      -1.02586857       0.00000000       0.00000000      -0.00381547       0.00886394      -0.00980364       0.02760338
H       -9.10882260       3.14611130      -3.77889073       0.00000000       0.00000000       0.06343236      -0.01285720       0.01123019       0.04079268
H      -10.01269046       3.35069387      -2.29046937       0.00000000       0.00000000      -0.00651932       0.00603152      -0.00952496       0.04895884
H       -8.14801607       0.98294149      -2.63652885       0.00000000       0.00000000      -0.00322952      -0.03583873      -0.03224913       0.01819024
H       -9.78264427       0.97412367      -3.27546001       0.00000000       0.00000000      -0.02088583      -0.00010412      -0.02145620       0.04296423
H      -10.69239857       1.42975115      -1.01569426       0.00000000       0.00000000      -0.01676966      -0.01183085       0.00128924       0.04338527
H       -9.06861302       1.38168845      -0.34774739       0.00000000       0.00000000       0.03122665       0.02574960       0.04741919       0.02545820
H      -10.53729602      -0.89823283      -1.74107097       0.00000000       0.00000000      -0.06184816      -0.02824088      -0.03135840       0.04620979
H      -10.11500419      -0.81999563      -0.03555914       0.00000000       0.00000000      -0.03229220       0.00130981       0.02010473       0.03572298
H       -8.85324487      -0.99863906      -1.26375260       0.00000000       0.00000000      -0.00119760       0.00486490      -0.01901725       0.02220388
H       -3.47558211       5.79005683      -0.34321296       0.00000000       0.00000000       0.03493767      -0.03821892       0.13608899       0.06820931
H       -1.94428731       4.88604149      -0.28771197       0.00000000       0.00000000      -0.03436992       0.14369407      -0.04124441       0.07098940
H       -2.85310783       6.00472974       1.92646917       0.00000000       0.00000000      -0.00487180       0.01554644       0.02669357       0.06454540
H       -1.96973512       4.49180318       1.91429908       0.00000000       0.00000000       0.01311488      -0.03158694      -0.00595396       0.05062845
H       -3.52441785       3.83820999       3.31684910       0.00000000       0.00000000      -0.03736324      -0.02064700      -0.04810363       0.03025830
H       -4.36626445       3.38739014       1.85706940       0.00000000       0.00000000      -0.07118918       0.05790884       0.01914004       0.01527623
H       -6.13462504       4.68521050       2.63915816       0.00000000       0.00000000       0.01599286      -0.04398385       0.03479254       0.03395518
H       -5.12577633       6.10482925       2.42518120       0.00000000       0.00000000      -0.01076891       0.07482388       0.00907999       0.04148870
H       -4.14321389       5.75678138       4.67942802       0.00000000       0.00000000       0.03343969      -0.03575409      -0.00978300       0.02990768
H       -5.11739517       4.30522243       4.87738836       0.00000000       0.00000000       0.01188041      -0.04178432       0.00098584       0.02695160
H       -7.00718985       6.32508350       4.30460069       0.00000000       0.00000000       0.02383663       0.08669411      -0.11117709       0.04288239
H       -5.83697919       7.09186141       5.37314524       0.00000000       0.00000000      -0.01676336       0.02933095      -0.03378315       0.03889459
H       -7.41037044       6.17948461       6.85186917       0.00000000       0.00000000       0.02028310       0.03410539      -0.03267067       0.04340484
H       -6.15791998       4.94641869       6.85857377       0.00000000       0.00000000       0.04806058       0.03306140       0.01515700       0.02807272
H       -8.71931565       4.91528156       5.20409532       0.00000000       0.00000000      -0.04202306      -0.00169378      -0.03148939       0.03977393
H       -8.41811887       3.92015603       6.61813174       0.00000000       0.00000000       0.10448641       0.03228781       0.00249448       0.03909891
H       -7.48979959       3.65643778       5.13814452       0.00000000       0.00000000       0.01633793      -0.03630363       0.00996188       0.02417798
C        2.19263774       6.92297177       5.04757321       0.00000000       0.00000000      -0.02849953       0.02585683       0.02073276      -0.10660222
C        3.54325731       6.21604944       5.04329326       0.00000000       0.00000000      -0.00789956       0.03146108       0.00087299      -0.05254756
C        4.63994754       7.13004316       4.48965778       0.00000000       0.00000000       0.00047650       0.01375848       0.01931651      -0.06698667
C        4.71626817       7.18987670       2.95590043       0.00000000       0.00000000      -0.01621835      -0.02202623       0.03030249      -0.06258320
C        5.72111914       6.20913881       2.33835559       0.00000000       0.00000000       0.00954523      -0.01201534      -0.01193546      -0.06777344
C        5.14170928       4.84314926       1.92864518       0.00000000       0.00000000      -0.04179167      -0.02520748      -0.03795060      -0.05802085
C        4.75972713       4.86366572       0.44216350       0.00000000       0.00000000      -0.00783271      -0.03036687      -0.02389353      -0.07248834
C        3.84364287       3.76167166      -0.11605068       0.00000000       0.00000000      -0.06884750      -0.03440273       0.03893077      -0.01946785
N        4.19379673       2.36947495       0.17751764       0.00000000       0.00000000      -0.00508116      -0.02331343       0.02372348      -0.05195837
C        5.60906146       2.01760312       0.13494695       0.00000000       0.00000000       0.00039426       0.01717218      -0.00250048      -0.02186191
C        6.28772693       2.22824964      -1.22535170       0.00000000       0.00000000      -0.00338363       0.00092248       0.02947833      -0.07179284
C        5.83198222       1.28013519      -2.33482480       0.00000000       0.00000000       0.03014986       0.03274114       0.02099229      -0.06165070
C        4.42222105       1.54352508      -2.86806193       0.00000000       0.00000000       0.02184371      -0.02580726      -0.00017430      -0.06123445
C        4.24886086       2.90130823      -3.55828373       0.00000000       0.00000000       0.00305846      -0.01034036       0.01407313      -0.06100775
C        4.58072565       2.89087278      -5.05693505       0.00000000       0.00000000       0.00258178       0.00138232       0.00066970      -0.06748653
C        3.51953368       3.63650706      -5.86651251       0.00000000       0.00000000       0.00704371       0.05657178      -0.01236160      -0.05139295
C        3.54683982       5.13832806      -5.60683538       0.00000000       0.00000000      -0.00556031       0.03436137      -0.00555878      -0.10800256
C        3.21075709       1.48015793       0.30917653       0.00000000       0.00000000      -0.01634872      -0.01600902       0.02008667       0.24829298
O        2.00010964       1.72324889       0.11915003       0.00000000       0.00000000       0.01873777       0.02036380       0.03298557      -0.37260848
C        3.57779957       0.06040881       0.79310295       0.00000000       0.00000000      -0.01655189       0.04727713      -0.09417732       0.08616010
C        4.09928313       0.10055083       2.25204178       0.00000000       0.00000000      -0.04321819       0.02932900      -0.06932621      -0.08073139
C        5.26016379      -0.83489779       2.60350365       0.00000000       0.00000000      -0.01492424       0.02680791      -0.02222504      -0.05613176
C        5.65163558      -0.62136519       4.06261873       0.00000000       0.00000000       0.00285432      -0.01772628       0.01083151      -0.11368595
O        2.35869312      -0.66766033       0.66361064       0.00000000       0.00000000       0.06528560      -0.04164954      -0.00127777      -0.24970616
C        2.52779949      -2.08677247       0.58302652       0.00000000       0.00000000       0.00088787      -0.07457244      -0.04964705       0.08468087
C        1.95066769      -2.64661465       1.88758795       0.00000000       0.00000000      -0.02860666      -0.02015117      -0.00716521      -0.07062201
C        2.05043585      -4.15153287       2.07187167       0.00000000       0.00000000       0.01334450       0.00872851      -0.02938883      -0.06117081
C        1.51170315      -4.56347940       3.43684819       0.00000000       0.00000000       0.02941482       0.00563290      -0.00673931      -0.11621622
C        1.82110662      -2.47424703      -0.73666001       0.00000000       0.00000000      -0.04661278      -0.00310228       0.07543515       0.25476981
O        0.86832965      -1.74793180      -1.10738558       0.00000000       0.00000000       0.02979063       0.03418734      -0.03840199      -0.38294330
N        2.31780676      -3.44538624      -1.49604798       0.00000000       0.00000000      -0.01988784       0.01158296       0.07235781      -0.05422737
C        1.91133223      -3.60575363      -2.89072366       0.00000000       0.00000000       0.03586965       0.02143901       0.04225501      -0.01766565
C        0.71230223      -4.51971884      -3.17000596       0.00000000       0.00000000       0.00615193       0.00062975       0.04242733      -0.06890377
C        0.79200722      -5.08053113      -4.60523269       0.00000000       0.00000000      -0.01995003       0.01132321      -0.02949811      -0.07183674
C       -0.46578967      -4.90312961      -5.47426469       0.00000000       0.00000000      -0.05749824       0.04723939      -0.04133451      -0.06265924
C       -1.39182545      -6.13368291      -5.59194144       0.00000000       0.00000000      -0.02753508       0.01294116       0.03453199      -0.06944518
C       -2.83370775      -5.91405178      -5.10649724       0.00000000       0.00000000      -0.05157397       0.00933717       0.00141755      -0.06074991
C       -3.87636429      -6.62736892      -5.96940828       0.00000000       0.00000000      -0.00497318      -0.04265299      -0.01314146      -0.05980454
C       -5.30398868      -6.24243733      -5.59205308       0.00000000       0.00000000       0.03620313      -0.01038054       0.00200365      -0.10561779
C        3.25430133      -4.47279137      -1.04835250       0.00000000       0.00000000      -0.03107287       0.02161153      -0.00530678      -0.02846321
C        4.65794460      -4.44277966      -1.68799437       0.00000000       0.00000000      -0.04848003       0.00849266      -0.01886601      -0.07332074
C        5.79685596      -4.05135002      -0.73970520       0.00000000       0.00000000      -0.00807100      -0.00419341      -0.00427562      -0.06392722
C        5.85321960      -4.82654883       0.58203274       0.00000000       0.00000000      -0.01784201      -0.03799477       0.00073917      -0.06217084
C        5.60371747      -6.33051604       0.45260201       0.00000000       0.00000000       0.00385335      -0.01457170       0.03216549      -0.06631311
C        5.67924629      -7.05665624       1.80009203       0.00000000       0.00000000      -0.01634346       0.00896601       0.02912958      -0.06706680
C        4.55048465      -6.67704552       2.76032384       0.00000000       0.00000000       0.01647029      -0.02579593       0.04000061      -0.05179427
C        4.59569061      -7.47700818       4.05801633       0.00000000       0.00000000       0.00520781      -0.00990414      -0.00935961      -0.10844521
H        1.38484789       6.23925861       5.30287268       0.00000000       0.00000000      -0.00142665      -0.01957300       0.01451601       0.01931130
H        2.18798431       7.72560208       5.77945754       0.00000000       0.00000000       0.04416417       0.01185391       0.02488884       0.04457774
H        1.98895480       7.36392185       4.07608116       0.00000000       0.00000000      -0.03384565      -0.01922093       0.01449940       0.03975037
H        3.79301162       5.93309555       6.06690185       0.00000000       0.00000000       0.02065343      -0.01029458       0.01089501       0.03225148
H        3.48489839       5.29758142       4.45511301       0.00000000       0.00000000       0.01202905       0.00682529       0.00158094       0.01641771
H        4.44865284       8.13393487       4.87167896       0.00000000       0.00000000       0.03390528       0.00139536       0.01069435       0.04596941
H        5.60880401       6.81991040       4.88578446       0.00000000       0.00000000      -0.01507566      -0.00431196      -0.04212833       0.03799199
H        3.72930520       7.01040298       2.52531788       0.00000000       0.00000000      -0.00139696       0.04327104       0.01158995       0.03432559
H        5.01739100       8.20056610       2.67310942       0.00000000       0.00000000      -0.01523176      -0.05294791       0.01165884       0.04113805
H        6.14872680       6.67178498       1.44952903       0.00000000       0.00000000       0.06740094      -0.00891365      -0.06368911       0.04014148
H        6.54485358       6.06676691       3.03690233       0.00000000       0.00000000      -0.00797149      -0.04846619       0.04986658       0.04566835
H        5.90022232       4.07850739       2.10661046       0.00000000       0.00000000      -0.00992450       0.02168314       0.04836438       0.02358447
H        4.28357428       4.59413806       2.55369735       0.00000000       0.00000000      -0.01115597       0.05733856      -0.05692893       0.03404881
H        4.21374166       5.79349886       0.25242068       0.00000000       0.00000000       0.07115388      -0.05238270      -0.00908429       0.06348367
H        5.68898549       4.91162522      -0.13399044       0.00000000       0.00000000      -0.12443787      -0.00553911       0.03128321       0.04884245
H        2.83110512       3.89015157       0.26774333       0.00000000       0.00000000       0.02523466      -0.03609891      -0.00853667       0.08112154
H        3.79369980       3.89116697      -1.20178863       0.00000000       0.00000000       0.00659046      -0.00243714       0.07643326       0.07066292
H        6.13062159       2.63520994       0.86766228       0.00000000       0.00000000      -0.00649599      -0.00474436      -0.01663730       0.07897658
H        5.74395172       0.98001707       0.42886469       0.00000000       0.00000000      -0.00056121       0.05244177      -0.01491390       0.05558408
H        6.17447394       3.26096746      -1.54789732       0.00000000       0.00000000      -0.00546279      -0.01791877      -0.00398264       0.06205665
H        7.35386741       2.06646028      -1.05357986       0.00000000       0.00000000      -0.00482116      -0.00323036      -0.02066172       0.06084106
H        6.53460274       1.36711018      -3.16514299       0.00000000       0.00000000      -0.00008052       0.03467087      -0.00492295       0.05580129
H        5.89762241       0.24992777      -1.96911246       0.00000000       0.00000000      -0.03367935       0.01864613      -0.01949445       0.01892906
H        4.19297132       0.75975039      -3.58926360       0.00000000       0.00000000      -0.02177829      -0.02192087      -0.02764212       0.03772020
H        3.69233816       1.45321798      -2.06131815       0.00000000       0.00000000       0.00781373      -0.02578825      -0.00877404       0.01199932
H        3.20650518       3.20470445      -3.43032995       0.00000000       0.00000000      -0.01474155      -0.01875943      -0.06457194       0.02886526
H        4.86373248       3.65197528      -3.06432718       0.00000000       0.00000000      -0.00096120       0.02132879      -0.02713579       0.03658632
H        4.64456961       1.86151750      -5.40736943       0.00000000       0.00000000      -0.01129041      -0.01511780      -0.00645262       0.04065653
H        5.55397670       3.34332695      -5.24845323       0.00000000       0.00000000      -0.00886011       0.04174697       0.06173760       0.04407371
H        3.68430758       3.45660268      -6.93041151       0.00000000       0.00000000      -0.02266693       0.00744208      -0.00213932       0.03565854
H        2.53073921       3.24401468      -5.60299878       0.00000000       0.00000000       0.03204247      -0.00849451      -0.06771153       0.01326633
H        4.48526308       5.56496464      -5.95079377       0.00000000       0.00000000       0.00565486      -0.01032324       0.02719786       0.04645441
H        2.73759388       5.63843800      -6.13290684       0.00000000       0.00000000      -0.00189018      -0.02962558      -0.04063819       0.03943213
H        3.43812329       5.35223563      -4.54574470       0.00000000       0.00000000       0.00940775       0.00372409      -0.00874134       0.03031331
H        4.31951590      -0.39348051       0.12124843       0.00000000       0.00000000      -0.00581358       0.06376675       0.01027562       0.05208543
H        3.25958630      -0.13626850       2.90631226       0.00000000       0.00000000      -0.03599719       0.03169877      -0.00427048       0.06031358
H        4.40761886       1.12132441       2.48362218       0.00000000       0.00000000       0.00633179      -0.00106446       0.03151345       0.05639557
H        4.98805711      -1.88272806       2.45544191       0.00000000       0.00000000      -0.05133127       0.04997547      -0.01464194       0.03630211
H        6.12405741      -0.62625545       1.97015487       0.00000000       0.00000000       0.00078401      -0.00214870      -0.01794836       0.03898418
H        4.81003756      -0.81635977       4.72199893       0.00000000       0.00000000      -0.02860251      -0.01651254       0.00350047       0.04229617
H        6.45737886      -1.28982181       4.34556681       0.00000000       0.00000000       0.05170252      -0.01834914      -0.03371029       0.06013733
H        5.98343540       0.39979254       4.23162058       0.00000000       0.00000000       0.01095745      -0.00517883      -0.03553038       0.04743455
H        3.59172419      -2.32609806       0.48905667       0.00000000       0.00000000       0.02213673      -0.02029988       0.04045958       0.06274849
H        0.90244172      -2.33137462       1.92938785       0.00000000       0.00000000      -0.02908451      -0.02303184       0.00379859       0.08594387
H        2.48190254      -2.15934693       2.70745576       0.00000000       0.00000000      -0.01147781      -0.01007981       0.00113020       0.06085927
H        1.50052338      -4.63228151       1.26219764       0.00000000       0.00000000       0.03137349      -0.07703231       0.02024209       0.03546564
H        3.08704236      -4.48037841       2.01095390       0.00000000       0.00000000       0.01392725       0.05802574       0.05202843       0.05027968
H        0.52483065      -4.14268512       3.61098257       0.00000000       0.00000000      -0.02207732      -0.00858505       0.02014597       0.03278502
H        1.45722355      -5.64478208       3.51223671       0.00000000       0.00000000      -0.00196833      -0.02609577       0.02207150       0.05485242
H        2.17351168      -4.20564627       4.21680785       0.00000000       0.00000000       0.02088283       0.00911174       0.05553918       0.06043647
H        1.71260058      -2.61442504      -3.29279459       0.00000000       0.00000000      -0.00940430       0.02899622       0.02818027       0.06335378
H        2.78041783      -4.02302510      -3.39748256       0.00000000       0.00000000       0.03546583       0.02552505      -0.05439760       0.07725312
H        0.69673530      -5.33714252      -2.45107132       0.00000000       0.00000000       0.02458376      -0.02083140       0.03586277       0.04861494
H       -0.20212842      -3.94776936      -3.03119007       0.00000000       0.00000000      -0.00087224      -0.01239844       0.00310263       0.04402023
H        1.61298876      -4.58115705      -5.12003102       0.00000000       0.00000000       0.03128462       0.03175945      -0.01374283       0.03540281
H        1.05207629      -6.13659116      -4.56481828       0.00000000       0.00000000       0.00115836      -0.02144614      -0.02428023       0.05975201
H       -1.03111077      -4.03729269      -5.11919932       0.00000000       0.00000000      -0.02880296      -0.03114159       0.05451811       0.02075816
H       -0.13177497      -4.64493745      -6.47948550       0.00000000       0.00000000       0.01115366      -0.01608096      -0.01566445       0.04102976
H       -1.43309310      -6.43716435      -6.63871472       0.00000000       0.00000000       0.03519151       0.02097588       0.02682678       0.04767576
H       -0.96131878      -6.97063788      -5.04365883       0.00000000       0.00000000       0.02129427      -0.02388239       0.00346978       0.03865674
H       -2.93498963      -6.27578409      -4.08193453       0.00000000       0.00000000      -0.02372994       0.04100457       0.02932218       0.02800085
H       -3.07329722      -4.84790450      -5.11048346       0.00000000       0.00000000       0.02265722       0.03103190      -0.05105268       0.02143330
H       -3.71029379      -6.38001855      -7.01845907       0.00000000       0.00000000       0.01325833       0.02962317      -0.02399592       0.03865819
H       -3.76012904      -7.70536686      -5.86238137       0.00000000       0.00000000       0.04304205      -0.04936990      -0.01298630       0.03984847
H       -5.51266049      -6.49593421      -4.55366133       0.00000000       0.00000000       0.00795549       0.01570265      -0.02689929       0.03079325
H       -6.01315491      -6.77541912      -6.22198269       0.00000000       0.00000000       0.04439837       0.03498701       0.04874367       0.04896857
H       -5.46344025      -5.17330920      -5.72935681       0.00000000       0.00000000      -0.00017614      -0.03571242       0.02105443       0.02853022
H        3.35162868      -4.42281032       0.02806539       0.00000000       0.00000000      -0.00765977      -0.01175483      -0.03642767       0.07763214
H        2.78535202      -5.43003395      -1.29693215       0.00000000       0.00000000      -0.02497689       0.03209110       0.02414368       0.07675230
H        4.87167479      -5.44006749      -2.07129778       0.00000000       0.00000000       0.03578460       0.03033194      -0.03107432       0.06668446
H        4.68630118      -3.76097966      -2.53900335       0.00000000       0.00000000      -0.04778508       0.03460217       0.01655739       0.04736149
H        6.72461671      -4.21194609      -1.28940305       0.00000000       0.00000000       0.03004962      -0.02277353       0.02776940       0.05641976
H        5.74665656      -2.98295252      -0.50999366       0.00000000       0.00000000      -0.02558517       0.02911332      -0.01694031       0.01650821
H        6.83957388      -4.66880350       1.02346780       0.00000000       0.00000000      -0.03913445      -0.01434098      -0.00576298       0.04985003
H        5.12555549      -4.40544969       1.28047731       0.00000000       0.00000000       0.03288620       0.01615129      -0.00658930       0.01477554
H        4.61817567      -6.50994314       0.01594452       0.00000000       0.00000000       0.04238653      -0.03024583       0.03991000       0.02825645
H        6.34808729      -6.76505489      -0.21637886       0.00000000       0.00000000       0.01179835       0.05457481       0.00139624       0.04570603
H        5.62514065      -8.13171712       1.61486484       0.00000000       0.00000000       0.03444741       0.03992346       0.01437924       0.04570398
H        6.64100828      -6.84737566       2.27260760       0.00000000       0.00000000      -0.02452783      -0.02511775      -0.00973566       0.04370428
H        4.62487955      -5.61728883       3.01966526       0.00000000       0.00000000       0.00166377      -0.04457929      -0.01662734       0.01993281
H        3.58724466      -6.84988120       2.26806521       0.00000000       0.00000000       0.05479439       0.01891093       0.00513810       0.02113254
H        5.52158711      -7.28252314       4.59548362       0.00000000       0.00000000      -0.02910800      -0.02916587      -0.03575772       0.04434540
H        3.76117799      -7.19977476       4.70190856       0.00000000       0.00000000       0.05079670      -0.03223381      -0.01965304       0.03157135
H        4.53396060      -8.54374019       3.85550922       0.00000000       0.00000000       0.00933892       0.03364082       0.01165580       0.04445911
