250
Properties=species:S:1:pos:R:3:initial_charges:R:1:initial_magmoms:R:1:forces:R:3:charge:R:1 energy=-8191.757916231777 free_energy=-8191.757916231777 dipole="0.5011871295140911 0.9463759168689782 1.7413397154518468" pbc="F F F"
Gd      -0.12197612       0.10401902      -0.14996934       3.00000000       0.00000000       0.00824260      -0.05057639      -0.01271037       0.85887857
C        6.05178968       7.91029774       0.67348278       0.00000000       0.00000000      -0.04916143       0.02085233       0.03380037      -0.10642455
C        4.70552221       8.12492180       1.36274331       0.00000000       0.00000000       0.00235144      -0.03946717       0.01337281      -0.05172455
C        3.77988571       9.01220335       0.52894322       0.00000000       0.00000000       0.01388628       0.01421585      -0.00220963      -0.06619841
C        2.30789760       8.98540978       0.95538542       0.00000000       0.00000000      -0.07379531       0.00154079      -0.02938695      -0.06553101
C        1.68630704       7.58781565       0.81425579       0.00000000       0.00000000      -0.01247653      -0.05751070      -0.00868749      -0.06254465
C        0.22484937       7.54163760       0.34319740       0.00000000       0.00000000      -0.04742611      -0.04048648      -0.02611932      -0.06863194
C       -0.37084127       6.13883188       0.59833124       0.00000000       0.00000000       0.02977664       0.02606228      -0.07274253      -0.07063545
C       -1.43180270       5.67560135      -0.42921837       0.00000000       0.00000000       0.05933481      -0.04290947       0.01679904      -0.02964356
N       -1.21062088       4.33415106      -0.98587938       0.00000000       0.00000000       0.04044711      -0.00035279      -0.02669580      -0.05145739
C       -0.94446595       4.21740410      -2.42111107       0.00000000       0.00000000       0.04736358       0.03446430       0.06636209      -0.01474820
C       -2.19502285       3.89651879      -3.23835801       0.00000000       0.00000000      -0.00807787      -0.00214372      -0.00320577      -0.06194104
C       -1.85844289       3.80661437      -4.72294121       0.00000000       0.00000000      -0.02522548       0.01090482      -0.00126967      -0.11626411
C       -1.28464493       3.19129828      -0.31698036       0.00000000       0.00000000       0.07608061       0.04567904       0.05688082       0.26145025
O       -1.19468527       2.07425291      -0.86851703       0.00000000       0.00000000       0.09299516      -0.01816146       0.10583827      -0.35876842
C       -1.52394158       3.26273119       1.19356059       0.00000000       0.00000000      -0.01634148       0.08413036      -0.00602978       0.04317381
O       -0.90725092       2.17001800       1.87856857       0.00000000       0.00000000       0.05475112       0.04061180      -0.02569900      -0.27158417
C       -1.79895405       1.55854517       2.80768581       0.00000000       0.00000000      -0.02424722      -0.02765015       0.00462647       0.05150944
C       -2.67062737       0.64405142       1.95191585       0.00000000       0.00000000       0.05327634       0.00804828      -0.07917100       0.25247075
O       -2.04790020       0.08210362       1.02504678       0.00000000       0.00000000      -0.00074576      -0.04961862      -0.02550628      -0.38732426
N       -3.98176514       0.57105815       2.04989593       0.00000000       0.00000000       0.03179067      -0.01671689       0.02180421      -0.03439009
C       -4.67342879      -0.11747995       0.96354981       0.00000000       0.00000000      -0.02976145       0.01655954      -0.05587785      -0.00810847
C       -4.51434463       0.62512715      -0.36898928       0.00000000       0.00000000      -0.07044561       0.01301628       0.01309556      -0.06511058
C       -5.05252326       2.05031014      -0.30742604       0.00000000       0.00000000      -0.02641089      -0.00138146      -0.03865487      -0.10912680
C       -4.77091176       0.96488719       3.19967756       0.00000000       0.00000000      -0.03941257       0.02447829       0.00763386      -0.02241680
C       -5.12948571      -0.24647334       4.06974842       0.00000000       0.00000000      -0.02235213      -0.00977871      -0.00918470      -0.07471245
C       -3.93020904      -0.93777971       4.72035779       0.00000000       0.00000000      -0.02599439      -0.01978552      -0.00245942      -0.06449929
C       -3.08662823      -0.05970696       5.64808735       0.00000000       0.00000000      -0.00207035       0.00390279       0.00464734      -0.06757926
C       -3.87454329       0.74967601       6.67554352       0.00000000       0.00000000      -0.00343007       0.03875854       0.02710296      -0.06736208
C       -2.99603855       1.77450908       7.39788384       0.00000000       0.00000000       0.00492968       0.02054079       0.02334548      -0.06735585
C       -2.51797127       2.90794400       6.48774851       0.00000000       0.00000000      -0.01625798      -0.02670508      -0.01929282      -0.04827821
C       -1.83163831       4.01797986       7.27159315       0.00000000       0.00000000      -0.00251698      -0.00588148       0.01211512      -0.11084023
H        6.70271384       7.28892207       1.28472662       0.00000000       0.00000000       0.01433759       0.01450547       0.00704952       0.03332864
H        6.55521711       8.85736725       0.50295868       0.00000000       0.00000000      -0.04135493       0.01909200       0.02717435       0.05230180
H        5.91851334       7.42437152      -0.29210385       0.00000000       0.00000000      -0.00663489      -0.00318689      -0.00482164       0.02702689
H        4.86669811       8.57318611       2.34386144       0.00000000       0.00000000      -0.01753692       0.01627757      -0.00689807       0.03954115
H        4.23325522       7.14988838       1.52401804       0.00000000       0.00000000      -0.00822768       0.01127720       0.00916120       0.00359015
H        3.85821194       8.69910629      -0.51394752       0.00000000       0.00000000      -0.05946187      -0.02591454      -0.01860464       0.03806806
H        4.13602860      10.04153323       0.57654312       0.00000000       0.00000000       0.02152267      -0.00760929       0.01978344       0.04991485
H        1.76013066       9.69316344       0.33131285       0.00000000       0.00000000       0.00947212      -0.01681113      -0.02584705       0.04561244
H        2.22021700       9.32684863       1.98793106       0.00000000       0.00000000      -0.00668723       0.00710938      -0.03604942       0.04313308
H        1.75715732       7.07166087       1.77466050       0.00000000       0.00000000      -0.00263181      -0.02018077       0.00648160       0.01983041
H        2.27631219       7.03113031       0.08412440       0.00000000       0.00000000      -0.01252747       0.00907104       0.02609513       0.03823575
H        0.18554188       7.78080879      -0.72117566       0.00000000       0.00000000       0.04963709       0.01786961       0.03746458       0.04816683
H       -0.37655843       8.28512863       0.86836603       0.00000000       0.00000000       0.08776596      -0.00396896      -0.02012617       0.05570847
H       -0.79282190       6.15057221       1.60492240       0.00000000       0.00000000       0.00165279      -0.00168304      -0.02008734       0.04329507
H        0.44327618       5.41026985       0.59335269       0.00000000       0.00000000      -0.03647878       0.02877584      -0.05133753       0.03629314
H       -1.41424966       6.36202717      -1.27604111       0.00000000       0.00000000      -0.03975999      -0.02333593      -0.00018849       0.09769588
H       -2.43296613       5.72928339       0.00408827       0.00000000       0.00000000      -0.00748091      -0.04681423       0.02072724       0.06470543
H       -0.21346785       3.41172689      -2.54410384       0.00000000       0.00000000       0.01067011       0.00581274      -0.05671445       0.08135535
H       -0.51181395       5.15607449      -2.76612326       0.00000000       0.00000000       0.02438327      -0.02024497      -0.01807396       0.07979649
H       -2.93808536       4.67999846      -3.08624704       0.00000000       0.00000000      -0.03484130       0.02105075       0.01853115       0.05192726
H       -2.61636160       2.95097042      -2.89076236       0.00000000       0.00000000       0.01864461       0.00243264      -0.01643628       0.04625253
H       -1.45137499       4.74894472      -5.08154476       0.00000000       0.00000000      -0.01484717      -0.01103302       0.00812618       0.05522883
H       -2.75801618       3.58976302      -5.29236925       0.00000000       0.00000000       0.02909675      -0.00119157      -0.00852845       0.06247010
H       -1.12875800       3.02358452      -4.91828137       0.00000000       0.00000000      -0.03033055       0.00482993       0.05281583       0.04446691
H       -2.60856597       3.24479906       1.33709881       0.00000000       0.00000000      -0.07949408       0.01100457       0.00967122       0.07195321
H       -1.13292500       4.18148924       1.62536708       0.00000000       0.00000000       0.02440839       0.07456190       0.00981092       0.08648855
H       -2.35732048       2.31092672       3.37034465       0.00000000       0.00000000       0.08719267       0.04977641       0.01550114       0.07587474
H       -1.17600873       0.96953387       3.48663182       0.00000000       0.00000000       0.01380661      -0.03581813      -0.00396101       0.08869025
H       -5.72632023      -0.17857284       1.23123454       0.00000000       0.00000000      -0.04787728      -0.00849676      -0.02454030       0.08232012
H       -4.26883718      -1.12854561       0.86645487       0.00000000       0.00000000       0.02198838       0.00587210       0.01222871       0.06202818
H       -5.07294624       0.06816034      -1.11992172       0.00000000       0.00000000      -0.03841003      -0.03009775      -0.00986230       0.06580022
H       -3.46059598       0.63638585      -0.66806968       0.00000000       0.00000000      -0.03300802      -0.00890401      -0.04776182       0.06669332
H       -6.06603006       2.06466144       0.08515671       0.00000000       0.00000000      -0.01464658      -0.00174747      -0.02422512       0.06288980
H       -5.07625788       2.48533760      -1.30383729       0.00000000       0.00000000       0.02720544      -0.00660381       0.04230334       0.05706565
H       -4.42851922       2.68366366       0.32012854       0.00000000       0.00000000      -0.03828418       0.00240503       0.01788592       0.01678279
H       -5.68559649       1.42583379       2.82106430       0.00000000       0.00000000      -0.04132935       0.02808993       0.06706563       0.08198902
H       -4.23541952       1.70174349       3.79575828       0.00000000       0.00000000      -0.00483990      -0.02737967       0.00050341       0.06861109
H       -5.65963062      -0.97666459       3.45648162       0.00000000       0.00000000      -0.01175857      -0.02844796       0.02174910       0.05299541
H       -5.82160381       0.08477612       4.84217892       0.00000000       0.00000000      -0.00227985       0.00879842      -0.01467576       0.07952341
H       -3.27779121      -1.33633423       3.93526009       0.00000000       0.00000000       0.00994944      -0.02359803      -0.00311826       0.01110590
H       -4.31036861      -1.78715662       5.28809316       0.00000000       0.00000000      -0.03097834       0.00563737       0.01875856       0.06183513
H       -2.49379429       0.62548421       5.04757321       0.00000000       0.00000000      -0.00944840       0.02463487      -0.00947342       0.00922657
H       -2.38447283      -0.70358391       6.17793038       0.00000000       0.00000000       0.00539674      -0.01884243       0.01941994       0.04862744
H       -4.31959843       0.07351866       7.40537508       0.00000000       0.00000000       0.01095959      -0.00699915       0.01073645       0.05043368
H       -4.68669178       1.29256277       6.19138367       0.00000000       0.00000000      -0.01694720       0.00535897       0.00910719       0.03520896
H       -2.13137446       1.28126729       7.84621524       0.00000000       0.00000000      -0.01596763      -0.01559029      -0.00637680       0.03811919
H       -3.57909257       2.21502068       8.20689846       0.00000000       0.00000000       0.00297753      -0.01396976       0.01749688       0.05488779
H       -3.37715577       3.32419674       5.95453937       0.00000000       0.00000000      -0.02389076       0.01602768       0.00500122       0.02127674
H       -1.81443406       2.52166149       5.74318658       0.00000000       0.00000000       0.02100216      -0.00292252       0.00694621      -0.00014872
H       -2.51760449       4.45480681       7.98930166       0.00000000       0.00000000      -0.02576201       0.01474250       0.03707374       0.05400412
H       -1.48954681       4.80621059       6.60515576       0.00000000       0.00000000       0.01195258       0.01547460      -0.00476865       0.03230064
H       -0.97563339       3.62685030       7.81361138       0.00000000       0.00000000       0.03041734      -0.00281225       0.02552036       0.04269910
C        4.15244876       9.85468116      -3.27889477       0.00000000       0.00000000      -0.02980134      -0.02782014      -0.02317086      -0.10664165
C        3.71090404       8.96817086      -4.43951363       0.00000000       0.00000000       0.02314625      -0.05453164       0.01044455      -0.05820348
C        3.74768336       7.46783270      -4.13562150       0.00000000       0.00000000      -0.04376047      -0.06571396       0.06095453      -0.06198563
C        2.66273690       7.05713484      -3.14149808       0.00000000       0.00000000      -0.03704789      -0.05343927       0.06690111      -0.06149584
C        2.57108246       5.54868622      -2.88942981       0.00000000       0.00000000      -0.02242937      -0.03409862      -0.01923476      -0.06353298
C        3.85003994       4.95209220      -2.28018580       0.00000000       0.00000000      -0.03731210       0.06785982      -0.05322724      -0.06773073
C        3.60030743       3.80738918      -1.28750368       0.00000000       0.00000000       0.01513884       0.02943374       0.05938732      -0.06159127
C        3.04013579       4.38008854       0.01576208       0.00000000       0.00000000       0.01147064      -0.07346203      -0.03322692      -0.01469249
N        2.86273179       3.42481749       1.11039611       0.00000000       0.00000000      -0.02463679       0.02537820       0.02447102      -0.05931668
C        3.35077637       3.80814079       2.43234680       0.00000000       0.00000000       0.04397094       0.01107205       0.01137672      -0.02301266
C        4.76378189       3.30467581       2.74158102       0.00000000       0.00000000      -0.05748425       0.02280910       0.01549343      -0.06398867
C        5.81400737       3.85665670       1.78870871       0.00000000       0.00000000       0.00039507      -0.03346233       0.01976072      -0.11790761
C        2.07928527       2.37010551       0.96275010       0.00000000       0.00000000      -0.00532414       0.04942221      -0.03240906       0.25128548
O        1.36579903       2.16114473      -0.03234424       0.00000000       0.00000000      -0.01385306       0.01169217      -0.00193334      -0.38389062
C        2.08215951       1.26767104       2.03411364       0.00000000       0.00000000      -0.04037904      -0.04360621      -0.03374220       0.03558975
O        1.94266414       0.02670662       1.33978904       0.00000000       0.00000000      -0.02832247      -0.06853678       0.00354718      -0.23368581
C        3.11173153      -0.28707894       0.56403927       0.00000000       0.00000000       0.03886210       0.02017476      -0.02532233       0.04656494
C        2.85085445      -0.26293528      -0.95593542       0.00000000       0.00000000       0.04208494       0.02128610      -0.02104607       0.26409989
O        1.69702256      -0.09111390      -1.39272228       0.00000000       0.00000000      -0.02238348      -0.01178506      -0.05691353      -0.36050016
N        3.90049071      -0.41306917      -1.74936053       0.00000000       0.00000000      -0.00874228      -0.00252726       0.00318790      -0.04822901
C        3.74126611      -0.33043899      -3.19943206       0.00000000       0.00000000      -0.01445343       0.01038304       0.01935852      -0.01711512
C        3.61853903      -1.70553873      -3.85556086       0.00000000       0.00000000      -0.01715479      -0.01056574       0.00645612      -0.06043511
C        3.48421439      -1.56961859      -5.36673405       0.00000000       0.00000000       0.00302833      -0.01794549      -0.01368572      -0.11759753
C        5.24350436      -0.71514492      -1.28302915       0.00000000       0.00000000       0.05286683      -0.01868129       0.01283007      -0.02657283
C        6.07304815       0.53265893      -0.93841398       0.00000000       0.00000000       0.00495546       0.04438015      -0.02646704      -0.06911312
C        7.11620239       0.26030988       0.14651717       0.00000000       0.00000000      -0.02010443      -0.00006095       0.01338616      -0.06579677
C        8.16813746      -0.77428206      -0.25505828       0.00000000       0.00000000      -0.00576485       0.00376457       0.01147620      -0.06704521
C        9.08574765      -1.15079271       0.91751829       0.00000000       0.00000000       0.00711062       0.00980398       0.00291083      -0.06673190
C        8.68376997      -2.43402973       1.64999449       0.00000000       0.00000000       0.00212235      -0.01056234      -0.02187418      -0.06585006
C        7.38840514      -2.38170556       2.46360126       0.00000000       0.00000000      -0.00586630      -0.02088108      -0.03571219      -0.04876398
C        7.48146315      -1.48715753       3.69342567       0.00000000       0.00000000       0.00375044       0.00214584      -0.01495711      -0.10694982
H        4.17515485      10.89177930      -3.60108801       0.00000000       0.00000000       0.03744289       0.00403392      -0.01214656       0.04654137
H        5.14881567       9.58312384      -2.93411674       0.00000000       0.00000000      -0.03618888      -0.01149163      -0.02781811       0.03663101
H        3.46072354       9.79032672      -2.44293775       0.00000000       0.00000000      -0.01208199      -0.01795318      -0.00119286       0.03013600
H        4.36694154       9.15649887      -5.28786358       0.00000000       0.00000000       0.03361041       0.02910148      -0.05504489       0.04392105
H        2.69740937       9.24473706      -4.73549032       0.00000000       0.00000000      -0.00414954       0.02115345      -0.03755305       0.03440091
H        4.73008764       7.20096522      -3.74478688       0.00000000       0.00000000       0.04245446       0.01800771      -0.00073465       0.03367547
H        3.59955936       6.91168385      -5.06687926       0.00000000       0.00000000       0.00161571       0.05838621       0.06225233       0.03227622
H        1.70240353       7.39956193      -3.53381626       0.00000000       0.00000000      -0.03715726       0.00132451       0.02893995       0.03162206
H        2.82547269       7.55682455      -2.18495061       0.00000000       0.00000000       0.03126881       0.04760731      -0.04088687       0.03638135
H        2.34221050       5.05075148      -3.83250512       0.00000000       0.00000000       0.03503946      -0.06553777      -0.01729988       0.03559989
H        1.72342987       5.36614305      -2.22198885       0.00000000       0.00000000       0.07817825       0.02263938       0.00685049       0.01737791
H        4.40118288       5.74346257      -1.76521676       0.00000000       0.00000000      -0.01525052      -0.05873142       0.00373699       0.05136904
H        4.48987754       4.58800343      -3.08468093       0.00000000       0.00000000      -0.00513188       0.00050350       0.04431900       0.05233890
H        4.55293509       3.31560065      -1.08085955       0.00000000       0.00000000      -0.00493754      -0.01423391      -0.03346969       0.03544518
H        2.91841285       3.06808922      -1.70878576       0.00000000       0.00000000      -0.05016810       0.01334336      -0.03675767       0.04476337
H        2.07547881       4.84251737      -0.20460068       0.00000000       0.00000000       0.05213452      -0.01116465       0.01783165       0.06954991
H        3.74053846       5.13367558       0.37224835       0.00000000       0.00000000      -0.09145383       0.06223433       0.00729228       0.09021766
H        2.64107693       3.44146280       3.18010928       0.00000000       0.00000000       0.09711771       0.05769753       0.00708526       0.04900140
H        3.33813511       4.89870414       2.47562564       0.00000000       0.00000000       0.04737713       0.00961925       0.02363572       0.08857344
H        4.77276247       2.21357893       2.70908622       0.00000000       0.00000000       0.13388014      -0.02098364       0.00199299       0.02954946
H        5.00465250       3.60070155       3.76147559       0.00000000       0.00000000       0.00128904       0.04633604       0.03057020       0.07187505
H        5.66039517       3.46983025       0.78621542       0.00000000       0.00000000       0.04150775       0.06524005      -0.05246342       0.04021407
H        6.80337091       3.55630403       2.11443660       0.00000000       0.00000000       0.06559454      -0.02257863       0.03348040       0.06348543
H        5.78934274       4.94285261       1.76559759       0.00000000       0.00000000      -0.00890786      -0.03198969       0.00146885       0.06179073
H        1.19866174       1.36899385       2.67304939       0.00000000       0.00000000       0.01047889      -0.00467641       0.02105305       0.10400422
H        2.98183125       1.23367486       2.65336832       0.00000000       0.00000000       0.03451864       0.07158338      -0.00081421       0.08565043
H        3.41953887      -1.29599821       0.85428085       0.00000000       0.00000000      -0.01520312      -0.03840259      -0.03159985       0.09939605
H        3.92201893       0.40457730       0.80158276       0.00000000       0.00000000       0.02902702       0.04858966       0.02176658       0.08436113
H        4.61298103       0.19791738      -3.59057971       0.00000000       0.00000000      -0.02502979       0.00441144      -0.03117540       0.08014116
H        2.84366921       0.24944105      -3.41849254       0.00000000       0.00000000      -0.01648796       0.04211142       0.05907635       0.08020227
H        2.74110581      -2.21434678      -3.45371427       0.00000000       0.00000000      -0.03135262      -0.00000069       0.03917509       0.04433014
H        4.49563547      -2.31038893      -3.62147277       0.00000000       0.00000000       0.00294227      -0.02231635      -0.02151078       0.04931575
H        2.62383846      -0.95927046      -5.62605948       0.00000000       0.00000000      -0.03026486       0.00637020       0.00658137       0.04760458
H        3.35776177      -2.54827822      -5.81863980       0.00000000       0.00000000       0.00535884      -0.01603848      -0.01409974       0.06373795
H        4.36953521      -1.11123638      -5.79705712       0.00000000       0.00000000       0.03027963       0.01188354       0.01120126       0.05647818
H        5.74103911      -1.26381404      -2.08156448       0.00000000       0.00000000       0.01050719      -0.03473063       0.01135154       0.09277176
H        5.18853285      -1.37566423      -0.41859730       0.00000000       0.00000000       0.00619177      -0.03359565       0.06830800       0.05594093
H        5.40626146       1.32796162      -0.59759663       0.00000000       0.00000000      -0.03813906       0.00376434      -0.00957974       0.02459408
H        6.57859481       0.89489340      -1.83179797       0.00000000       0.00000000       0.00641151       0.02597031      -0.05428011       0.06316470
H        6.60872166      -0.05816935       1.05830223       0.00000000       0.00000000       0.00051392      -0.00695840       0.01881004       0.03239242
H        7.63659407       1.19392853       0.36744937       0.00000000       0.00000000      -0.04649369       0.01768612       0.02533276       0.05269367
H        8.76492818      -0.34756691      -1.06215385       0.00000000       0.00000000       0.01092788      -0.02036352      -0.00117503       0.04504846
H        7.69718223      -1.67863541      -0.64336792       0.00000000       0.00000000      -0.02790970       0.00635926       0.02893345       0.03261967
H        9.14093788      -0.31754000       1.61729011       0.00000000       0.00000000       0.00603556       0.00405250       0.03800297       0.04362261
H       10.09384227      -1.30745029       0.53466115       0.00000000       0.00000000       0.00680106      -0.01858410      -0.01569411       0.05175046
H        9.49447302      -2.70783198       2.32612981       0.00000000       0.00000000       0.00281626       0.00844456       0.01278370       0.05106147
H        8.59736581      -3.23482691       0.91215590       0.00000000       0.00000000       0.00137946      -0.01864137      -0.00949069       0.03497224
H        7.16233393      -3.39786575       2.79521248       0.00000000       0.00000000       0.01123814      -0.01825029       0.00177842       0.02936139
H        6.55881538      -2.05969406       1.82678652       0.00000000       0.00000000      -0.02161843      -0.00877476      -0.01683148       0.00193423
H        8.32118631      -1.79332429       4.30880852       0.00000000       0.00000000       0.02352313       0.00163936       0.01960260       0.05395467
H        6.57794251      -1.56666556       4.29451466       0.00000000       0.00000000      -0.03400724       0.01442641       0.01150281       0.02192335
H        7.62367084      -0.44480823       3.42167895       0.00000000       0.00000000       0.01202166       0.02444806      -0.02426514       0.03303703
C       -8.48682294       1.70211358      -1.98343349       0.00000000       0.00000000       0.01656086      -0.02567325       0.00432741      -0.10805786
C       -8.57470219       0.27952544      -1.44327317       0.00000000       0.00000000       0.00891465      -0.00794051      -0.01057765      -0.05419328
C       -8.27584399      -0.74514375      -2.53595652       0.00000000       0.00000000      -0.01439470      -0.00940780      -0.00470264      -0.06346172
C       -8.46727235      -2.19322239      -2.07941593       0.00000000       0.00000000      -0.02328602       0.02485423       0.00023865      -0.06713499
C       -7.36111485      -2.72850461      -1.16917501       0.00000000       0.00000000      -0.00313488       0.00886371       0.00387879      -0.06164538
C       -6.04713075      -2.90603653      -1.92699094       0.00000000       0.00000000      -0.00348731      -0.00185999      -0.03162026      -0.06706487
C       -5.00179073      -3.65124014      -1.10284439       0.00000000       0.00000000      -0.00547643      -0.00289099      -0.03151424      -0.07141131
C       -3.70273523      -3.90099295      -1.88096934       0.00000000       0.00000000       0.00130691      -0.02503931       0.01594688      -0.02910617
N       -2.92461500      -2.68727539      -2.08925370       0.00000000       0.00000000       0.00539150      -0.01159295      -0.02286452      -0.04029503
C       -3.06593970      -2.00830308      -3.37621081       0.00000000       0.00000000      -0.01595385       0.01717882      -0.02218454      -0.01931584
C       -2.00381002      -2.47445500      -4.37645823       0.00000000       0.00000000      -0.04334278       0.02986456       0.02289713      -0.06092505
C       -2.22623234      -1.83128163      -5.74064301       0.00000000       0.00000000       0.01841434      -0.00687922      -0.00396940      -0.11706481
C       -2.03979254      -2.21364543      -1.22723543       0.00000000       0.00000000      -0.01208225      -0.09163828      -0.01559244       0.26231244
O       -1.38598907      -1.17354060      -1.45288746       0.00000000       0.00000000       0.08182581       0.05641086       0.00959556      -0.35825929
C       -1.76613862      -3.03108776       0.04331551       0.00000000       0.00000000      -0.02958610      -0.00067994      -0.03408620       0.04990166
O       -1.15662310      -2.22085455       1.04202488       0.00000000       0.00000000      -0.01781049       0.00090853      -0.05377616      -0.23317325
C       -0.29670597      -2.94161859       1.90771622       0.00000000       0.00000000      -0.00323329      -0.00782548       0.00895651       0.04275038
C        1.07750339      -3.01050063       1.22314766       0.00000000       0.00000000       0.00987720       0.04171486      -0.06767451       0.25035794
O        1.19953965      -2.29723446       0.21157229       0.00000000       0.00000000       0.05435781       0.04816761       0.02026265      -0.40446200
N        2.00601609      -3.82860191       1.70203905       0.00000000       0.00000000       0.05688941      -0.02092268       0.05311266      -0.05657950
C        3.26086427      -4.07794549       0.98423128       0.00000000       0.00000000      -0.01387654       0.01880240      -0.02550227      -0.00630415
C        3.06867022      -4.45748801      -0.48463299       0.00000000       0.00000000      -0.01302760       0.01374190       0.01524640      -0.06682318
C        2.38830995      -5.81185695      -0.63955641       0.00000000       0.00000000       0.00836749       0.01108845      -0.00257008      -0.11325843
C        1.97156427      -4.36799097       3.05715953       0.00000000       0.00000000       0.03029200      -0.00269390       0.03434126      -0.02466141
C        2.97022408      -3.64285627       3.97174410       0.00000000       0.00000000       0.03700697       0.01374916       0.01405013      -0.07705521
C        2.63352909      -2.17379177       4.23949181       0.00000000       0.00000000      -0.00723322       0.00958187       0.00543625      -0.06408384
C        1.43917814      -1.95098525       5.17088039       0.00000000       0.00000000      -0.01119713      -0.01526062       0.01794537      -0.05879576
C        1.62131425      -2.55211437       6.56387399       0.00000000       0.00000000      -0.00853967      -0.01798201       0.02923972      -0.06651035
C        0.39396456      -2.35339437       7.45358289       0.00000000       0.00000000       0.00180583       0.00970385       0.01462745      -0.06524651
C       -0.82264396      -3.15534651       6.99124220       0.00000000       0.00000000       0.02962740       0.00748843      -0.02870115      -0.05140972
C       -1.94834244      -3.09816539       8.01375853       0.00000000       0.00000000      -0.01045740       0.00591505       0.00612863      -0.11015158
H       -8.72204614       2.42732822      -1.20912018       0.00000000       0.00000000      -0.00149873       0.01314646       0.01554926       0.03612478
H       -9.19476811       1.83325292      -2.79663449       0.00000000       0.00000000      -0.00995090       0.02157402       0.00345508       0.04950163
H       -7.48945701       1.91186546      -2.36701450       0.00000000       0.00000000      -0.00549625      -0.00469629       0.00161095       0.02479351
H       -9.58079404       0.10273174      -1.06085186       0.00000000       0.00000000       0.00057133       0.01494497       0.01045954       0.04314031
H       -7.87794957       0.15596593      -0.60878812       0.00000000       0.00000000       0.00231936       0.00361528      -0.01530971       0.01132286
H       -7.26130754      -0.59159925      -2.91320284       0.00000000       0.00000000      -0.02745005      -0.01279156      -0.00601846       0.02090238
H       -8.95701663      -0.56011378      -3.36765540       0.00000000       0.00000000      -0.00811311       0.00155289       0.00454978       0.04786182
H       -8.52868420      -2.83876337      -2.95737244       0.00000000       0.00000000      -0.00468826       0.00655161      -0.00437802       0.04338054
H       -9.42272896      -2.26606322      -1.55919124       0.00000000       0.00000000      -0.00531474      -0.00466867       0.02075917       0.05031141
H       -7.67228797      -3.69673329      -0.77369885       0.00000000       0.00000000      -0.02244757      -0.00722264      -0.01986401       0.04310154
H       -7.21347781      -2.06137286      -0.31786742       0.00000000       0.00000000      -0.00613195       0.01991880      -0.00022156       0.02596206
H       -5.66082870      -1.92868391      -2.21730204       0.00000000       0.00000000       0.01154586       0.01136437       0.02635472       0.03173160
H       -6.25337215      -3.47134396      -2.83717284       0.00000000       0.00000000       0.01365199      -0.01897111      -0.01355634       0.05078828
H       -5.41338904      -4.61971643      -0.81548632       0.00000000       0.00000000       0.02549576      -0.01032362       0.00668747       0.06985063
H       -4.79710659      -3.08997042      -0.18925002       0.00000000       0.00000000       0.02211063      -0.01275339       0.02156747       0.02991459
H       -3.96017574      -4.30551954      -2.85967464       0.00000000       0.00000000       0.02289059       0.01635649      -0.05372752       0.09600074
H       -3.09413381      -4.64963692      -1.37236976       0.00000000       0.00000000       0.01860119      -0.01662925      -0.01131354       0.05675361
H       -2.97399060      -0.93152653      -3.20972919       0.00000000       0.00000000       0.01399715      -0.01760943      -0.00983768       0.07762292
H       -4.05373985      -2.22967079      -3.77915885       0.00000000       0.00000000      -0.00204839       0.03051275       0.04956939       0.08596045
H       -2.06659001      -3.55957510      -4.47709992       0.00000000       0.00000000       0.05200404      -0.00489732      -0.00203146       0.05087070
H       -1.01319557      -2.21687381      -3.99287736       0.00000000       0.00000000      -0.02466126      -0.01107588      -0.02718424       0.04455518
H       -3.20651797      -2.08651713      -6.13545971       0.00000000       0.00000000       0.00121091      -0.00031488       0.03701578       0.05613650
H       -1.48264636      -2.19108040      -6.44491748       0.00000000       0.00000000       0.02746755       0.01770293      -0.00994913       0.06343510
H       -2.15080602      -0.74789225      -5.68228792       0.00000000       0.00000000       0.00633066      -0.02691756       0.02525949       0.04678497
H       -1.09172675      -3.84077183      -0.26690988       0.00000000       0.00000000       0.02209586      -0.03693897       0.03277465       0.08159722
H       -2.68390835      -3.46022545       0.45967045       0.00000000       0.00000000      -0.01747766      -0.01550445      -0.01437566       0.07954092
H       -0.69822763      -3.93775061       2.12297176       0.00000000       0.00000000      -0.02112728       0.00547425       0.00744886       0.07318179
H       -0.24371222      -2.35550284       2.82992422       0.00000000       0.00000000       0.00627459       0.00425178       0.03520435       0.09030153
H        3.75809397      -4.90471752       1.49511512       0.00000000       0.00000000      -0.02836333       0.02169140      -0.02640201       0.08454228
H        3.91666883      -3.20335533       1.06114892       0.00000000       0.00000000      -0.03274349      -0.00193818      -0.00715289       0.04149361
H        4.05870528      -4.50079776      -0.94410270       0.00000000       0.00000000      -0.04819718       0.00312870       0.02312828       0.05787971
H        2.49005380      -3.68606461      -0.99389073       0.00000000       0.00000000       0.03380628       0.00555451      -0.02388273       0.05478706
H        2.97519827      -6.58678207      -0.15292436       0.00000000       0.00000000      -0.03665518      -0.01933110      -0.00870542       0.05768416
H        2.30314553      -6.06457121      -1.69240628       0.00000000       0.00000000      -0.01665153      -0.01832996       0.00969762       0.05944832
H        1.38943935      -5.80610141      -0.20615148       0.00000000       0.00000000       0.03105530      -0.00213241       0.00679286       0.02913999
H        2.23888044      -5.42580935       3.01569467       0.00000000       0.00000000       0.00573316      -0.03024026      -0.04778649       0.08145548
H        0.97385015      -4.29633883       3.48330675       0.00000000       0.00000000      -0.00267144       0.03179906      -0.05745495       0.06375648
H        3.96913135      -3.70465832       3.53883715       0.00000000       0.00000000      -0.00072475       0.02078117      -0.03205621       0.05456421
H        3.01216764      -4.17803502       4.91841534       0.00000000       0.00000000      -0.02879852      -0.03560352      -0.01493960       0.07858516
H        2.43804777      -1.66757869       3.28794649       0.00000000       0.00000000       0.00003861       0.01282278      -0.02766457       0.01076945
H        3.50745028      -1.70204198       4.69266475       0.00000000       0.00000000       0.01262425      -0.03199669      -0.00428946       0.05118714
H        0.53664881      -2.36694732       4.72026596       0.00000000       0.00000000      -0.00991036      -0.03399894       0.00706295       0.01646410
H        1.28043872      -0.87414535       5.28076622       0.00000000       0.00000000       0.00591029      -0.00285920      -0.02946994       0.02521559
H        2.49208530      -2.09660047       7.03893732       0.00000000       0.00000000      -0.02196516       0.01681017      -0.00986860       0.04469780
H        1.80734140      -3.62337404       6.49165430       0.00000000       0.00000000       0.00882569      -0.01576572      -0.00943673       0.04185113
H        0.13921425      -1.29198864       7.50170965       0.00000000       0.00000000      -0.00563831       0.00585073       0.00757998       0.02992944
H        0.64741148      -2.67645332       8.46378407       0.00000000       0.00000000       0.01245352       0.01912147       0.00027875       0.05443504
H       -0.52901359      -4.19537265       6.83802546       0.00000000       0.00000000       0.00593513      -0.02898090       0.01954530       0.03347859
H       -1.18632077      -2.77244478       6.03296705       0.00000000       0.00000000      -0.02386326       0.01441823      -0.01420588       0.00629872
H       -1.62979918      -3.54693505       8.94841128       0.00000000       0.00000000       0.00649036      -0.02270148       0.04767891       0.05194929
H       -2.82069641      -3.63763966       7.65698368       0.00000000       0.00000000      -0.03287998      -0.02249579      -0.00941577       0.03934575
H       -2.23573059      -2.06977184       8.21486030       0.00000000       0.00000000      -0.01991455       0.04317644       0.01148622       0.03726607
