32
Properties=species:S:1:pos:R:3:initial_charges:R:1:initial_magmoms:R:1:forces:R:3:charge:R:1 energy=-1581.738754455174 free_energy=-1581.738754455174 dipole="0.07359778374280547 -0.4989815588409654 1.8771319833026603" pbc="F F F"
Gd       0.06101510      -0.13097034       0.21263932       3.00000000       0.00000000      -0.01444107      -0.03133746      -0.01330342       0.85343737
C        2.98307487      -2.20623920       0.84056941       0.00000000       0.00000000       0.17301233      -0.02681319       0.02803869      -0.01962766
O        1.78980265      -1.44194219       0.71665680       0.00000000       0.00000000      -0.03722127      -0.02575844      -0.01210225      -0.09382219
P       -0.56279820      -2.81217234       0.66825235       0.00000000       0.00000000      -0.05198971      -0.07484880      -0.00954813       0.76404817
O        0.80397929      -2.08710907      -0.16190421       0.00000000       0.00000000      -0.09306627       0.06147903      -0.01188655      -0.23405038
O       -1.58901053      -1.81897816      -0.16961456       0.00000000       0.00000000       0.05476052       0.03389669      -0.01253775      -0.39930453
O       -0.48410877      -1.75163506       1.91811063       0.00000000       0.00000000       0.06951690       0.06069817       0.01866644      -0.28528158
C       -0.30972912      -2.26252236       3.27743019       0.00000000       0.00000000      -0.01972556       0.03779185       0.00777888      -0.02685695
H        3.38915966      -2.49521563      -0.12970022       0.00000000       0.00000000       0.05171657       0.04232413      -0.11475962       0.14144521
H        2.87079752      -3.09379556       1.46676339       0.00000000       0.00000000      -0.16528881      -0.03952123       0.04581355       0.12627207
H        3.67120560      -1.50535176       1.32632040       0.00000000       0.00000000       0.05173006      -0.02914647      -0.03643154       0.16038169
H       -2.43763519      -2.21483809      -0.44000701       0.00000000       0.00000000       0.09297697      -0.11009319      -0.03747412       0.41167505
H       -0.56407211      -3.31985599       3.32628504       0.00000000       0.00000000       0.08516794      -0.02202247       0.03873986       0.12550602
H       -0.99160215      -1.71704778       3.92751119       0.00000000       0.00000000      -0.02489712       0.04801105       0.02932351       0.13014809
H        0.71973679      -2.09564504       3.59881051       0.00000000       0.00000000      -0.01200362      -0.07094026       0.01486953       0.12088588
C       -2.83541980       1.30713635       1.74121070       0.00000000       0.00000000      -0.01645162       0.05962296      -0.03051944      -0.02042310
O       -1.50011592       0.90767299       1.42790114       0.00000000       0.00000000      -0.05375417       0.11721068       0.00815826      -0.10258389
P        0.63548816       2.50054950       0.90524210       0.00000000       0.00000000       0.00504806       0.02640669       0.00221008       0.76877893
O       -0.87193818       1.74123436       0.38777997       0.00000000       0.00000000      -0.15984631       0.03062256       0.03481247      -0.23986440
O        1.39509836       1.80871098      -0.38288468       0.00000000       0.00000000      -0.04664767       0.11968061      -0.02008577      -0.39196272
O        1.02934230       1.23797254       1.87655629       0.00000000       0.00000000       0.07450338      -0.04965516       0.03590237      -0.28191603
C        1.15742005       1.45449051       3.31712606       0.00000000       0.00000000      -0.00436613       0.00746784       0.07495979      -0.02618682
H       -3.51640470       1.21266043       0.88964981       0.00000000       0.00000000       0.05571266       0.00021611      -0.04836356       0.13226349
H       -2.89806043       2.31624933       2.15967314       0.00000000       0.00000000       0.11493844       0.01193394      -0.03498708       0.14159185
H       -3.11341257       0.58711182       2.51737111       0.00000000       0.00000000      -0.06062387       0.00875189       0.01910599       0.15994001
H        2.00829704       2.40928330      -0.85024585       0.00000000       0.00000000      -0.09960159      -0.10999488       0.03495823       0.41102022
H        1.39740809       2.49166558       3.55496694       0.00000000       0.00000000      -0.03130696      -0.01821376      -0.08854693       0.12929366
H        1.97160035       0.82825133       3.67976731       0.00000000       0.00000000       0.02705310      -0.05126590      -0.02836273       0.13435667
H        0.22245729       1.17468023       3.80224895       0.00000000       0.00000000      -0.04052318      -0.00210090       0.09309296       0.11890847
O       -0.52506688       0.10626931      -2.11279172       0.00000000       0.00000000       0.11217438       0.02957267       0.02284221      -0.47485774
H       -0.38806997      -0.52404196      -2.84627600       0.00000000       0.00000000      -0.01926218       0.00285349      -0.00794204       0.38322223
H       -0.86594859       0.90184196      -2.56630849       0.00000000       0.00000000      -0.01729417      -0.03682823      -0.00242187       0.38356294
