344
Properties=species:S:1:pos:R:3:initial_charges:R:1:initial_magmoms:R:1:forces:R:3:charge:R:1 energy=-10960.118843003154 free_energy=-10960.118843003154 dipole="-0.30657185211655774 -0.3725258796789737 0.7052174672913419" pbc="F F F"
Gd      -0.38096815       0.22474386       0.10116071       3.00000000       0.00000000       0.01492870       0.02920375       0.00302660       0.80230941
C        8.90247683      -0.91295350       0.43972420       0.00000000       0.00000000       0.00675989       0.04100318      -0.07356804      -0.10295948
C        8.43488969       0.40386362       1.07344163       0.00000000       0.00000000      -0.15605672       0.03150802       0.02138256      -0.05960659
C        8.19113957       1.63540364       0.16182673       0.00000000       0.00000000       0.13301951      -0.00218610       0.11392087      -0.07287529
C        6.78641019       2.21115348       0.40098765       0.00000000       0.00000000       0.15026476      -0.04561656       0.00648119      -0.06729976
C        6.50134472       3.68511826       0.06840104       0.00000000       0.00000000       0.05449675       0.02038107      -0.03374027      -0.06591922
C        6.01144497       4.04424439      -1.33943473       0.00000000       0.00000000      -0.02507689      -0.02909548      -0.07779025      -0.06778623
C        4.74065096       3.32650468      -1.84127427       0.00000000       0.00000000      -0.04810074       0.05579846      -0.04027405      -0.07156412
C        3.40730595       4.12099796      -1.98478727       0.00000000       0.00000000       0.04318784      -0.00146257      -0.03493437      -0.01443233
N        2.37529578       3.56008023      -1.12936482       0.00000000       0.00000000      -0.00263688      -0.01788506      -0.00642153      -0.07237030
C        2.59424460       3.83553815       0.28118196       0.00000000       0.00000000       0.01998399       0.00265867       0.07368799      -0.06098350
C        1.42877015       2.65018642      -1.43750225       0.00000000       0.00000000      -0.05040219       0.01122672       0.02774640       0.27775622
O        1.02150819       1.87716697      -0.55086447       0.00000000       0.00000000       0.01591815       0.01025644       0.10150682      -0.33844678
C        0.69646619       2.73612723      -2.76849737       0.00000000       0.00000000      -0.02331906      -0.02836215      -0.05929675      -0.06821944
C        0.60096810       1.39892440      -3.55991298       0.00000000       0.00000000       0.06866259      -0.03619737      -0.04445502      -0.07469177
C        0.88679388       1.52148160      -5.06214882       0.00000000       0.00000000       0.02663299      -0.02634397       0.00015039      -0.06614701
C        0.48747712       0.26395977      -5.86161666       0.00000000       0.00000000       0.03059919      -0.00609616       0.02446848      -0.07341125
C        1.56945453      -0.74991044      -6.26132706       0.00000000       0.00000000      -0.00133962       0.01527665      -0.00082755      -0.06926014
C        2.01373186      -1.80696493      -5.23283491       0.00000000       0.00000000      -0.01175152       0.02099296       0.02272143      -0.06102776
C        0.93081249      -2.34895624      -4.30749564       0.00000000       0.00000000      -0.02156925      -0.02127490       0.00967899      -0.10486083
C       -0.78464733       3.00235742      -2.41551101       0.00000000       0.00000000      -0.00747459       0.07507155       0.10348704       0.26156535
O       -1.32213951       2.28533229      -1.55370704       0.00000000       0.00000000      -0.00821778      -0.09008146      -0.05948863      -0.39683650
N       -1.44930963       3.92156502      -3.11712253       0.00000000       0.00000000      -0.05655200      -0.05713319      -0.07264777      -0.05627068
C       -0.87149483       4.66829538      -4.22011797       0.00000000       0.00000000       0.01443438       0.03342562      -0.02435128      -0.07318123
C       -2.90208297       4.09397160      -2.97025754       0.00000000       0.00000000      -0.00535930       0.05225618      -0.00695613      -0.02116803
C       -3.35012164       5.57347835      -3.03299942       0.00000000       0.00000000      -0.02771916      -0.02600051       0.00924216      -0.07529823
C       -4.18804261       6.11285415      -1.85471253       0.00000000       0.00000000       0.04097742       0.00104109      -0.01107125      -0.06534901
C       -5.71400293       6.12312403      -2.05075957       0.00000000       0.00000000       0.06307730      -0.02512893       0.00135154      -0.06726889
C       -6.36570881       4.78614887      -1.70057651       0.00000000       0.00000000       0.01977754       0.03372179      -0.01490405      -0.05769433
C       -7.89018120       4.83671356      -1.57185913       0.00000000       0.00000000       0.04415806       0.07324368      -0.00613213      -0.06578623
C       -8.46685496       3.46649135      -1.18155966       0.00000000       0.00000000       0.01481496       0.07742406      -0.00519900      -0.05494935
C       -8.88504094       2.65310315      -2.39888207       0.00000000       0.00000000      -0.00758181       0.00307316       0.00252091      -0.10737622
H        9.42735747      -0.77408278      -0.49873069       0.00000000       0.00000000       0.01891558       0.13691251      -0.06034046       0.04147941
H        8.08121242      -1.60750487       0.26158963       0.00000000       0.00000000      -0.07771664       0.13226532      -0.06885819       0.01179199
H        9.58888065      -1.41065000       1.11570833       0.00000000       0.00000000       0.05032525      -0.05808128       0.04575425       0.04648205
H        9.16524762       0.70049981       1.82705003       0.00000000       0.00000000      -0.02370787      -0.06704763      -0.01680329       0.04179856
H        7.50573542       0.18480542       1.60154604       0.00000000       0.00000000       0.01439179       0.01841959       0.10565099       0.02258889
H        8.35832273       1.38445365      -0.88543127       0.00000000       0.00000000      -0.07622591      -0.04790596       0.15562505       0.04325585
H        8.93606930       2.38031574       0.43994582       0.00000000       0.00000000      -0.11215961       0.09115676      -0.12994155       0.04992907
H        6.64037224       2.14107586       1.47644787       0.00000000       0.00000000       0.00591022      -0.00279048       0.05471921       0.03912601
H        6.06636490       1.54940330      -0.07692175       0.00000000       0.00000000      -0.00810358       0.07177272      -0.02758918       0.02171176
H        7.42226151       4.23768964       0.24140570       0.00000000       0.00000000       0.06925684       0.13490407       0.01074409       0.05384806
H        5.77564379       4.05629066       0.79491016       0.00000000       0.00000000      -0.07374217      -0.01830535       0.03363279       0.02302215
H        6.82200511       3.81420413      -2.03110482       0.00000000       0.00000000       0.00645419      -0.00112171      -0.05906813       0.04959630
H        5.86247423       5.12462780      -1.39094801       0.00000000       0.00000000       0.01886928      -0.01184099       0.06286898       0.04420638
H        4.53517916       2.45507560      -1.21461997       0.00000000       0.00000000       0.00998954       0.11219866      -0.11020467       0.04574445
H        4.99108792       2.96853257      -2.83650160       0.00000000       0.00000000      -0.01138154       0.02592284       0.08891698       0.04980353
H        3.07062077       4.08651978      -3.02031408       0.00000000       0.00000000       0.04595518      -0.01926188      -0.01248123       0.05542547
H        3.53172359       5.17320936      -1.71444019       0.00000000       0.00000000       0.08218187      -0.02773027      -0.01152794       0.07254826
H        3.54571810       4.33777187       0.40420300       0.00000000       0.00000000       0.09285043      -0.01870621       0.05263868       0.08723667
H        2.58143719       2.92731913       0.87812778       0.00000000       0.00000000       0.01616525      -0.09874553      -0.00293869       0.07307400
H        1.80301442       4.50506753       0.62000732       0.00000000       0.00000000      -0.06262728       0.03146749       0.07415697       0.06305306
H        1.12960205       3.53467992      -3.36077171       0.00000000       0.00000000       0.02571252      -0.02336971      -0.07849609       0.06559117
H       -0.40410730       0.99702945      -3.39949318       0.00000000       0.00000000       0.08314528      -0.04698328      -0.14615647       0.06316126
H        1.28913431       0.69185909      -3.10796687       0.00000000       0.00000000      -0.00946749      -0.05563903       0.00537990       0.10756777
H        1.93901061       1.76853925      -5.21740989       0.00000000       0.00000000      -0.04431248      -0.05091365      -0.07519907       0.04201872
H        0.30096834       2.34187353      -5.47976967       0.00000000       0.00000000       0.01876736       0.00328711       0.05064187       0.03302362
H        0.02942486       0.59481808      -6.79727577       0.00000000       0.00000000       0.07660801       0.04430138       0.05747675       0.04525206
H       -0.28511789      -0.25271382      -5.30464967       0.00000000       0.00000000      -0.02653371       0.02561132      -0.05858197       0.04413349
H        2.45371949      -0.21458546      -6.61128132       0.00000000       0.00000000       0.01548256       0.00289196       0.01889992       0.04019268
H        1.17168208      -1.28023723      -7.12945455       0.00000000       0.00000000      -0.00730842      -0.04988431       0.05605447       0.04666551
H        2.42759301      -2.64652664      -5.79633648       0.00000000       0.00000000       0.04262483       0.04828963       0.00026258       0.04163759
H        2.81366260      -1.42236791      -4.60338573       0.00000000       0.00000000       0.01350290       0.02299354      -0.01522140       0.02963885
H        0.56576518      -1.58206616      -3.62618445       0.00000000       0.00000000       0.01167496       0.01473043      -0.01757487       0.04038894
H        1.34580107      -3.14628898      -3.69582208       0.00000000       0.00000000       0.03944874      -0.02135514      -0.05938620       0.03149735
H        0.10563564      -2.77721911      -4.87301929       0.00000000       0.00000000       0.03398115       0.00532669      -0.06936592       0.03104496
H       -0.32074592       5.53930978      -3.86868093       0.00000000       0.00000000       0.03207142       0.09352266       0.03977818       0.06786821
H       -1.67664460       5.00219648      -4.86699077       0.00000000       0.00000000      -0.01843639       0.04849248      -0.02837102       0.09537067
H       -0.20578626       4.06130293      -4.82326838       0.00000000       0.00000000       0.01135274      -0.04982250      -0.03575796       0.07012199
H       -3.18725715       3.62633684      -2.03226266       0.00000000       0.00000000      -0.00315786       0.06568619      -0.02222462       0.09009386
H       -3.37820858       3.53612974      -3.78710867       0.00000000       0.00000000       0.01979244       0.01845531       0.07985741       0.05933513
H       -3.92497228       5.72250778      -3.94887982       0.00000000       0.00000000       0.04199022       0.05321608       0.03155018       0.05555652
H       -2.46512425       6.20808113      -3.10360568       0.00000000       0.00000000      -0.05548020      -0.10298788       0.03118780       0.05213681
H       -3.87527443       7.14542142      -1.69503857       0.00000000       0.00000000      -0.03748848       0.03864043      -0.02120975       0.04603724
H       -3.94455532       5.57281171      -0.93687948       0.00000000       0.00000000      -0.00853788      -0.02651818      -0.03315638       0.03343358
H       -5.95644132       6.41603185      -3.07387725       0.00000000       0.00000000       0.01323596      -0.04681018       0.02141463       0.04214849
H       -6.13081777       6.89245089      -1.39544262       0.00000000       0.00000000       0.01326852      -0.07024561      -0.00312181       0.04525877
H       -5.96543219       4.48676859      -0.72642425       0.00000000       0.00000000      -0.05307855      -0.01794622      -0.05314628       0.02611452
H       -6.08723526       4.03385905      -2.44587756       0.00000000       0.00000000       0.00365303       0.04333827       0.04964928       0.02477848
H       -8.33924479       5.16958055      -2.51007179       0.00000000       0.00000000       0.04446458      -0.04380236       0.02784837       0.04505106
H       -8.15015449       5.57939693      -0.81539937       0.00000000       0.00000000       0.02788786      -0.02572490       0.02955679       0.03652545
H       -9.33702431       3.59724058      -0.53717686       0.00000000       0.00000000       0.00722437       0.03986194      -0.01358893       0.03919745
H       -7.72112999       2.90640897      -0.60812020       0.00000000       0.00000000      -0.02409134       0.04577717       0.01239879       0.01754864
H       -9.75540472       3.10460888      -2.86586669       0.00000000       0.00000000       0.01078827      -0.00487223      -0.04379049       0.04650773
H       -9.14316653       1.63841226      -2.10786091       0.00000000       0.00000000      -0.02498965      -0.04233617      -0.02346312       0.03026499
H       -8.08400922       2.61222118      -3.13251020       0.00000000       0.00000000      -0.00585344      -0.00072609      -0.00942323       0.03271884
C       -0.83444709       5.72654739       2.92171697       0.00000000       0.00000000       0.01409393       0.01762157       0.01162009      -0.11000529
C        0.50310764       6.18004985       3.50417483       0.00000000       0.00000000      -0.00887235      -0.00573682       0.00758207      -0.06089626
C        1.06375180       5.21317474       4.55094935       0.00000000       0.00000000      -0.02738273       0.07954260       0.01411577      -0.06756140
C        1.22877676       3.78771373       4.02579939       0.00000000       0.00000000      -0.05026710       0.10343273       0.00630129      -0.05952806
C        2.23100372       2.95446538       4.81933563       0.00000000       0.00000000      -0.01529172       0.00812388      -0.05123788      -0.06820637
C        1.90599357       2.75189803       6.29561626       0.00000000       0.00000000      -0.00036963       0.01124880       0.00754043      -0.06887008
C        0.60122219       2.00098057       6.56377028       0.00000000       0.00000000       0.00681601      -0.01521936       0.01213920      -0.07251639
C        0.67163316       0.48706767       6.31127765       0.00000000       0.00000000       0.00353898       0.01935511       0.02816750      -0.01717291
N        0.76699051       0.10303050       4.90541753       0.00000000       0.00000000      -0.05033379      -0.02069877       0.01353083      -0.06737308
C        1.96750468      -0.61705093       4.55235658       0.00000000       0.00000000      -0.00049174      -0.02791979      -0.01918843      -0.06416230
C       -0.16520379       0.29251472       3.96171623       0.00000000       0.00000000      -0.05860514       0.07690203      -0.03357598       0.26288436
O        0.11156781       0.25592245       2.74371655       0.00000000       0.00000000      -0.00793450      -0.01245122       0.04192575      -0.38984826
C       -1.59435151       0.35394647       4.48649162       0.00000000       0.00000000      -0.06934190      -0.09712810       0.00371165      -0.07902606
C       -2.34462270       1.69969903       4.38734251       0.00000000       0.00000000       0.04990667      -0.00998783       0.00593565      -0.05519360
C       -3.83694733       1.63356766       4.05017597       0.00000000       0.00000000       0.01509060       0.01659418       0.02902452      -0.06686632
C       -4.11654501       1.58340000       2.55396332       0.00000000       0.00000000       0.01101298       0.08670407       0.00436666      -0.07666953
C       -3.85636636       2.92451515       1.86008305       0.00000000       0.00000000       0.02054677      -0.00846011      -0.09411049      -0.06925568
C       -3.38004546       2.69315473       0.43061095       0.00000000       0.00000000      -0.01691369      -0.04037679      -0.05864085      -0.06552813
C       -4.42177729       2.00609840      -0.44687645       0.00000000       0.00000000      -0.00330118      -0.02796311      -0.02565354      -0.11961174
C       -2.23766011      -0.87483420       3.82148253       0.00000000       0.00000000       0.02257771      -0.14343262       0.07574621       0.26479327
O       -2.04017606      -1.16460981       2.64141646       0.00000000       0.00000000       0.01317244       0.09429481       0.01130751      -0.42686086
N       -2.90285941      -1.67798266       4.66901383       0.00000000       0.00000000      -0.03831021       0.00453542       0.04628746      -0.08166175
C       -3.21225507      -1.35677640       6.05500469       0.00000000       0.00000000      -0.01795624       0.01532429      -0.01122488      -0.06166716
C       -3.45139161      -2.94458610       4.19466610       0.00000000       0.00000000       0.05888785       0.06222706       0.04373859      -0.00822126
C       -2.97816346      -4.15805347       5.02625617       0.00000000       0.00000000      -0.07230607       0.13495332      -0.01829943      -0.08003084
C       -2.01852800      -5.09702351       4.27858311       0.00000000       0.00000000       0.02226342       0.13232849       0.09833343      -0.06964762
C       -2.64662778      -6.39305255       3.75242372       0.00000000       0.00000000       0.03302051       0.01492012       0.01569001      -0.06318593
C       -1.76235632      -7.01966460       2.66976443       0.00000000       0.00000000       0.04345748      -0.13681365      -0.04567159      -0.06052496
C       -1.85099278      -8.54428131       2.51779699       0.00000000       0.00000000      -0.04519366      -0.15628886      -0.03542060      -0.06478844
C       -2.79392258      -9.02842647       1.41440808       0.00000000       0.00000000      -0.07452575       0.00635252      -0.01931344      -0.05416661
C       -4.26875529      -8.89967436       1.77623042       0.00000000       0.00000000      -0.00124204       0.00745629      -0.01807289      -0.10474063
H       -1.32223012       6.55281765       2.41133887       0.00000000       0.00000000       0.00801764      -0.00232992       0.01128692       0.04724932
H       -1.49334646       5.38478253       3.71816790       0.00000000       0.00000000      -0.01269576       0.02827118      -0.02614488       0.03562061
H       -0.69902379       4.92469389       2.19694461       0.00000000       0.00000000      -0.01813223       0.03860855       0.01553081       0.01857529
H        0.37069078       7.15403120       3.97832156       0.00000000       0.00000000       0.01000839      -0.04982121      -0.01016608       0.05181009
H        1.22991606       6.30814842       2.69669608       0.00000000       0.00000000      -0.03494796      -0.00750089       0.02772675       0.02848150
H        0.40268454       5.20905078       5.41877729       0.00000000       0.00000000       0.00905572       0.00741408       0.00311003       0.04237204
H        2.03551808       5.58677154       4.87768578       0.00000000       0.00000000      -0.00946583       0.00605996      -0.00753217       0.04710131
H        1.59056842       3.84112586       2.99287810       0.00000000       0.00000000       0.03536085       0.00168469       0.04500184       0.01611939
H        0.26124711       3.28061233       4.03225179       0.00000000       0.00000000       0.00657653       0.03113604      -0.01937518       0.01721325
H        3.21037779       3.42831458       4.74298712       0.00000000       0.00000000       0.02383731       0.01657079       0.05234737       0.04426792
H        2.29005276       1.98260491       4.33857694       0.00000000       0.00000000      -0.01396774      -0.05044531      -0.04017534       0.03287172
H        1.85792607       3.72470144       6.78224088       0.00000000       0.00000000      -0.04378652       0.02000001       0.02515223       0.05892266
H        2.73144844       2.20582195       6.75543929       0.00000000       0.00000000       0.00640016       0.00825348       0.03492738       0.04681529
H       -0.20482035       2.44672799       5.98250336       0.00000000       0.00000000       0.02478081      -0.03581789       0.02964534       0.04677967
H        0.35575400       2.13174642       7.61958273       0.00000000       0.00000000      -0.01663982      -0.04230025      -0.02793505       0.06250393
H       -0.18232805       0.01390540       6.80465935       0.00000000       0.00000000       0.01259178      -0.04817861      -0.02864647       0.05059484
H        1.56317048       0.09795218       6.80327745       0.00000000       0.00000000       0.04270536       0.00688334      -0.02078230       0.08025204
H        2.85545994      -0.03192636       4.75611792       0.00000000       0.00000000       0.07347833      -0.01369513       0.01292910       0.08831832
H        1.91992311      -0.87012351       3.49834377       0.00000000       0.00000000      -0.03427451      -0.01454596      -0.08786437       0.08053082
H        2.00704767      -1.53462479       5.13954151       0.00000000       0.00000000       0.04178244      -0.07061313       0.03523975       0.06453950
H       -1.54719272       0.10929282       5.54060729       0.00000000       0.00000000       0.01255436       0.06576604       0.02496896       0.06921492
H       -1.83550716       2.33858937       3.66894111       0.00000000       0.00000000      -0.04970475       0.03721422      -0.07659652       0.04083984
H       -2.24646666       2.17737742       5.36235091       0.00000000       0.00000000      -0.00874058       0.08376292       0.03025102       0.05108144
H       -4.32409572       2.52167231       4.45615670       0.00000000       0.00000000       0.00671752      -0.01091701       0.07397252       0.05577422
H       -4.28934429       0.76465344       4.52642305       0.00000000       0.00000000      -0.01992356       0.02574674       0.03526637       0.03673516
H       -5.16425576       1.31584421       2.40889518       0.00000000       0.00000000       0.04577066      -0.01970746       0.03752896       0.04282445
H       -3.48611696       0.81367725       2.09648452       0.00000000       0.00000000      -0.03278508       0.06687626       0.01097984       0.06818585
H       -3.09303666       3.49847866       2.39498616       0.00000000       0.00000000      -0.09044336       0.00536886       0.03974953       0.02270535
H       -4.75695548       3.54121983       1.86016807       0.00000000       0.00000000      -0.02574891      -0.07923944       0.00457819       0.05533492
H       -2.50778668       2.01902021       0.45016427       0.00000000       0.00000000      -0.02216548      -0.00148898      -0.01968087       0.09484984
H       -3.06815370       3.64268506      -0.00907584       0.00000000       0.00000000      -0.02117581      -0.02755825       0.04566813       0.04545066
H       -4.90256660       1.22408180       0.12474311       0.00000000       0.00000000       0.00144582      -0.02416772      -0.03498203       0.04608483
H       -3.92620341       1.54825356      -1.30191142       0.00000000       0.00000000      -0.06019102       0.04382434      -0.02062092       0.03818715
H       -5.19236308       2.68433337      -0.79570925       0.00000000       0.00000000       0.06505497       0.01334981       0.01698182       0.05743668
H       -3.64892113      -0.36232033       6.15708553       0.00000000       0.00000000       0.04118335      -0.03110999      -0.00939478       0.06916970
H       -2.33223779      -1.42374630       6.70447433       0.00000000       0.00000000      -0.09303242      -0.06019202      -0.06634909       0.05755054
H       -3.94609910      -2.07318368       6.41809193       0.00000000       0.00000000       0.01612363       0.00675779      -0.02557394       0.08994638
H       -3.13234384      -3.03422276       3.15524868       0.00000000       0.00000000      -0.06767960      -0.05068340       0.01240772       0.07175857
H       -4.54373418      -2.84806849       4.22571658       0.00000000       0.00000000       0.08763644      -0.09818444       0.04646542       0.04711854
H       -3.84965827      -4.71706185       5.35886128       0.00000000       0.00000000       0.03885733      -0.04344889      -0.02725194       0.07102509
H       -2.47920107      -3.78832229       5.92388743       0.00000000       0.00000000      -0.02813993      -0.05482661      -0.06782835       0.04836775
H       -1.20272592      -5.36525556       4.95351994       0.00000000       0.00000000      -0.00663641      -0.04862994      -0.05643364       0.03872817
H       -1.58067943      -4.54454043       3.45000188       0.00000000       0.00000000       0.01269292      -0.05000210       0.01679394       0.03827523
H       -3.64205708      -6.19975129       3.35561225       0.00000000       0.00000000      -0.03501314       0.04415693      -0.00445756       0.03089088
H       -2.75873814      -7.09038618       4.58132592       0.00000000       0.00000000      -0.01537939      -0.02902822       0.03914995       0.04547668
H       -0.72531181      -6.79089535       2.90988406       0.00000000       0.00000000       0.01561374       0.01750540       0.07473335       0.02912874
H       -1.97883974      -6.55503244       1.70548033       0.00000000       0.00000000       0.00391857       0.01750036       0.00032308       0.02197279
H       -2.14675936      -8.99726289       3.46446962       0.00000000       0.00000000      -0.01795670       0.01220494       0.01541154       0.04533451
H       -0.85367979      -8.92610209       2.28565061       0.00000000       0.00000000      -0.00838008       0.04276308      -0.00832351       0.03304196
H       -2.58305623     -10.08082987       1.20521176       0.00000000       0.00000000       0.01573785       0.07966255       0.05865334       0.04026268
H       -2.59176595      -8.46869956       0.49474762       0.00000000       0.00000000      -0.00235878      -0.02928373       0.03178134       0.02092321
H       -4.48365388      -9.44399080       2.69402652       0.00000000       0.00000000       0.00867142       0.04167629      -0.05057461       0.04288809
H       -4.88310755      -9.31695526       0.98124530       0.00000000       0.00000000      -0.01913840       0.01983175       0.03651427       0.03810476
H       -4.55125651      -7.85794954       1.91489927       0.00000000       0.00000000       0.01564633      -0.03367566      -0.00889650       0.02581447
C       11.27863726       2.86941409      -0.87593123       0.00000000       0.00000000       0.01375919      -0.01848479      -0.06331276      -0.10289706
C       11.45893596       1.50045333      -1.53752889       0.00000000       0.00000000      -0.04146233      -0.00136989       0.03425199      -0.05871293
C       11.24375517       1.46413790      -3.06765171       0.00000000       0.00000000       0.09623886       0.07914316       0.08612122      -0.06729663
C        9.97152629       0.75068071      -3.56739442       0.00000000       0.00000000       0.02954786       0.11333241       0.05426236      -0.05970205
C        8.73972056       1.65479444      -3.66799624       0.00000000       0.00000000      -0.06207376      -0.01768139      -0.03506829      -0.06238041
C        7.52251240       0.99971759      -4.34951939       0.00000000       0.00000000      -0.05054222      -0.02815532      -0.00146650      -0.06661874
C        7.00299680      -0.30026394      -3.70088389       0.00000000       0.00000000      -0.04379065       0.10510617       0.03391348      -0.06839846
C        6.17653407      -0.04832111      -2.42431899       0.00000000       0.00000000       0.03233313       0.12919068       0.13224011      -0.01544069
N        4.71951336       0.10951836      -2.55813083       0.00000000       0.00000000       0.00156265      -0.13505019       0.05756344      -0.08299401
C        4.21950118       0.65234966      -3.81170708       0.00000000       0.00000000       0.01117380      -0.11327019      -0.00956429      -0.06142165
C        3.80314407      -0.02946086      -1.57599254       0.00000000       0.00000000       0.06323680      -0.07263614       0.02779713       0.25528011
O        2.63258897       0.31374550      -1.74573177       0.00000000       0.00000000       0.08728719       0.05619526      -0.09934817      -0.44582311
C        4.11332387      -0.69510482      -0.21442744       0.00000000       0.00000000      -0.02281021      -0.07975238       0.00920834      -0.06283970
C        3.87981688       0.28494179       0.95145156       0.00000000       0.00000000       0.02184644      -0.06990379      -0.05436739      -0.05559404
C        4.50714075      -0.20009969       2.27099960       0.00000000       0.00000000      -0.07672806      -0.00680370      -0.03555259      -0.06334749
C        4.76021500       0.99843154       3.19275873       0.00000000       0.00000000       0.01670985       0.02271813      -0.02347592      -0.07197379
C        5.33959336       0.76717966       4.59790504       0.00000000       0.00000000      -0.01508113      -0.07109811      -0.00920774      -0.06318726
C        6.45444024      -0.27677563       4.71889738       0.00000000       0.00000000       0.03797673       0.00874221       0.00776050      -0.06067328
C        5.92400397      -1.65314507       5.10901124       0.00000000       0.00000000      -0.00680680      -0.00324864      -0.04011688      -0.10739400
C        3.04862182      -1.79710639      -0.20798881       0.00000000       0.00000000       0.02231651      -0.06889118      -0.03018460       0.26351488
O        1.84048100      -1.50227042      -0.09914509       0.00000000       0.00000000       0.02937993      -0.06215686      -0.07060765      -0.39154020
N        3.46461621      -3.05055185      -0.45291785       0.00000000       0.00000000       0.00564682       0.02883890      -0.09003154      -0.07475546
C        4.79655888      -3.53889456      -0.13706049       0.00000000       0.00000000      -0.00696550       0.05926695       0.03828775      -0.06135621
C        2.54134421      -4.03087829      -1.03349166       0.00000000       0.00000000       0.02968716      -0.00677129      -0.01217355      -0.00726834
C        3.25914355      -5.12107169      -1.84552168       0.00000000       0.00000000      -0.03304000       0.05667615       0.00941526      -0.07064068
C        2.35119465      -5.79822301      -2.87890614       0.00000000       0.00000000       0.05527655       0.04775479       0.05397540      -0.06646647
C        1.03154824      -6.34586863      -2.33863486       0.00000000       0.00000000       0.05912100       0.03418215      -0.01561661      -0.06209317
C        0.23161553      -6.94634024      -3.49503300       0.00000000       0.00000000      -0.02035445      -0.02351735       0.05328419      -0.06427653
C       -1.20557020      -7.31431654      -3.13445201       0.00000000       0.00000000      -0.05108216       0.04177931       0.01364913      -0.06540487
C       -2.05503916      -6.10962942      -2.72394619       0.00000000       0.00000000      -0.03963478       0.01020377       0.00938942      -0.04982687
C       -3.53714538      -6.46836017      -2.74089180       0.00000000       0.00000000       0.01796109       0.01297931       0.01291597      -0.10802490
H       11.29229856       2.75890203       0.21016468       0.00000000       0.00000000       0.01069157      -0.00828344      -0.11512185       0.03122776
H       10.33699575       3.33681171      -1.16437427       0.00000000       0.00000000       0.07774641      -0.04049601      -0.04309476       0.02703204
H       12.09132210       3.54166899      -1.13858846       0.00000000       0.00000000      -0.03013394      -0.01135890      -0.11249685       0.04181423
H       10.77892935       0.80165298      -1.05192015       0.00000000       0.00000000      -0.03515048      -0.06807183      -0.04268569       0.03063300
H       12.47218063       1.15511551      -1.31183927       0.00000000       0.00000000      -0.10346201       0.04349834      -0.04250593       0.03803193
H       12.09778828       0.94548003      -3.50799467       0.00000000       0.00000000      -0.05907059       0.01363583      -0.00332879       0.04126873
H       11.26604992       2.48525896      -3.45257763       0.00000000       0.00000000      -0.03969263      -0.02311104      -0.02745194       0.04360074
H        9.75920716      -0.09562523      -2.90946274       0.00000000       0.00000000       0.06548048      -0.00294765      -0.03201548       0.02451613
H       10.17621539       0.35600180      -4.56530394       0.00000000       0.00000000      -0.02223312      -0.01859315       0.03808389       0.03756913
H        9.01031577       2.53251357      -4.26214598       0.00000000       0.00000000      -0.04173081      -0.05190342       0.01724401       0.04187195
H        8.46389583       2.02109552      -2.67840552       0.00000000       0.00000000       0.01485611      -0.01778921      -0.00091025       0.02931438
H        7.78881982       0.80391634      -5.38988885       0.00000000       0.00000000       0.04134270      -0.15070401       0.05707125       0.04680289
H        6.70658463       1.72773207      -4.37323275       0.00000000       0.00000000       0.08229852       0.03494358      -0.00726824       0.02747858
H        7.86285213      -0.91402145      -3.42246268       0.00000000       0.00000000      -0.10305943       0.06725310       0.00079971       0.06205829
H        6.43299032      -0.88611524      -4.42279964       0.00000000       0.00000000       0.02988989       0.01373398      -0.01003173       0.04388353
H        6.57019862       0.88231066      -2.00365870       0.00000000       0.00000000      -0.04169618      -0.11043223       0.11859309       0.07829121
H        6.37408607      -0.86531729      -1.72803951       0.00000000       0.00000000      -0.06317893       0.07132471       0.01168331       0.04973844
H        3.16555856       0.41800654      -3.88321961       0.00000000       0.00000000      -0.06168371      -0.07230381      -0.01802044       0.08855153
H        4.74982342       0.20316214      -4.64452142       0.00000000       0.00000000       0.00446913       0.03349597      -0.01555779       0.07628205
H        4.30611062       1.73745204      -3.86632379       0.00000000       0.00000000       0.11617722      -0.12346897      -0.04876569       0.05589018
H        5.12770181      -1.08536965      -0.17601593       0.00000000       0.00000000      -0.07588139       0.03347226      -0.02399297       0.05633067
H        2.79483910       0.44880974       1.05373969       0.00000000       0.00000000       0.05543829      -0.10490448       0.07981254       0.06482189
H        4.32086482       1.24454826       0.69714817       0.00000000       0.00000000       0.01873734       0.07041997      -0.01111421       0.05097524
H        5.45300046      -0.71178096       2.07300110       0.00000000       0.00000000      -0.04172785       0.12530613      -0.03212073       0.04258237
H        3.84132583      -0.92505393       2.73330974       0.00000000       0.00000000       0.05991459      -0.06774269       0.05969660       0.03138605
H        3.83295111       1.56353447       3.29608255       0.00000000       0.00000000       0.03265473      -0.08271460      -0.08079341       0.02809413
H        5.45239896       1.65682944       2.67542739       0.00000000       0.00000000       0.06920933       0.02325166      -0.01754623       0.04318054
H        4.55410612       0.47479279       5.29747667       0.00000000       0.00000000       0.01729433       0.08681929       0.03307367       0.02760509
H        5.71815097       1.73809187       4.93262812       0.00000000       0.00000000      -0.05146969      -0.09993217      -0.00385862       0.04051860
H        7.14848076       0.04436712       5.49513631       0.00000000       0.00000000       0.01930536       0.02162965       0.01376569       0.04691900
H        7.02279642      -0.33695544       3.79038593       0.00000000       0.00000000      -0.00580907      -0.01849153       0.01096243       0.03876553
H        5.37857877      -1.59463939       6.05142513       0.00000000       0.00000000       0.07142558      -0.01335167      -0.05812485       0.03409637
H        6.74944197      -2.34970410       5.24044017       0.00000000       0.00000000      -0.06317840       0.02138600      -0.03348153       0.04734951
H        5.25052392      -2.04524179       4.34949574       0.00000000       0.00000000       0.01956607      -0.04631833       0.00804369       0.02470542
H        5.22839287      -2.98083224       0.68967299       0.00000000       0.00000000      -0.02236505       0.00494347       0.03999373       0.06761795
H        5.47846157      -3.50226616      -0.98974658       0.00000000       0.00000000      -0.04495206       0.07074513      -0.00276039       0.06569681
H        4.70937539      -4.57961952       0.17179103       0.00000000       0.00000000       0.02514795       0.08758160       0.05962544       0.08818824
H        1.87858765      -3.46784501      -1.69705481       0.00000000       0.00000000      -0.00649601       0.01451052       0.05649046       0.05881556
H        1.93562164      -4.48620141      -0.24735921       0.00000000       0.00000000       0.04821562      -0.02195550      -0.00921556       0.06533945
H        3.66987456      -5.88879057      -1.18428508       0.00000000       0.00000000      -0.08430587       0.08874125      -0.04302020       0.05037079
H        4.08432426      -4.66403251      -2.39706939       0.00000000       0.00000000      -0.02974063      -0.08260399       0.04253091       0.04978212
H        2.91158842      -6.62222148      -3.32713055       0.00000000       0.00000000      -0.02202724       0.06742664       0.01006315       0.05556739
H        2.13453692      -5.08400945      -3.67874873       0.00000000       0.00000000      -0.00160618      -0.06452305       0.03824579       0.03631674
H        0.45695237      -5.54005834      -1.87724672       0.00000000       0.00000000       0.02576648       0.01297038      -0.03513848       0.01917909
H        1.21896039      -7.10522393      -1.57582035       0.00000000       0.00000000      -0.00291927       0.02319481      -0.05104087       0.03923125
H        0.74251402      -7.84535206      -3.84286228       0.00000000       0.00000000      -0.00127966       0.04280698      -0.04780513       0.04755037
H        0.22118025      -6.22451824      -4.31955088       0.00000000       0.00000000      -0.04767432      -0.10244141       0.04671947       0.03294435
H       -1.22007056      -8.04932306      -2.32570333       0.00000000       0.00000000       0.06085261       0.02463960      -0.05226963       0.04122583
H       -1.66574113      -7.77933060      -4.00835401       0.00000000       0.00000000       0.01592626      -0.00151872       0.02199423       0.04901889
H       -1.87262740      -5.27634566      -3.41072240       0.00000000       0.00000000       0.00362487      -0.03960580      -0.00175012       0.01867230
H       -1.76535512      -5.78097521      -1.72077013       0.00000000       0.00000000      -0.03523563      -0.02903789      -0.00896963       0.01090458
H       -3.84787778      -6.69954929      -3.75710506       0.00000000       0.00000000      -0.03745293      -0.00698021       0.06031921       0.04838741
H       -4.15323212      -5.64890986      -2.37045960       0.00000000       0.00000000      -0.00824852      -0.01461044      -0.02804978       0.01299985
H       -3.72072326      -7.34401635      -2.12202258       0.00000000       0.00000000      -0.01134269       0.03543311      -0.01278071       0.04886906
C       -3.91173588       3.89041632      -7.28269280       0.00000000       0.00000000       0.00171626       0.01159509       0.01497985      -0.10312327
C       -5.05052752       2.87838346      -7.31906232       0.00000000       0.00000000      -0.03773218      -0.00377925      -0.01387058      -0.05961570
C       -5.33611209       2.29474328      -5.93694065       0.00000000       0.00000000      -0.00111233       0.00342587       0.02082061      -0.05597646
C       -6.46487367       1.26165767      -5.95324372       0.00000000       0.00000000      -0.01093922      -0.01057245       0.02420304      -0.06682882
C       -6.57370008       0.46056735      -4.64932719       0.00000000       0.00000000       0.03696473      -0.06367630       0.02786327      -0.06276824
C       -5.42742388      -0.54552285      -4.54743864       0.00000000       0.00000000       0.01591599      -0.07206548       0.07005038      -0.07237268
C       -5.32988284      -1.26087768      -3.19490414       0.00000000       0.00000000       0.03024737      -0.01993178       0.01500412      -0.06841670
C       -4.26803402      -2.38400276      -3.15415977       0.00000000       0.00000000      -0.04749464       0.01643948       0.01410017      -0.02020665
N       -2.91364212      -1.85908829      -3.09941418       0.00000000       0.00000000      -0.04173057      -0.00568759       0.07127020      -0.04852623
C       -2.44615859      -1.21344756      -4.31132799       0.00000000       0.00000000       0.01450290      -0.01535002       0.04431759      -0.06564648
C       -2.12999913      -1.75269685      -2.02904830       0.00000000       0.00000000       0.01019293       0.00009841       0.04301360       0.26162602
O       -1.17853116      -0.94120295      -1.99953099       0.00000000       0.00000000      -0.01907851       0.03474551       0.03029059      -0.38915316
C       -2.33986831      -2.65891758      -0.80230425       0.00000000       0.00000000      -0.01970773       0.01508693      -0.04847061      -0.06898409
C       -0.95950558      -2.82490533      -0.13498585       0.00000000       0.00000000      -0.04236212       0.01072611      -0.00862272      -0.05476472
C       -0.81632017      -3.92430404       0.91737933       0.00000000       0.00000000       0.01104402      -0.01557589       0.03301779      -0.06362202
C        0.32627873      -3.54919261       1.88201529       0.00000000       0.00000000       0.04712748      -0.01758694       0.03287952      -0.07020738
C        1.17352197      -4.70667461       2.41860415       0.00000000       0.00000000      -0.01872724      -0.04453514      -0.00369153      -0.06691689
C        2.34754464      -4.20129098       3.25750571       0.00000000       0.00000000      -0.06887247       0.04534232      -0.01546735      -0.05166745
C        3.27672014      -5.32141473       3.71144721       0.00000000       0.00000000       0.00786340       0.05668891      -0.01409476      -0.11145456
C       -3.27904928      -1.80299041       0.05795398       0.00000000       0.00000000      -0.01498254      -0.00678789      -0.09872534       0.26028526
O       -2.89449790      -0.63928355       0.28737391       0.00000000       0.00000000      -0.00274844      -0.02945726      -0.05448050      -0.37436489
N       -4.48774620      -2.24769215       0.39810543       0.00000000       0.00000000       0.04407621      -0.05018446      -0.01307530      -0.04875429
C       -5.45167940      -1.31253642       0.96013321       0.00000000       0.00000000       0.04794721      -0.01208565      -0.00366301      -0.06706124
C       -5.01447293      -3.60153506       0.28617126       0.00000000       0.00000000      -0.02916105      -0.02029905      -0.00181496      -0.01923898
C       -5.34054315      -4.21312647       1.66306780       0.00000000       0.00000000       0.00670018      -0.01330480      -0.00714321      -0.07427671
C       -6.63129462      -5.03792302       1.65002895       0.00000000       0.00000000       0.04623735      -0.02757051      -0.02984700      -0.06492502
C       -6.84751057      -5.85553828       2.92810413       0.00000000       0.00000000      -0.00579556       0.01644742      -0.02921377      -0.06552504
C       -7.14527506      -5.03093492       4.18167317       0.00000000       0.00000000       0.00631494      -0.02386853      -0.00154325      -0.05823234
C       -7.37777387      -5.93410782       5.40105370       0.00000000       0.00000000      -0.00215466      -0.00990156       0.02001592      -0.06753533
C       -6.08220763      -6.35950893       6.10370422       0.00000000       0.00000000       0.01142408       0.00093636       0.00239826      -0.05699584
C       -5.66475830      -5.36954394       7.18908086       0.00000000       0.00000000      -0.01309097       0.00859424      -0.00302512      -0.10427559
H       -3.72021919       4.28360752      -8.27665572       0.00000000       0.00000000       0.00100412      -0.01065615      -0.00535268       0.04798606
H       -2.99730541       3.42597093      -6.91544177       0.00000000       0.00000000       0.02504907      -0.01225010      -0.00662588       0.01944198
H       -4.16058570       4.72625826      -6.63277668       0.00000000       0.00000000      -0.02412522       0.02432123       0.02286399       0.02997237
H       -4.79074802       2.07158071      -8.00638151       0.00000000       0.00000000       0.00820552      -0.03026534       0.00641780       0.03617124
H       -5.94874476       3.35671722      -7.70625308       0.00000000       0.00000000      -0.04845593       0.03927312       0.00565599       0.04487316
H       -5.60030827       3.10294041      -5.25043831       0.00000000       0.00000000      -0.00672049       0.01460468       0.01677672       0.02801135
H       -4.41291084       1.83647497      -5.57065331       0.00000000       0.00000000       0.00642904       0.00171345       0.02472887       0.01439884
H       -6.30718346       0.57146014      -6.78430882       0.00000000       0.00000000       0.00537945      -0.02674864       0.01962418       0.04070750
H       -7.40882792       1.77243737      -6.13808666       0.00000000       0.00000000      -0.02241426       0.04651086       0.00833641       0.04818892
H       -7.52753422      -0.06745970      -4.62187284       0.00000000       0.00000000      -0.01011959       0.03212129      -0.01414572       0.04278517
H       -6.54235769       1.13752778      -3.79206863       0.00000000       0.00000000       0.01754176      -0.00276905      -0.03737185       0.03458514
H       -4.51170921       0.00981895      -4.73300978       0.00000000       0.00000000      -0.06256479      -0.05722194       0.01496069       0.04555203
H       -5.54924634      -1.29196223      -5.33633313       0.00000000       0.00000000       0.00047155       0.03349205       0.01467379       0.04245106
H       -6.29606661      -1.71856592      -2.96633763       0.00000000       0.00000000       0.05073800       0.02308644      -0.04619674       0.05889752
H       -5.11316751      -0.53233705      -2.40839480       0.00000000       0.00000000       0.01268651      -0.03064033      -0.01791382       0.03846313
H       -4.36575867      -2.99890046      -4.05410678       0.00000000       0.00000000       0.03729594       0.00791106       0.03649589       0.08128980
H       -4.44920001      -3.02048965      -2.29048881       0.00000000       0.00000000       0.00630241       0.04184008       0.00404602       0.05326791
H       -3.06921045      -1.51793746      -5.14386499       0.00000000       0.00000000       0.01083497       0.02612743      -0.02204183       0.09136071
H       -1.43211644      -1.54774438      -4.49491423       0.00000000       0.00000000       0.05327527      -0.02568147      -0.00356444       0.08791090
H       -2.43868031      -0.12871291      -4.20783044       0.00000000       0.00000000      -0.04646764       0.03642848      -0.00253934       0.07111073
H       -2.73464983      -3.62647162      -1.10585057       0.00000000       0.00000000       0.00455377       0.02328047       0.03718007       0.07706135
H       -0.71315458      -1.86272837       0.37482249       0.00000000       0.00000000      -0.05671942       0.02324822       0.03553459       0.13520976
H       -0.21266023      -2.99027607      -0.91743396       0.00000000       0.00000000      -0.03453781       0.02016377      -0.00212615       0.08494670
H       -0.61388154      -4.88127727       0.43403640       0.00000000       0.00000000       0.04839198      -0.01439373      -0.00180339       0.05551676
H       -1.75051765      -4.02741324       1.46836585       0.00000000       0.00000000      -0.02598220      -0.00232171      -0.00177564       0.05035485
H       -0.10221257      -2.99038993       2.71761322       0.00000000       0.00000000       0.04602777       0.00677388       0.03099976       0.03943386
H        1.00525948      -2.86905283       1.36429700       0.00000000       0.00000000       0.01251315       0.00679232      -0.02447737       0.05712703
H        1.55401722      -5.31167910       1.59292377       0.00000000       0.00000000      -0.00207791       0.02343205      -0.02192288       0.03552888
H        0.57674350      -5.36689881       3.04309764       0.00000000       0.00000000      -0.05946604       0.00368824       0.01716092       0.05012274
H        1.94412437      -3.69917359       4.13892796       0.00000000       0.00000000       0.00953869       0.02404206       0.02342470       0.02557515
H        2.91398672      -3.45997557       2.68513317       0.00000000       0.00000000       0.01574994      -0.02790701       0.00218521       0.01603239
H        2.72195389      -6.10458876       4.22161983       0.00000000       0.00000000      -0.01463469       0.03049798      -0.00835799       0.04887897
H        4.01927711      -4.92716464       4.40050183       0.00000000       0.00000000       0.02812843      -0.03431114      -0.00439292       0.04586487
H        3.79887204      -5.76703632       2.86867696       0.00000000       0.00000000      -0.03597065      -0.01149005      -0.02268232       0.03891647
H       -5.68049784      -0.54196412       0.22622588       0.00000000       0.00000000       0.02834297       0.03144046      -0.01476064       0.07568151
H       -5.05162872      -0.84852569       1.85711964       0.00000000       0.00000000       0.02285026       0.01415479       0.01974393       0.08133130
H       -6.37387681      -1.83325605       1.19707068       0.00000000       0.00000000       0.03144823      -0.01721007       0.01923856       0.08928144
H       -4.31871475      -4.25390852      -0.23685386       0.00000000       0.00000000      -0.02070827      -0.00370135       0.02091957       0.05711470
H       -5.93579349      -3.54218836      -0.30248187       0.00000000       0.00000000      -0.00697472      -0.01499680      -0.02580332       0.06963661
H       -5.43687556      -3.41856899       2.39758008       0.00000000       0.00000000      -0.04336732      -0.01838214      -0.01593935       0.05320364
H       -4.51203781      -4.84941937       1.97344136       0.00000000       0.00000000      -0.01143489      -0.01011275       0.01277637       0.05229050
H       -6.58339505      -5.73356914       0.81005036       0.00000000       0.00000000      -0.04533046      -0.02021950      -0.01835977       0.04205694
H       -7.49487008      -4.38336300       1.49515457       0.00000000       0.00000000       0.09503840      -0.02885371      -0.00123695       0.03816484
H       -5.97812522      -6.49282348       3.10440383       0.00000000       0.00000000      -0.02745788       0.03689972       0.00552013       0.03918305
H       -7.69830933      -6.51532082       2.75050569       0.00000000       0.00000000       0.01861952      -0.01647762       0.01708181       0.05137741
H       -8.03858248      -4.42813615       4.00115285       0.00000000       0.00000000       0.02272145      -0.02403022       0.00355445       0.03336890
H       -6.31855948      -4.34793570       4.39225069       0.00000000       0.00000000      -0.01763812      -0.00095795       0.00149225       0.01805306
H       -7.92892351      -6.81718870       5.07682053       0.00000000       0.00000000       0.01460358      -0.00791483      -0.01563278       0.04320610
H       -8.00603065      -5.41823243       6.12772456       0.00000000       0.00000000      -0.01296050       0.03745161      -0.01060756       0.04539821
H       -5.28330450      -6.46820078       5.36706491       0.00000000       0.00000000      -0.00469430      -0.00462363      -0.01853005       0.02613922
H       -6.21539917      -7.33552719       6.57054597       0.00000000       0.00000000      -0.05504653       0.00179725      -0.01357619       0.04244614
H       -5.65362490      -4.34759439       6.81142417       0.00000000       0.00000000       0.00470284      -0.00010705      -0.02246395       0.01879363
H       -4.67716354      -5.61061090       7.57910075       0.00000000       0.00000000      -0.03037508      -0.00670391      -0.01228961       0.03296337
H       -6.36940759      -5.40687761       8.01519771       0.00000000       0.00000000      -0.01098729       0.00386593       0.00484373       0.04631170
O       -0.47710356       2.50421765       1.42249347       0.00000000       0.00000000       0.00811004      -0.07904817      -0.03861515      -0.50424996
H        0.29918614       2.79790927       1.92452383       0.00000000       0.00000000      -0.05226737      -0.00561312       0.01938762       0.33939870
H       -1.26783207       2.73625908       1.93207585       0.00000000       0.00000000       0.03690167       0.06489358       0.00720473       0.34255958
