272
Properties=species:S:1:pos:R:3:initial_charges:R:1:initial_magmoms:R:1:forces:R:3:charge:R:1 energy=-8899.803327934516 free_energy=-8899.803327934516 dipole="-0.1825513315268424 0.07586638602337159 -0.32474481159628504" pbc="F F F"
La      -0.08998843      -0.18834453      -0.01356441       3.00000000       0.00000000       0.07271146       0.03193778      -0.02280575       0.82370236
C        5.87185826      -0.25886364       1.12075318       0.00000000       0.00000000       0.08225270      -0.03314195      -0.02757450      -0.11484513
C        5.67185726       1.12376431       0.50227250       0.00000000       0.00000000       0.03728777      -0.07044542       0.06510267      -0.05838299
C        5.64953985       2.20014570       1.58423704       0.00000000       0.00000000       0.03382206      -0.02887587       0.00819330      -0.07001974
C        4.50286808       1.96837934       2.56912922       0.00000000       0.00000000       0.01413170       0.06649215      -0.02459538      -0.06858189
C        4.20326215       3.15759143       3.48374450       0.00000000       0.00000000      -0.03138759       0.03493163      -0.01041223      -0.06838010
C        3.10154759       4.07802188       2.95866844       0.00000000       0.00000000      -0.00177880       0.04037703      -0.02888224      -0.06189370
C        3.51957933       4.85837000       1.71033345       0.00000000       0.00000000      -0.01595277      -0.03345372      -0.06262089      -0.07447119
C        3.13274229       4.16914018       0.39875693       0.00000000       0.00000000      -0.14110234       0.03514890      -0.07623923      -0.01911298
N        1.73065911       4.36610432       0.02626166       0.00000000       0.00000000      -0.03809054       0.04835513      -0.04419508      -0.05252553
C        1.30966008       5.75119452      -0.12382653       0.00000000       0.00000000       0.02836066      -0.01032305      -0.00794451      -0.07342378
C        0.92167102       3.33356630      -0.21761954       0.00000000       0.00000000       0.03885528      -0.01376136       0.04501202       0.26253105
O        1.24890906       2.14343677      -0.04410268       0.00000000       0.00000000       0.09666403       0.03545092       0.11865010      -0.39289484
C       -0.48416762       3.64390112      -0.72627822       0.00000000       0.00000000       0.02986430      -0.09172998       0.00749271      -0.13338588
C       -0.69333849       2.86446341      -2.02129909       0.00000000       0.00000000      -0.01774365      -0.10799263      -0.03300108       0.26630760
O       -0.74653426       1.62638292      -1.95694282       0.00000000       0.00000000      -0.05151567       0.03229775      -0.12854235      -0.38418200
N       -0.85216377       3.55293428      -3.15338768       0.00000000       0.00000000       0.00515983       0.01984958       0.05446109      -0.05465536
C       -0.69376943       4.99456629      -3.22468288       0.00000000       0.00000000      -0.02114260      -0.01532309      -0.02386334      -0.06882616
C       -1.13293913       2.86177545      -4.40758479       0.00000000       0.00000000       0.00529981       0.09684369       0.05946015      -0.00864910
C        0.12262033       2.60474742      -5.24285996       0.00000000       0.00000000      -0.00611350      -0.01944079       0.04016530      -0.06874288
C        0.84219186       3.83171735      -5.79862349       0.00000000       0.00000000       0.01341243       0.00227858       0.00778932      -0.07113208
C        2.14341167       3.43621920      -6.50302974       0.00000000       0.00000000       0.01478902       0.01609176       0.01268678      -0.06069254
C        3.09656542       4.61416197      -6.72057553       0.00000000       0.00000000      -0.02267486      -0.01383886      -0.01226462      -0.06585076
C        3.57895508       5.32920875      -5.45493934       0.00000000       0.00000000      -0.01195146      -0.01483368      -0.03256288      -0.06361411
C        4.28397036       4.42855328      -4.43222323       0.00000000       0.00000000      -0.02189578       0.00911665       0.00036789      -0.05831757
C        3.36908634       3.95941146      -3.30255130       0.00000000       0.00000000       0.02360951       0.02074413       0.01159797      -0.09653351
H        6.27447562      -0.96205320       0.39750641       0.00000000       0.00000000      -0.02464544      -0.06163843      -0.07380847       0.02890057
H        4.94810493      -0.65828894       1.53256769       0.00000000       0.00000000       0.04036204       0.02671201      -0.06911015       0.02601319
H        6.59741296      -0.18944931       1.92492741       0.00000000       0.00000000       0.06542814      -0.00564901       0.03834000       0.05670726
H        4.73315089       1.16869643      -0.06292373       0.00000000       0.00000000       0.13514542      -0.02071316      -0.00870584       0.01295656
H        6.49333093       1.32015792      -0.18799935       0.00000000       0.00000000      -0.00536734       0.07458444       0.01329095       0.04113038
H        5.59443801       3.17898187       1.11208839       0.00000000       0.00000000      -0.03875831      -0.01574291       0.02483887       0.03864635
H        6.58281865       2.15307047       2.14392527       0.00000000       0.00000000       0.09632555       0.10140649      -0.03506261       0.04961714
H        4.78678089       1.12200954       3.19141465       0.00000000       0.00000000       0.03988546       0.08184493      -0.03081927       0.04148809
H        3.59017779       1.70083292       2.02692361       0.00000000       0.00000000       0.00083459      -0.06889848       0.03514316       0.02652685
H        5.11577170       3.73639844       3.62950744       0.00000000       0.00000000      -0.02866076       0.00315434       0.07330499       0.05408797
H        3.89076111       2.78342518       4.45966550       0.00000000       0.00000000      -0.00142223       0.01371276       0.03558957       0.03503716
H        2.84729369       4.79184384       3.74204617       0.00000000       0.00000000       0.00368966      -0.01974474       0.06575245       0.04609031
H        2.20398195       3.49004191       2.73951832       0.00000000       0.00000000       0.02654388       0.00419119       0.02444026       0.02197787
H        4.60051488       4.98982586       1.71648685       0.00000000       0.00000000       0.01767614       0.00123095       0.02142480       0.06781678
H        3.09915043       5.86329981       1.74657841       0.00000000       0.00000000      -0.03982471      -0.04855869       0.01397350       0.05233109
H        3.28724492       3.09296077       0.45920249       0.00000000       0.00000000       0.01445293       0.07106069       0.00656849       0.08925180
H        3.74710861       4.57118666      -0.41270297       0.00000000       0.00000000      -0.02123140       0.00568041      -0.00665449       0.06511372
H        2.15283993       6.40323388       0.08921293       0.00000000       0.00000000       0.00356143      -0.04441106      -0.03874747       0.09786352
H        0.51386395       5.99884574       0.58401156       0.00000000       0.00000000       0.04690258       0.01261017      -0.09786773       0.06957756
H        0.98830574       5.97310285      -1.14273152       0.00000000       0.00000000      -0.00147140      -0.00716752       0.08650366       0.06853634
H       -0.69877577       4.69965456      -0.80522142       0.00000000       0.00000000      -0.00945653      -0.03989027      -0.00139106       0.08264744
H       -1.17941870       3.17378709      -0.02889790       0.00000000       0.00000000      -0.03173655       0.02634056       0.02955970       0.10700274
H        0.34126578       5.27392552      -3.00962997       0.00000000       0.00000000      -0.10980176       0.05826428      -0.04482985       0.06275461
H       -1.37132991       5.51255171      -2.54310993       0.00000000       0.00000000       0.06765072      -0.03235854      -0.02582633       0.07606540
H       -0.94080723       5.32410205      -4.23081947       0.00000000       0.00000000       0.06374244      -0.00504648       0.01131861       0.09602391
H       -1.85073135       3.46153440      -4.96978934       0.00000000       0.00000000      -0.04522395      -0.02582194      -0.00569634       0.06782236
H       -1.58832923       1.90086604      -4.15091988       0.00000000       0.00000000       0.01582295       0.06289100      -0.02593095       0.06356677
H       -0.16715903       1.96007159      -6.07238046       0.00000000       0.00000000       0.01813895      -0.01359311      -0.03518047       0.05047442
H        0.81244852       2.05187878      -4.60763166       0.00000000       0.00000000       0.03999289      -0.04494853       0.01531388       0.04344958
H        1.10124990       4.49903087      -4.98357227       0.00000000       0.00000000      -0.00815661       0.04994329       0.01262563       0.04623059
H        0.19881667       4.37436696      -6.49062508       0.00000000       0.00000000      -0.02599720      -0.00813372      -0.03395484       0.04237948
H        1.92036894       2.99298848      -7.47500517       0.00000000       0.00000000      -0.03121768      -0.00864987       0.01855024       0.03838409
H        2.65686259       2.67648484      -5.91031360       0.00000000       0.00000000      -0.00027301      -0.01026307      -0.00023938       0.02667312
H        2.61588888       5.35237768      -7.36386750       0.00000000       0.00000000      -0.02494661      -0.00389207      -0.01010350       0.04518630
H        3.97401653       4.24167042      -7.25270390       0.00000000       0.00000000      -0.02407370      -0.00378218      -0.01935987       0.04486396
H        2.75039336       5.85067306      -4.97104641       0.00000000       0.00000000       0.00904830       0.01369011      -0.01794699       0.02857536
H        4.27945364       6.09671798      -5.78337351       0.00000000       0.00000000       0.01018316       0.02469161      -0.00253184       0.04781328
H        5.10172860       4.99305660      -3.98259163       0.00000000       0.00000000       0.02904305      -0.03097080       0.02419365       0.03963632
H        4.72356025       3.56932228      -4.94093213       0.00000000       0.00000000      -0.00470617       0.00262241       0.00990002       0.03817910
H        2.94105130       4.82802112      -2.80453567       0.00000000       0.00000000      -0.01377727      -0.00112962       0.03697825       0.01887220
H        3.93421608       3.38995587      -2.56677458       0.00000000       0.00000000       0.02137645      -0.03190882      -0.00094569       0.01927858
H        2.55380209       3.33559565      -3.66053591       0.00000000       0.00000000       0.04630113       0.02674514      -0.00230078       0.02825927
C       -4.95189426      -5.10016311      -1.66400207       0.00000000       0.00000000      -0.05872260      -0.01423353      -0.01207317      -0.10622998
C       -4.10848648      -4.76332687      -0.44039928       0.00000000       0.00000000      -0.03666594      -0.00504711      -0.05595193      -0.05673122
C       -4.94509279      -4.33690705       0.75948314       0.00000000       0.00000000      -0.02387188       0.01673475      -0.01729651      -0.06712226
C       -5.41773424      -2.89640120       0.62440921       0.00000000       0.00000000      -0.04356816       0.06712027       0.04637834      -0.06202157
C       -6.29338285      -2.41878978       1.78647305       0.00000000       0.00000000      -0.00701366       0.05554473       0.04596639      -0.06743795
C       -5.51876288      -1.77269612       2.93775148       0.00000000       0.00000000       0.00109864      -0.02092968       0.02771321      -0.06658564
C       -4.67013560      -2.77857865       3.72138583       0.00000000       0.00000000       0.04160905       0.00954563      -0.03832428      -0.07534005
C       -3.19765418      -2.77445381       3.30210935       0.00000000       0.00000000       0.08216038       0.04947705       0.08939497      -0.01799927
N       -2.35815583      -1.75489787       3.94384093       0.00000000       0.00000000       0.04864270       0.00762437       0.02283766      -0.05160225
C       -2.49353483      -1.57278415       5.37762465       0.00000000       0.00000000      -0.02104464      -0.00725545      -0.00365436      -0.07330172
C       -1.42665462      -1.12486571       3.22293318       0.00000000       0.00000000      -0.02610851      -0.00185364       0.07508555       0.26434784
O       -1.32735994      -1.25143988       1.99041822       0.00000000       0.00000000      -0.09905121       0.04112268      -0.09466216      -0.37393880
C       -0.46547529      -0.18743029       3.96104433       0.00000000       0.00000000      -0.00295702       0.01616245      -0.07588353      -0.13452942
C        0.95863806      -0.43780897       3.48461048       0.00000000       0.00000000       0.00073474       0.03767280       0.00320051       0.26714695
O        1.22477482      -0.30689010       2.27573501       0.00000000       0.00000000       0.12205349       0.03541228      -0.10714392      -0.38214872
N        1.88384062      -0.74313461       4.39953015       0.00000000       0.00000000      -0.03849963      -0.02862156      -0.00540193      -0.05278300
C        1.63148890      -0.70563632       5.83060461       0.00000000       0.00000000       0.06184462      -0.03624428      -0.04061320      -0.07314083
C        3.27790674      -0.84682700       3.98431975       0.00000000       0.00000000      -0.08296582       0.02260419       0.05588457      -0.02002069
C        3.87088790      -2.25145234       3.81821743       0.00000000       0.00000000      -0.04502577       0.04462983       0.02253381      -0.06891364
C        4.38067808      -2.97456847       5.07158191       0.00000000       0.00000000       0.03279573       0.00477356      -0.00942405      -0.06518773
C        5.50591751      -3.93145689       4.64790071       0.00000000       0.00000000       0.01085756      -0.00521562       0.00453396      -0.05910617
C        5.95133878      -4.96517592       5.68376306       0.00000000       0.00000000      -0.01971921       0.02545435      -0.00046563      -0.06303259
C        4.91065255      -6.00864403       6.09401614       0.00000000       0.00000000       0.01860975       0.01341179      -0.00680414      -0.06376080
C        4.33583901      -6.82776201       4.93492566       0.00000000       0.00000000       0.01627620       0.00892009       0.00998883      -0.05802673
C        3.05936028      -6.22067465       4.37245203       0.00000000       0.00000000       0.01713858      -0.03775595       0.03379972      -0.10116799
H       -5.68713707      -5.85908141      -1.41165064       0.00000000       0.00000000      -0.04694454      -0.01354681       0.01290358       0.05166639
H       -4.33076491      -5.49519514      -2.46346975       0.00000000       0.00000000      -0.02878626       0.03388969       0.00941975       0.03996386
H       -5.49563972      -4.23489869      -2.03778144       0.00000000       0.00000000       0.00294818       0.01534083       0.03644180       0.01948695
H       -3.38468952      -3.97839552      -0.68259158       0.00000000       0.00000000      -0.01171585       0.02967639       0.03464315       0.01152510
H       -3.55101176      -5.65082950      -0.14840773       0.00000000       0.00000000      -0.04423121      -0.00522770       0.03913947       0.05179855
H       -4.34418130      -4.46367919       1.65617585       0.00000000       0.00000000      -0.00679907       0.00278962       0.02606807       0.03364370
H       -5.81385202      -4.98908933       0.84360983       0.00000000       0.00000000      -0.02644475      -0.05612233       0.01032421       0.04627498
H       -5.99199737      -2.82663397      -0.29929668       0.00000000       0.00000000      -0.05063558      -0.02991620       0.02067208       0.03174810
H       -4.54817761      -2.24111953       0.52202522       0.00000000       0.00000000       0.00265431       0.01117864      -0.01286579       0.01465316
H       -6.86276919      -3.26469889       2.17592544       0.00000000       0.00000000      -0.02538513       0.06190321      -0.02323801       0.05362273
H       -7.01939683      -1.69277447       1.41504323       0.00000000       0.00000000      -0.01608800       0.02505559       0.00121485       0.02981827
H       -6.23561512      -1.30692664       3.61409302       0.00000000       0.00000000      -0.05369908      -0.00597530      -0.01378066       0.04569119
H       -4.86874359      -0.98246560       2.55458631       0.00000000       0.00000000      -0.04484313      -0.01763798       0.02663579       0.02744247
H       -5.06168265      -3.78135480       3.55337049       0.00000000       0.00000000      -0.00337793       0.00137741      -0.01422535       0.06825809
H       -4.78338601      -2.60446782       4.79073805       0.00000000       0.00000000       0.04109342       0.06800743      -0.05998422       0.05366295
H       -3.10409707      -2.60582374       2.22691450       0.00000000       0.00000000      -0.00649260      -0.02689314       0.06993323       0.08837989
H       -2.75918119      -3.75008076       3.53187346       0.00000000       0.00000000       0.02616264       0.01928149       0.07751204       0.06851549
H       -3.20801911      -2.29180709       5.76621768       0.00000000       0.00000000       0.04329642      -0.01431567      -0.01765819       0.09719566
H       -2.87091875      -0.57104736       5.59498204       0.00000000       0.00000000       0.05154470      -0.04332525       0.08256271       0.06967190
H       -1.55736549      -1.74830537       5.90853668       0.00000000       0.00000000      -0.06871387       0.02310017      -0.05113000       0.07057796
H       -0.55927548      -0.21713059       5.03508134       0.00000000       0.00000000      -0.04438469      -0.04115826       0.01181748       0.08561613
H       -0.69915478       0.82132166       3.61810174       0.00000000       0.00000000      -0.06595924       0.03649762      -0.00924994       0.11082514
H        0.84615534      -1.40675622       6.11331813       0.00000000       0.00000000       0.09754918       0.09155242       0.03326611       0.07303423
H        1.37541583       0.30751768       6.16018969       0.00000000       0.00000000      -0.00490721      -0.12627756      -0.02331087       0.06806586
H        2.54067818      -1.00284180       6.34500454       0.00000000       0.00000000      -0.00180994      -0.05182698       0.00315381       0.09758901
H        3.88036410      -0.28815956       4.70320769       0.00000000       0.00000000       0.01313936       0.02810025      -0.01222406       0.06742349
H        3.31802815      -0.35103224       3.01349227       0.00000000       0.00000000      -0.00385367      -0.04855344       0.00568063       0.07616323
H        4.73907379      -2.11517386       3.16887635       0.00000000       0.00000000      -0.02530908      -0.01770682      -0.03828386       0.04866708
H        3.15702129      -2.88026096       3.28586819       0.00000000       0.00000000      -0.03114494       0.01393231       0.02642606       0.03689347
H        3.57459126      -3.51378812       5.56812955       0.00000000       0.00000000       0.02000583      -0.01183961      -0.03336684       0.04569086
H        4.79137554      -2.26025660       5.78653289       0.00000000       0.00000000      -0.01639624       0.03569764      -0.00055302       0.03748119
H        6.38014013      -3.32392909       4.40053843       0.00000000       0.00000000       0.00632688       0.01080711      -0.03777839       0.03122468
H        5.21494616      -4.45243944       3.73353101       0.00000000       0.00000000      -0.02779263      -0.02564696       0.02766273       0.02808344
H        6.30007479      -4.45019495       6.58054707       0.00000000       0.00000000      -0.02375667       0.01942686       0.00642208       0.04033687
H        6.80820751      -5.49275085       5.25769722       0.00000000       0.00000000       0.00437890       0.01804627       0.03799642       0.04318217
H        4.09091199      -5.53433740       6.63760369       0.00000000       0.00000000       0.02953798       0.00270843       0.02130009       0.03323199
H        5.40274593      -6.69103144       6.78639225       0.00000000       0.00000000       0.02104785       0.01856853       0.05444927       0.04575794
H        4.08334707      -7.82669304       5.29262146       0.00000000       0.00000000       0.04662065      -0.01145451       0.04551547       0.04179594
H        5.08453127      -6.94883908       4.15088218       0.00000000       0.00000000       0.02580488       0.03330428      -0.01230728       0.03364006
H        2.35324370      -6.08812457       5.18723855       0.00000000       0.00000000      -0.05810874      -0.03796974       0.01214549       0.03893788
H        2.62204437      -6.89333564       3.63943094       0.00000000       0.00000000       0.04216997      -0.06702687       0.03675820       0.02899795
H        3.21903945      -5.25560875       3.89878944       0.00000000       0.00000000       0.05613774      -0.04732171       0.02106668       0.02247482
C       -2.97040621       0.51246695      -7.62247557       0.00000000       0.00000000       0.00410210       0.01673556      -0.00875289      -0.10888726
C       -3.13569640      -0.82820156      -6.91657333       0.00000000       0.00000000      -0.03123313       0.06589529      -0.01895163      -0.05453710
C       -1.91715902      -1.73800068      -7.08696374       0.00000000       0.00000000       0.00240441       0.00536531       0.00539904      -0.06891373
C       -0.76353804      -1.33267808      -6.17482981       0.00000000       0.00000000       0.08001876      -0.03801243       0.00873109      -0.06117899
C        0.52913966      -2.08451356      -6.49701919       0.00000000       0.00000000       0.08254836      -0.02781598       0.00991806      -0.06722898
C        1.64281574      -1.86550660      -5.46047247       0.00000000       0.00000000      -0.00593816       0.03501000       0.00572334      -0.06144429
C        1.68701584      -0.40007907      -5.03782920       0.00000000       0.00000000       0.08397549      -0.01675571       0.09062976      -0.07401371
C        2.96030823       0.05835424      -4.33655260       0.00000000       0.00000000       0.10868882      -0.03548861       0.12070007      -0.00974654
N        3.37851426      -0.69586360      -3.15175864       0.00000000       0.00000000       0.02910177      -0.01369857       0.04789484      -0.05133244
C        4.73385376      -1.22587871      -3.16187668       0.00000000       0.00000000      -0.01089576       0.00472749      -0.03365992      -0.07268710
C        2.61996231      -0.69121572      -2.05201768       0.00000000       0.00000000       0.11220572       0.09754846      -0.06621808       0.26782465
O        1.43786895      -0.31292219      -2.03295146       0.00000000       0.00000000      -0.03750873       0.10297856      -0.11652486      -0.35934852
C        3.25511071      -1.07769607      -0.72472837       0.00000000       0.00000000      -0.02150392      -0.02185338      -0.03120857      -0.13172423
C        2.53801511      -2.26273702      -0.11074350       0.00000000       0.00000000      -0.01683591      -0.02002045       0.09221012       0.26562895
O        1.33313194      -2.14129111       0.17859214       0.00000000       0.00000000       0.01601846       0.01895816       0.02326593      -0.35637838
N        3.21094562      -3.36631601       0.19601665       0.00000000       0.00000000      -0.03773613       0.03462380      -0.08132762      -0.04897615
C        4.54700950      -3.73366482      -0.21880678       0.00000000       0.00000000       0.01653726       0.00288272       0.07267797      -0.07314372
C        2.52885862      -4.36388311       1.01034926       0.00000000       0.00000000       0.09825200       0.04729353      -0.07723621      -0.01205221
C        1.72834234      -5.35276819       0.16796554       0.00000000       0.00000000       0.04263672       0.04518067       0.06719697      -0.06660809
C        1.24843960      -6.54661033       1.00293445       0.00000000       0.00000000      -0.01329337       0.02348308      -0.01490425      -0.06917416
C       -0.20769376      -6.44081928       1.44980872       0.00000000       0.00000000       0.03283434      -0.00603021      -0.00470654      -0.07341276
C       -0.52052114      -5.42147527       2.54775505       0.00000000       0.00000000       0.00101551      -0.01936741      -0.05020600      -0.06036650
C       -0.45325972      -6.07084076       3.92604574       0.00000000       0.00000000      -0.00313491      -0.00006578      -0.01132434      -0.07176364
C       -0.67922331      -5.12093498       5.09939675       0.00000000       0.00000000      -0.01367152       0.01971983       0.02040008      -0.05680176
C        0.19375618      -3.87226083       5.05269609       0.00000000       0.00000000       0.01544424      -0.01392076       0.00604760      -0.10179318
H       -3.86140080       1.12336698      -7.49771588       0.00000000       0.00000000       0.00098738      -0.02335336      -0.01684578       0.03988716
H       -2.80804030       0.35692601      -8.68499921       0.00000000       0.00000000      -0.01737267       0.02273652      -0.00574590       0.05320992
H       -2.12302690       1.06640043      -7.22398211       0.00000000       0.00000000      -0.00599823       0.00153596      -0.01170902       0.02697833
H       -4.01352653      -1.33056196      -7.32233110       0.00000000       0.00000000      -0.03158116      -0.00369561      -0.02850145       0.04319826
H       -3.31990993      -0.64312928      -5.85254239       0.00000000       0.00000000      -0.00641982       0.00936615      -0.00003918       0.00694516
H       -2.19342790      -2.77235461      -6.88338583       0.00000000       0.00000000      -0.02160306      -0.07351917      -0.00776132       0.03157210
H       -1.59195721      -1.69018640      -8.12522845       0.00000000       0.00000000       0.03015323      -0.00232154      -0.03260075       0.05376839
H       -1.03558243      -1.50103338      -5.12893665       0.00000000       0.00000000      -0.01605658      -0.01878685       0.01216933       0.01101576
H       -0.58728177      -0.26613752      -6.30117805       0.00000000       0.00000000      -0.02513337       0.00965275       0.01154207       0.03605879
H        0.88632039      -1.74842987      -7.47107967       0.00000000       0.00000000      -0.00624323       0.00045978      -0.01823434       0.04816434
H        0.32815971      -3.15366090      -6.58178047       0.00000000       0.00000000      -0.03036236      -0.01422993      -0.00360347       0.03946318
H        2.59656104      -2.16144808      -5.90466526       0.00000000       0.00000000      -0.05560247      -0.00513514       0.04050286       0.04373894
H        1.47291974      -2.48780879      -4.57635282       0.00000000       0.00000000       0.00235732       0.01860214      -0.05364434       0.02503159
H        0.84077134      -0.20276137      -4.38157649       0.00000000       0.00000000      -0.01967792       0.03027758      -0.00699242       0.06122162
H        1.61540086       0.22535366      -5.92937748       0.00000000       0.00000000      -0.05720425      -0.04647413       0.01441828       0.06425389
H        2.81768146       1.09471243      -4.01308919       0.00000000       0.00000000      -0.00581148       0.02406030      -0.02019064       0.05923630
H        3.78918818       0.03554910      -5.04302523       0.00000000       0.00000000      -0.01807269      -0.01393193      -0.00701174       0.07237314
H        5.14120249      -1.15910290      -4.16865173       0.00000000       0.00000000      -0.07270088      -0.03269886       0.01489844       0.09574989
H        4.73718135      -2.28297386      -2.88493385       0.00000000       0.00000000       0.01315655       0.12698731      -0.00317211       0.07145873
H        5.40354957      -0.65170016      -2.51144324       0.00000000       0.00000000      -0.08738508      -0.09278876      -0.04751786       0.07208006
H        2.99150617      -0.23852962      -0.06244782       0.00000000       0.00000000       0.07794197      -0.02196764       0.02512632       0.13151420
H        4.32784006      -1.19118639      -0.76461643       0.00000000       0.00000000       0.02924719      -0.00240197       0.01735255       0.09621464
H        4.92326033      -3.09004677      -1.00925473       0.00000000       0.00000000      -0.01922910      -0.13923576       0.07289772       0.06889720
H        4.53560891      -4.76645999      -0.57891445       0.00000000       0.00000000      -0.00922019       0.12973648      -0.01222581       0.09224921
H        5.22822571      -3.68797728       0.63485700       0.00000000       0.00000000       0.00902352       0.03320897      -0.01743314       0.08299088
H        1.86694464      -3.81466614       1.68683679       0.00000000       0.00000000       0.02965896      -0.15356960      -0.03178167       0.07443597
H        3.30011372      -4.89337125       1.57117020       0.00000000       0.00000000      -0.04400765      -0.00320586       0.06776920       0.07230037
H        2.36060454      -5.71097187      -0.64897367       0.00000000       0.00000000      -0.01002097       0.02493062       0.04022877       0.03849748
H        0.87808353      -4.82382895      -0.26594198       0.00000000       0.00000000       0.05581767       0.02371037       0.04903972       0.05480458
H        1.89843945      -6.66670909       1.86785296       0.00000000       0.00000000      -0.03020681      -0.03561065      -0.04544169       0.04814398
H        1.34351132      -7.45128981       0.40195621       0.00000000       0.00000000      -0.01217430      -0.02236366      -0.00200368       0.04856911
H       -0.51504124      -7.42412548       1.80777292       0.00000000       0.00000000      -0.01212744      -0.00066496      -0.03321916       0.05189218
H       -0.79912570      -6.19211754       0.57239850       0.00000000       0.00000000       0.00972918      -0.02535594       0.04247087       0.04490538
H       -1.52546192      -5.03392135       2.37389250       0.00000000       0.00000000      -0.04946692      -0.01551151       0.03438888       0.02322348
H        0.16149766      -4.57703442       2.47812008       0.00000000       0.00000000       0.01097500      -0.00574688       0.01991352       0.02994189
H        0.51573539      -6.54887843       4.03994224       0.00000000       0.00000000       0.00362347      -0.00443641      -0.00567053       0.04913390
H       -1.20696232      -6.85769438       3.97309506       0.00000000       0.00000000      -0.02838041      -0.03728784       0.02342648       0.04048020
H       -0.46895078      -5.66602019       6.01929188       0.00000000       0.00000000       0.00905973      -0.02072070       0.04762313       0.04440745
H       -1.72854669      -4.82409825       5.14118750       0.00000000       0.00000000      -0.04437355       0.01685985      -0.00206787       0.02391529
H        1.23555486      -4.13503583       4.90238549       0.00000000       0.00000000       0.02237007      -0.04314880       0.00832386       0.04474248
H        0.11719245      -3.34059165       5.99845375       0.00000000       0.00000000      -0.03085112      -0.03777434       0.01955026       0.02344104
H       -0.11033473      -3.21398524       4.24138891       0.00000000       0.00000000       0.02352512       0.03334585       0.01559486       0.01426996
C       -4.12993864      -8.34077055       1.58456410       0.00000000       0.00000000       0.01161946       0.01148021      -0.03385397      -0.10582101
C       -3.00772533      -8.40110277       0.55163557       0.00000000       0.00000000       0.00382439      -0.00988901      -0.03286615      -0.06049839
C       -3.54464952      -8.34842001      -0.87586887       0.00000000       0.00000000      -0.00508470       0.01419952      -0.06133183      -0.06939527
C       -2.51694680      -8.45832874      -2.01332069       0.00000000       0.00000000       0.03695817      -0.00464523      -0.02075949      -0.06458127
C       -1.19380487      -7.69638829      -1.89523798       0.00000000       0.00000000       0.01483579      -0.04333977       0.01538350      -0.06610789
C       -1.22466823      -6.16693088      -1.91305359       0.00000000       0.00000000       0.01839416      -0.03296424      -0.05222830      -0.07139949
C       -1.41028398      -5.54612286      -3.29279064       0.00000000       0.00000000       0.03294819       0.07418000      -0.00994140      -0.06962488
C       -1.07155956      -4.04844213      -3.28369404       0.00000000       0.00000000      -0.05480476       0.07552780      -0.02132418      -0.01511012
N       -2.18389895      -3.11619716      -3.07188049       0.00000000       0.00000000       0.05091272       0.04851129      -0.11104942      -0.04733568
C       -3.27441148      -3.18804340      -4.02831663       0.00000000       0.00000000       0.03192398      -0.01895574       0.03787686      -0.07906068
C       -2.01804570      -2.08070579      -2.24983163       0.00000000       0.00000000       0.12116168       0.05923340       0.02816803       0.26881428
O       -1.09342708      -2.01618692      -1.42081877       0.00000000       0.00000000       0.00047980       0.02855376      -0.04251900      -0.37035786
C       -2.94481422      -0.87261641      -2.42379406       0.00000000       0.00000000       0.03612842       0.02732469       0.00907823      -0.12261657
C       -3.31038134      -0.22099271      -1.10801014       0.00000000       0.00000000       0.14904057       0.12941286       0.00910172       0.27003773
O       -2.41048497       0.15952518      -0.32755734       0.00000000       0.00000000      -0.04382148       0.03032981       0.03213291      -0.37600702
N       -4.58473502       0.02338318      -0.81378477       0.00000000       0.00000000      -0.04863894       0.08313676       0.03410174      -0.04270916
C       -4.83926612       0.80090638       0.38748115       0.00000000       0.00000000      -0.06146197      -0.02756727      -0.00643069      -0.06126113
C       -5.73183124      -0.38277126      -1.61143443       0.00000000       0.00000000       0.06881051       0.01889119       0.07050513      -0.02228932
C       -6.19749449       0.68467423      -2.60796956       0.00000000       0.00000000       0.00308937      -0.10308844       0.01416037      -0.07431609
C       -7.13700871       1.70948458      -1.97084724       0.00000000       0.00000000       0.03447836      -0.06133515      -0.03613482      -0.06734108
C       -7.50508314       2.84211083      -2.93431827       0.00000000       0.00000000      -0.01231552      -0.04255044       0.02848939      -0.06758349
C       -6.61177409       4.07120610      -2.77261479       0.00000000       0.00000000      -0.06547362      -0.01704257       0.00540807      -0.06487314
C       -5.15103858       3.82442721      -3.14009033       0.00000000       0.00000000      -0.03538463       0.02089317       0.01487527      -0.05825299
C       -4.30500310       5.09218621      -3.05640601       0.00000000       0.00000000       0.02380312       0.03178657       0.03783632      -0.06187814
C       -3.98302606       5.46875616      -1.61459591       0.00000000       0.00000000       0.00462187       0.00670407       0.02983008      -0.10376236
H       -3.71751237      -8.31192552       2.59110081       0.00000000       0.00000000       0.00354232      -0.06742325      -0.01135906       0.03133046
H       -4.78577558      -9.20285828       1.50510689       0.00000000       0.00000000       0.01551055      -0.00481116      -0.01196629       0.04474220
H       -4.72665985      -7.44149970       1.44469444       0.00000000       0.00000000      -0.04265984      -0.00633690      -0.03024205       0.02647842
H       -2.42056357      -9.30597666       0.70427444       0.00000000       0.00000000       0.00325871      -0.06131645      -0.03283521       0.03439905
H       -2.35944930      -7.54532717       0.71712158       0.00000000       0.00000000       0.02218374      -0.01343978      -0.01680985       0.02925083
H       -4.25417356      -9.16499379      -1.01261987       0.00000000       0.00000000      -0.03702599      -0.02889452       0.00149032       0.04152602
H       -4.10414611      -7.42486446      -0.98934954       0.00000000       0.00000000      -0.06161216       0.00553844      -0.02863573       0.03536879
H       -3.01646533      -8.15477776      -2.93643738       0.00000000       0.00000000       0.00148739      -0.09365396      -0.01740441       0.03082503
H       -2.23738495      -9.50759623      -2.11704608       0.00000000       0.00000000      -0.05738324      -0.03537648      -0.03602825       0.04331005
H       -0.56047323      -8.02169803      -2.72496827       0.00000000       0.00000000      -0.00357870      -0.01895488       0.00463236       0.03504513
H       -0.69285440      -8.00970104      -0.98050198       0.00000000       0.00000000      -0.03163520      -0.05881642       0.06422224       0.04216727
H       -0.24920808      -5.83574887      -1.55824710       0.00000000       0.00000000      -0.00227302      -0.00922721       0.01023740       0.03251422
H       -1.98224959      -5.77718094      -1.24054815       0.00000000       0.00000000       0.03142243      -0.08088110      -0.04082355       0.04799732
H       -2.41679985      -5.73460019      -3.66501783       0.00000000       0.00000000       0.04832807       0.01573335       0.02752886       0.05344254
H       -0.71708490      -6.02697281      -3.98452522       0.00000000       0.00000000      -0.00785294      -0.03558770      -0.02743388       0.05493473
H       -0.62267934      -3.77353722      -4.24434588       0.00000000       0.00000000      -0.05129689      -0.03022815      -0.04090242       0.06355859
H       -0.34206171      -3.83799437      -2.49659742       0.00000000       0.00000000      -0.03463626      -0.02550459      -0.04984857       0.07566523
H       -3.18898286      -4.12156023      -4.57620680       0.00000000       0.00000000      -0.03329744       0.01726335      -0.00565407       0.09544557
H       -3.24487717      -2.37560151      -4.75566942       0.00000000       0.00000000       0.02284718      -0.05964989       0.06515416       0.07799490
H       -4.22989782      -3.18575051      -3.50597801       0.00000000       0.00000000      -0.00957655      -0.03017295      -0.08955103       0.07253272
H       -3.80238661      -1.05595557      -3.05498358       0.00000000       0.00000000      -0.02542404      -0.06880492       0.01399918       0.08896647
H       -2.30211215      -0.14062593      -2.92893760       0.00000000       0.00000000       0.05738454       0.06895010       0.01588443       0.12243941
H       -4.01269720       0.64066888       1.08213816       0.00000000       0.00000000      -0.06405783       0.02625801      -0.02747442       0.07484613
H       -5.76706059       0.48087454       0.85034570       0.00000000       0.00000000      -0.07750545      -0.04484013      -0.01768855       0.08752341
H       -4.91661307       1.86537857       0.15365372       0.00000000       0.00000000       0.07710267      -0.04245293      -0.01389617       0.07083229
H       -6.54591485      -0.60174065      -0.91878267       0.00000000       0.00000000      -0.02883856      -0.01080651      -0.02190130       0.08306294
H       -5.47989902      -1.30494642      -2.13490508       0.00000000       0.00000000      -0.09815832      -0.00947872       0.05280943       0.05872793
H       -6.74995314       0.17933530      -3.39940889       0.00000000       0.00000000      -0.02030611      -0.01656484      -0.07098400       0.06011161
H       -5.33173302       1.16156417      -3.06937047       0.00000000       0.00000000      -0.04402188      -0.00639221       0.06663612       0.04668944
H       -6.69510448       2.14149532      -1.07212009       0.00000000       0.00000000      -0.01729879      -0.01222922      -0.05179935       0.03846678
H       -8.03849269       1.17500688      -1.66563683       0.00000000       0.00000000      -0.02129710       0.05398333      -0.00324863       0.04426924
H       -8.53368531       3.14123910      -2.73818684       0.00000000       0.00000000      -0.01680982       0.06550136      -0.02367352       0.05336916
H       -7.46143068       2.47840773      -3.96247237       0.00000000       0.00000000      -0.00373775       0.02957720       0.01102521       0.04299633
H       -6.68569440       4.41416418      -1.73921380       0.00000000       0.00000000       0.02716718       0.03748515      -0.00073822       0.03644679
H       -6.99921282       4.86565671      -3.41011178       0.00000000       0.00000000      -0.00789872       0.02511151      -0.02152380       0.04861533
H       -5.11035296       3.43184685      -4.15768205       0.00000000       0.00000000      -0.00356118       0.00397662      -0.03651654       0.03099309
H       -4.71105308       3.08216874      -2.46962917       0.00000000       0.00000000       0.00978800      -0.02077577       0.00045261       0.01690700
H       -4.82608018       5.91403123      -3.54442121       0.00000000       0.00000000      -0.01926138       0.03552968       0.00529399       0.05098951
H       -3.37311610       4.92679084      -3.59635735       0.00000000       0.00000000       0.01760997      -0.00372711      -0.05627420       0.02142971
H       -4.88635463       5.72974775      -1.07224243       0.00000000       0.00000000      -0.01131967       0.00572397      -0.00355161       0.05066657
H       -3.31621489       6.32790761      -1.57398607       0.00000000       0.00000000      -0.03533007       0.01953406      -0.00922974       0.03005078
H       -3.50775401       4.62866327      -1.10494080       0.00000000       0.00000000       0.01822210       0.01955073       0.01594630       0.01023046
O       -1.05659896       1.90649000       1.78909079       0.00000000       0.00000000      -0.01613421      -0.05564527      -0.03761822      -0.50985817
H       -0.67726851       2.70903127       2.16955934       0.00000000       0.00000000       0.00108889      -0.04640390      -0.01195865       0.32384070
H       -2.01626655       1.99297131       1.82400695       0.00000000       0.00000000      -0.06125111       0.00821442       0.02728768       0.32855929
