344
Properties=species:S:1:pos:R:3:initial_charges:R:1:initial_magmoms:R:1:forces:R:3:charge:R:1 energy=-10963.98170987008 free_energy=-10963.98170987008 dipole="1.1559752414656133 -0.17289702848896135 0.13962000021823592" pbc="F F F"
La       0.24198513       0.11419936      -0.04489705       3.00000000       0.00000000       0.01315214      -0.01896441       0.06062817       0.82040680
C       -4.92092453       2.59028285      -3.66940759       0.00000000       0.00000000       0.00374542      -0.02556347      -0.01205751      -0.10640621
C       -4.78535415       2.04960900      -5.08863592       0.00000000       0.00000000       0.00181777      -0.00849401      -0.04712675      -0.05788774
C       -5.26762007       0.60616012      -5.24311830       0.00000000       0.00000000       0.01787846      -0.00897015      -0.02123169      -0.06491652
C       -4.32972056      -0.39863474      -4.57548944       0.00000000       0.00000000       0.00871599       0.02026509       0.00347037      -0.06507650
C       -4.84941126      -1.83772838      -4.65140652       0.00000000       0.00000000       0.00040502      -0.01378002      -0.01878530      -0.06992686
C       -5.83593444      -2.22439219      -3.54893880       0.00000000       0.00000000       0.05675329       0.01702673       0.03885761      -0.06845689
C       -5.19584390      -2.68217638      -2.22879599       0.00000000       0.00000000       0.02940649       0.01147052       0.01617372      -0.07427841
C       -4.53926691      -1.54170848      -1.44560299       0.00000000       0.00000000      -0.01105355      -0.00502897       0.00279468      -0.01521243
N       -4.28863490      -1.78951520      -0.01940335       0.00000000       0.00000000       0.01612338      -0.01680863       0.00349375      -0.06030950
C       -5.42003241      -2.39358500       0.65689256       0.00000000       0.00000000      -0.00107947       0.03040462       0.02583509      -0.07081706
C       -3.17451446      -1.31663926       0.56537349       0.00000000       0.00000000      -0.05845760       0.05386903       0.02360583       0.26924278
O       -2.16894904      -1.01016986      -0.10327177       0.00000000       0.00000000      -0.04333604      -0.02267709      -0.01626697      -0.38295367
C       -3.25749612      -1.10685356       2.08504710       0.00000000       0.00000000       0.02341600      -0.04355210       0.02879514      -0.06853846
C       -4.26184438       0.04708014       2.36315017       0.00000000       0.00000000       0.02319089      -0.09219042      -0.00386892      -0.06878085
C       -3.82596875       1.39004703       1.78192061       0.00000000       0.00000000       0.00707547      -0.02837715       0.01679601      -0.07083456
C       -4.27913503       1.66775383       0.35103548       0.00000000       0.00000000      -0.08544209       0.01888237      -0.05080049      -0.06785682
C       -5.79885144       1.80638300       0.17196100       0.00000000       0.00000000      -0.13124671       0.05860996      -0.03890336      -0.06304772
C       -6.20922048       3.22880810      -0.21904024       0.00000000       0.00000000       0.02619912       0.02755759      -0.02379512      -0.05411000
C       -7.68944358       3.33543754      -0.55687461       0.00000000       0.00000000       0.01195936      -0.02019737       0.01624517      -0.10918567
C       -1.91016213      -0.86357612       2.77208467       0.00000000       0.00000000      -0.01769832       0.06765454      -0.01245582       0.26456956
O       -0.88697907      -0.53120226       2.14962898       0.00000000       0.00000000       0.04450182      -0.09089628      -0.00020001      -0.36052715
N       -1.87493644      -1.05677642       4.10311889       0.00000000       0.00000000      -0.00016464       0.00708151      -0.01159197      -0.05591910
C       -2.99974728      -1.41915867       4.94521284       0.00000000       0.00000000       0.01502958       0.01653930      -0.03062267      -0.06776084
C       -0.59271363      -0.95930159       4.79369189       0.00000000       0.00000000      -0.02352628      -0.05991080      -0.02663242      -0.01818812
C       -0.33230142       0.33326856       5.57562498       0.00000000       0.00000000       0.02640187      -0.03913171      -0.05547337      -0.07541834
C       -1.12794431       0.56636063       6.85973555       0.00000000       0.00000000       0.02380889       0.01480350      -0.03234353      -0.06514711
C       -0.45089245       1.63785135       7.72268801       0.00000000       0.00000000      -0.00168209       0.02166517       0.02889074      -0.06747181
C       -0.47610018       3.03298875       7.09425698       0.00000000       0.00000000      -0.00281210      -0.00192076      -0.01408447      -0.06030335
C       -0.18451206       4.15596508       8.09610519       0.00000000       0.00000000      -0.01262169      -0.03120203      -0.02617179      -0.06275809
C        1.22271896       4.15585327       8.70012816       0.00000000       0.00000000      -0.06326193       0.00612324       0.01024187      -0.05960045
C        2.31312863       4.59212608       7.72880634       0.00000000       0.00000000      -0.02150896      -0.02731931       0.01798743      -0.10452008
H       -4.72515254       3.65961050      -3.66207967       0.00000000       0.00000000       0.02353059      -0.02078647       0.03197470       0.03750807
H       -4.22127040       2.10412700      -2.99135487       0.00000000       0.00000000      -0.00790767       0.00531644       0.03199687       0.02160760
H       -5.93085465       2.42942180      -3.30121463       0.00000000       0.00000000      -0.00780766      -0.00341033      -0.01884493       0.04209639
H       -3.74267560       2.11915629      -5.40830101       0.00000000       0.00000000       0.02014687      -0.00439999      -0.01149852       0.02353464
H       -5.36667831       2.67863906      -5.76155302       0.00000000       0.00000000      -0.06041838       0.03310895       0.00733575       0.04488445
H       -5.33221569       0.37290284      -6.30709974       0.00000000       0.00000000      -0.02888137      -0.01254649       0.00390092       0.04036330
H       -6.27144684       0.51269787      -4.82330543       0.00000000       0.00000000       0.04036323       0.00914016      -0.01028272       0.04044662
H       -4.19283410      -0.10109902      -3.53889977       0.00000000       0.00000000       0.04510129      -0.01000204       0.01977613       0.03226676
H       -3.35627029      -0.34395005      -5.07179283       0.00000000       0.00000000      -0.01592165       0.02153953      -0.05235598       0.01672745
H       -4.01702576      -2.54081228      -4.62627414       0.00000000       0.00000000       0.03776542      -0.00717525      -0.01365140       0.02443433
H       -5.33845532      -1.97136613      -5.61582783       0.00000000       0.00000000      -0.03275063       0.03151124      -0.04372241       0.05268323
H       -6.44216354      -3.05843199      -3.91124940       0.00000000       0.00000000       0.02884997       0.07368350       0.02504632       0.05360543
H       -6.51182967      -1.39044869      -3.35213543       0.00000000       0.00000000      -0.00095138      -0.03388442      -0.01015777       0.04828447
H       -4.46706758      -3.47036384      -2.42128007       0.00000000       0.00000000      -0.00951037      -0.01182912       0.00261998       0.04027042
H       -6.00690990      -3.11129705      -1.64397676       0.00000000       0.00000000       0.02391198      -0.01465339      -0.00231342       0.05779817
H       -5.21812252      -0.68010443      -1.49605531       0.00000000       0.00000000       0.01696839      -0.01518477       0.03263031       0.06528320
H       -3.58816864      -1.26500462      -1.89599884       0.00000000       0.00000000      -0.00561885      -0.02847899       0.06027255       0.07287384
H       -6.33146624      -1.84078781       0.42295718       0.00000000       0.00000000      -0.00157505      -0.00781194      -0.00482187       0.08118861
H       -5.30505103      -2.43347767       1.73101856       0.00000000       0.00000000      -0.01228451       0.01921195       0.03471810       0.06897565
H       -5.53099625      -3.42069314       0.30616858       0.00000000       0.00000000      -0.02647700       0.02939035       0.01328485       0.08681220
H       -3.63489265      -2.02481912       2.54027096       0.00000000       0.00000000      -0.07353436      -0.02612160      -0.07656926       0.07299250
H       -4.38351600       0.15778884       3.43956698       0.00000000       0.00000000       0.04540825      -0.05131536      -0.01374853       0.05626891
H       -5.23987874      -0.21795569       1.96641703       0.00000000       0.00000000       0.00060419      -0.02254531      -0.02211888       0.06651770
H       -2.73941551       1.43162268       1.81025243       0.00000000       0.00000000       0.06255390       0.02091077       0.04491516       0.04993345
H       -4.22151568       2.18512705       2.41196499       0.00000000       0.00000000      -0.04556896       0.00092029       0.02208246       0.05177255
H       -3.88480355       0.90281632      -0.31401073       0.00000000       0.00000000       0.05763882       0.00391805      -0.02035020       0.03788630
H       -3.82396444       2.61190770       0.05621324       0.00000000       0.00000000       0.02717801       0.01181003      -0.05860167       0.03304164
H       -6.32586469       1.53302198       1.08728997       0.00000000       0.00000000       0.02330103       0.01487727       0.03091916       0.03885923
H       -6.15670966       1.13376634      -0.61044465       0.00000000       0.00000000       0.03424910      -0.01039681      -0.00004146       0.02742855
H       -5.63216145       3.54099562      -1.09182221       0.00000000       0.00000000       0.04253781      -0.00701103       0.00050414       0.02926563
H       -5.97760031       3.91582984       0.59805953       0.00000000       0.00000000       0.00923787      -0.02502207      -0.01125062       0.02558523
H       -7.94018487       2.64876035      -1.35989048       0.00000000       0.00000000      -0.05842612      -0.02958181      -0.03738272       0.03760609
H       -7.93601860       4.34173629      -0.88276621       0.00000000       0.00000000       0.01030789       0.01528498       0.01697517       0.04728563
H       -8.30506058       3.09710079       0.30473500       0.00000000       0.00000000      -0.03819819      -0.03646052       0.04727873       0.04251749
H       -2.62295724      -1.86345737       5.86388015       0.00000000       0.00000000       0.01833480       0.03262080      -0.01859283       0.09132806
H       -3.66098973      -2.14835953       4.47996471       0.00000000       0.00000000       0.04164123      -0.02020906      -0.03624994       0.06709321
H       -3.59298691      -0.54555434       5.21671982       0.00000000       0.00000000       0.02013108       0.00750653       0.05837193       0.07547060
H        0.17445155      -1.05870927       4.02055588       0.00000000       0.00000000      -0.00573862       0.01836108       0.02861744       0.07368808
H       -0.51153645      -1.80760903       5.47795751       0.00000000       0.00000000      -0.03118186      -0.04349496      -0.01843020       0.06195330
H       -0.43265677       1.18512374       4.90710460       0.00000000       0.00000000      -0.06001260      -0.00070471      -0.03704049       0.04544830
H        0.71225018       0.27515173       5.87636023       0.00000000       0.00000000       0.04092295       0.06068552       0.03008017       0.05422745
H       -1.16707039      -0.36121201       7.43467097       0.00000000       0.00000000      -0.02001049       0.01319860      -0.01348584       0.04102729
H       -2.14996568       0.88263424       6.64908356       0.00000000       0.00000000      -0.02047058      -0.04808554      -0.04185595       0.03455738
H        0.58067365       1.33868843       7.91206181       0.00000000       0.00000000       0.00443488      -0.00320283       0.02758874       0.03782305
H       -0.95932515       1.67937292       8.68536890       0.00000000       0.00000000      -0.05665818       0.00575494       0.02365577       0.05228597
H       -1.47488788       3.20956493       6.68513637       0.00000000       0.00000000      -0.00581458      -0.00185470      -0.00358858       0.02235894
H        0.23367111       3.08075758       6.26613401       0.00000000       0.00000000       0.02077426       0.01847913       0.01819294       0.02254613
H       -0.91115769       4.08081460       8.90855507       0.00000000       0.00000000       0.03349121       0.00802063      -0.01649229       0.04054662
H       -0.35256239       5.11548332       7.59744199       0.00000000       0.00000000       0.02395164      -0.02584539       0.03812728       0.03169240
H        1.45725039       3.16605444       9.09626968       0.00000000       0.00000000      -0.02183688       0.03665517      -0.00750425       0.03554678
H        1.21902390       4.85234320       9.53914600       0.00000000       0.00000000       0.01878055      -0.01924333       0.03712952       0.04496934
H        2.37542481       3.91897340       6.87767569       0.00000000       0.00000000      -0.01948674      -0.02749340      -0.02261095       0.02163491
H        3.27621040       4.59547599       8.23156742       0.00000000       0.00000000       0.01929267      -0.01268819       0.00837649       0.04062268
H        2.12360617       5.59990662       7.36666374       0.00000000       0.00000000      -0.02811985      -0.01362936      -0.01925290       0.03705724
C       10.37490461       0.84405499      -0.62117217       0.00000000       0.00000000      -0.01126826      -0.00241528      -0.01900825      -0.10748000
C       10.07551915       2.26366054      -0.14508332       0.00000000       0.00000000       0.04007079      -0.04000363      -0.01547426      -0.05952477
C        8.58729541       2.57060161       0.04928762       0.00000000       0.00000000       0.04132343       0.00159327      -0.00020635      -0.05844535
C        7.83974380       2.78825913      -1.26752329       0.00000000       0.00000000      -0.00621776      -0.00047052      -0.05269155      -0.06572130
C        6.34274102       3.01844994      -1.05316794       0.00000000       0.00000000      -0.02446374       0.02814448      -0.02274670      -0.05851511
C        5.49874316       3.03762487      -2.33729531       0.00000000       0.00000000      -0.00560695      -0.05317940       0.01002277      -0.07124615
C        5.16257581       1.62679299      -2.85166467       0.00000000       0.00000000       0.00687162       0.07740100      -0.02479313      -0.07517234
C        3.71885758       1.46144709      -3.35150046       0.00000000       0.00000000       0.06899303       0.09819676       0.01858122      -0.01500636
N        3.35650818       0.06627261      -3.60859251       0.00000000       0.00000000      -0.02880200       0.02100970       0.00113587      -0.04953485
C        3.76096292      -0.44442257      -4.89908454       0.00000000       0.00000000      -0.01460691      -0.01863552      -0.06238278      -0.07087106
C        2.62912548      -0.58216685      -2.69999629       0.00000000       0.00000000       0.03631820      -0.06151083       0.01794180       0.26172522
O        2.32111203      -0.01161422      -1.63061607       0.00000000       0.00000000      -0.00151270       0.07774798       0.03421868      -0.38872223
C        2.14520895      -2.04586527      -2.85865969       0.00000000       0.00000000      -0.01698053      -0.12018184      -0.03225603      -0.07893780
C        3.03127899      -3.09313902      -3.55694225       0.00000000       0.00000000       0.09545308      -0.03971939       0.03813136      -0.07343628
C        4.37094439      -3.11812546      -2.79417782       0.00000000       0.00000000       0.00580710      -0.01798556      -0.07169502      -0.07445921
C        5.37685257      -4.26160119      -3.04253912       0.00000000       0.00000000      -0.01998406       0.02230244       0.03836317      -0.07716486
C        6.36926981      -4.42173993      -1.87224521       0.00000000       0.00000000      -0.01827086       0.02559890       0.04649165      -0.06797542
C        6.95322928      -5.81756039      -1.66461418       0.00000000       0.00000000      -0.09644864       0.02086245      -0.11120143      -0.05928116
C        7.68783652      -5.86434638      -0.32918375       0.00000000       0.00000000      -0.04498474      -0.06620506      -0.11210071      -0.10608039
C        0.62046968      -1.99369791      -2.98513042       0.00000000       0.00000000      -0.06850239      -0.06475072       0.09244682       0.25224204
O        0.06189642      -1.10148053      -2.29637271       0.00000000       0.00000000      -0.00021333       0.06718202       0.03088263      -0.42255255
N       -0.18796392      -2.88503101      -3.56386880       0.00000000       0.00000000      -0.03896763       0.03025387       0.00200149      -0.04863253
C       -1.58709179      -2.64405679      -3.24042565       0.00000000       0.00000000       0.01235947       0.03451525      -0.03627522      -0.06186874
C        0.08444576      -3.81720973      -4.65439801       0.00000000       0.00000000      -0.02456303       0.02555565       0.01383912      -0.01872241
C       -0.85224021      -5.02786605      -4.81227321       0.00000000       0.00000000      -0.04721635       0.02260975      -0.06675240      -0.07156467
C       -0.90125722      -6.10830377      -3.72301250       0.00000000       0.00000000      -0.03354212       0.02236307       0.00666641      -0.07745470
C       -1.88597897      -5.96924232      -2.54599134       0.00000000       0.00000000       0.01702360       0.02152180       0.09917579      -0.06591812
C       -1.18368690      -5.61173899      -1.22903850       0.00000000       0.00000000       0.00650094       0.01445547       0.02628361      -0.06219730
C       -1.93206722      -6.05382359       0.03282904       0.00000000       0.00000000       0.03788723       0.03649852      -0.06303781      -0.06412019
C       -3.21077589      -5.26566476       0.31636922       0.00000000       0.00000000       0.07484387      -0.02798022      -0.02246810      -0.05393281
C       -3.72844732      -5.60052534       1.71248161       0.00000000       0.00000000       0.01039252       0.01254211      -0.05075464      -0.10926012
H       11.45094702       0.70037572      -0.69050782       0.00000000       0.00000000      -0.03928359       0.01815412       0.02808039       0.04492093
H        9.95540361       0.65381881      -1.60452882       0.00000000       0.00000000      -0.01002604       0.03136601       0.00343001       0.03563190
H        9.97840938       0.09881407       0.06916906       0.00000000       0.00000000       0.02156980       0.10963041       0.00872572       0.02767553
H       10.49137117       2.97578486      -0.85810370       0.00000000       0.00000000       0.02353475       0.01634766      -0.02377328       0.04108979
H       10.59254588       2.41646204       0.80283312       0.00000000       0.00000000      -0.02613551       0.02396675       0.05071970       0.03862011
H        8.49733186       3.47421691       0.65476762       0.00000000       0.00000000      -0.03237554       0.02246635       0.01747290       0.03012561
H        8.12665362       1.75210954       0.60956683       0.00000000       0.00000000      -0.02348682      -0.00791377       0.00544755       0.02085141
H        7.99815696       1.92669744      -1.91325524       0.00000000       0.00000000      -0.06144699      -0.02142824      -0.05625146       0.04086877
H        8.26350365       3.65542655      -1.77531803       0.00000000       0.00000000       0.00407324       0.01084764      -0.01418491       0.04039300
H        6.21008885       3.98220164      -0.55828598       0.00000000       0.00000000       0.06608333       0.01578954       0.07726719       0.03145334
H        5.94545227       2.24920927      -0.38189057       0.00000000       0.00000000       0.01841967       0.04815656      -0.01573309       0.02315470
H        6.02005282       3.60941057      -3.10876857       0.00000000       0.00000000      -0.04655181      -0.04402146       0.08490588       0.04956591
H        4.57373480       3.56150342      -2.10391662       0.00000000       0.00000000       0.04706916      -0.04812835      -0.00046979       0.03672462
H        5.31616208       0.93385340      -2.02772355       0.00000000       0.00000000      -0.05330622       0.08610575      -0.05854239       0.06076358
H        5.84937104       1.36882669      -3.65741146       0.00000000       0.00000000       0.00568655      -0.04181965       0.03154963       0.05374279
H        3.59301355       2.01102140      -4.28634339       0.00000000       0.00000000      -0.09059073       0.03802126       0.01515334       0.05947783
H        3.01373110       1.84249779      -2.61059349       0.00000000       0.00000000       0.03292591      -0.01501031       0.04844653       0.07809694
H        4.28150958       0.34785559      -5.42683152       0.00000000       0.00000000       0.02409682       0.01450880      -0.09009904       0.08855342
H        2.90082704      -0.74065384      -5.49538249       0.00000000       0.00000000      -0.10283638      -0.03134097      -0.03994519       0.06612923
H        4.44077521      -1.28631626      -4.80945997       0.00000000       0.00000000       0.09642021       0.00318526      -0.02318167       0.08786824
H        2.15702753      -2.36375857      -1.80265893       0.00000000       0.00000000       0.05804027      -0.01426594       0.02474398       0.13466342
H        3.15538074      -2.92862825      -4.62733762       0.00000000       0.00000000       0.01780111      -0.03717615       0.11905070       0.05090508
H        2.56118924      -4.06865614      -3.41839585       0.00000000       0.00000000       0.06424532       0.08102195       0.06309224       0.05327709
H        4.09192208      -3.14755408      -1.73663674       0.00000000       0.00000000       0.02643588      -0.04276895      -0.11116673       0.02989592
H        4.87775165      -2.17602683      -2.97938104       0.00000000       0.00000000      -0.04250270      -0.00452012       0.06101980       0.04555427
H        5.92461058      -4.09269800      -3.97234704       0.00000000       0.00000000      -0.08075196      -0.01325189       0.04527356       0.03958294
H        4.84747228      -5.20125719      -3.14200312       0.00000000       0.00000000      -0.04871538       0.06086987      -0.05277798       0.06333158
H        5.86133178      -4.15920752      -0.94030960       0.00000000       0.00000000      -0.02841500      -0.08844660      -0.01834218       0.02305954
H        7.21750649      -3.74623512      -1.97513573       0.00000000       0.00000000      -0.04325969      -0.07949324       0.01336398       0.04826773
H        7.63963322      -6.06009372      -2.47433761       0.00000000       0.00000000       0.02856807      -0.02335569      -0.01243450       0.04472069
H        6.15722094      -6.56018665      -1.67156616       0.00000000       0.00000000      -0.04437181      -0.09554882       0.03450311       0.03230218
H        8.50693961      -5.15120179      -0.33045437       0.00000000       0.00000000       0.05597756      -0.04256635       0.06063500       0.04394299
H        8.07649024      -6.85776654      -0.14152549       0.00000000       0.00000000       0.13598378      -0.05471159      -0.03999316       0.05182844
H        7.01647821      -5.62067981       0.49253539       0.00000000       0.00000000      -0.01472250       0.04734485       0.01608079       0.01875514
H       -1.91746602      -1.69544627      -3.66969033       0.00000000       0.00000000      -0.04644909      -0.05439790      -0.06490820       0.06123493
H       -1.67490626      -2.58239095      -2.15250370       0.00000000       0.00000000      -0.10351494       0.00363749      -0.05324984       0.08707034
H       -2.20128507      -3.44928794      -3.61962549       0.00000000       0.00000000       0.09166947       0.05354996       0.02177752       0.09389361
H        1.09995489      -4.18614563      -4.56259255       0.00000000       0.00000000      -0.03573354      -0.02574587      -0.01071232       0.07113109
H        0.01731874      -3.25353120      -5.59472398       0.00000000       0.00000000       0.01376999      -0.00589769       0.00872066       0.06008222
H       -0.46751775      -5.52309748      -5.70569715       0.00000000       0.00000000       0.03127676       0.00850118      -0.06137248       0.06644312
H       -1.86219167      -4.71500251      -5.07215783       0.00000000       0.00000000      -0.06679955       0.03679588       0.00434280       0.05205083
H        0.09480250      -6.24173717      -3.31229265       0.00000000       0.00000000       0.01535182       0.02810803      -0.08100142       0.05247154
H       -1.15646705      -7.03006517      -4.24594879       0.00000000       0.00000000       0.02135500      -0.01566086      -0.00360959       0.05506121
H       -2.37282267      -6.93653422      -2.40815779       0.00000000       0.00000000       0.02849835       0.01871997       0.02581933       0.05030871
H       -2.68183425      -5.25686095      -2.76769108       0.00000000       0.00000000       0.03762567      -0.03645421       0.01047785       0.02824870
H       -0.98439712      -4.53692043      -1.17201285       0.00000000       0.00000000       0.00007388      -0.03885413      -0.00528364       0.01887359
H       -0.21874356      -6.12418988      -1.21457137       0.00000000       0.00000000      -0.03976705       0.03362599      -0.02308643       0.03354661
H       -1.25787460      -5.93159173       0.88846169       0.00000000       0.00000000      -0.04718117       0.00472070      -0.06915382       0.02778163
H       -2.16915523      -7.11860871      -0.04334219       0.00000000       0.00000000       0.00514232       0.09151583       0.00112302       0.04591128
H       -3.96899006      -5.51206973      -0.43125952       0.00000000       0.00000000       0.04378248       0.00832726       0.05436885       0.03482819
H       -2.99038125      -4.19465283       0.24177926       0.00000000       0.00000000      -0.02765111      -0.03939223       0.01384241       0.01261444
H       -3.84112768      -6.67747931       1.81118594       0.00000000       0.00000000      -0.03603446       0.04010833       0.02754888       0.05391872
H       -4.69305388      -5.13848076       1.90821585       0.00000000       0.00000000      -0.00086557      -0.01057891      -0.00774336       0.03148482
H       -3.02029372      -5.26328054       2.46902933       0.00000000       0.00000000      -0.03402052      -0.02421418      -0.01279976       0.02695457
C        5.09159444      -7.63694326      -6.90847374       0.00000000       0.00000000      -0.02305411      -0.04126285       0.01032397      -0.10958638
C        3.77806096      -7.33636902      -6.18861538       0.00000000       0.00000000       0.03134443      -0.08938958      -0.04599156      -0.05790402
C        4.06790680      -6.69404872      -4.81836603       0.00000000       0.00000000      -0.03319724       0.00504297      -0.07774314      -0.06810321
C        3.70946194      -7.48194340      -3.53900505       0.00000000       0.00000000      -0.01006812      -0.02975625       0.03523091      -0.06907774
C        2.47786967      -6.96877232      -2.76523885       0.00000000       0.00000000       0.03695358       0.01001749       0.06774000      -0.06124834
C        2.59814830      -7.05166107      -1.23282466       0.00000000       0.00000000       0.05801776       0.08303462       0.06468962      -0.06679847
C        3.39912607      -5.88959112      -0.59965981       0.00000000       0.00000000       0.01361837       0.03814837       0.05033844      -0.08380242
C        2.51983352      -4.85886137       0.13995181       0.00000000       0.00000000       0.01098846      -0.05629206      -0.03067121      -0.00809124
N        3.30592280      -3.78467285       0.76963098       0.00000000       0.00000000       0.04222447       0.06914435       0.00132883      -0.06214847
C        4.25206437      -4.26369193       1.75328775       0.00000000       0.00000000       0.07752031       0.03019095       0.00218341      -0.06145467
C        2.94320089      -2.50258192       0.63641425       0.00000000       0.00000000       0.03451067       0.08073404       0.00150483       0.25900792
O        1.83660233      -2.20476887       0.14249321       0.00000000       0.00000000      -0.18149224      -0.07621087       0.03040214      -0.40773240
C        3.86452831      -1.28557394       0.93291838       0.00000000       0.00000000       0.04740821       0.13184699       0.05225357      -0.08113368
C        5.41321728      -1.30779173       0.87404000       0.00000000       0.00000000      -0.01339143       0.02292646      -0.09919189      -0.07322843
C        5.80942340      -1.29618201      -0.60509715       0.00000000       0.00000000       0.04623319      -0.03820354      -0.12994048      -0.08171267
C        7.20341041      -0.88414288      -1.10174067       0.00000000       0.00000000       0.04793483       0.04466144       0.05581395      -0.06927585
C        7.17855178      -1.12987068      -2.61778202       0.00000000       0.00000000       0.05030403       0.05020510      -0.04368348      -0.07463468
C        8.30677488      -0.66106190      -3.53231165       0.00000000       0.00000000       0.07356765      -0.00420689       0.00330504      -0.05555946
C        7.85918649      -0.93542914      -4.97284509       0.00000000       0.00000000       0.04527379       0.12929394       0.11449334      -0.10592479
C        3.14116288      -0.47560227       2.01571886       0.00000000       0.00000000       0.02336684       0.08763896       0.03311875       0.25833447
O        2.04080070       0.02254811       1.67752928       0.00000000       0.00000000      -0.03220530      -0.00138409      -0.01950056      -0.37697818
N        3.60260600      -0.26712110       3.24619043       0.00000000       0.00000000      -0.01712852      -0.02260458       0.09355717      -0.03836240
C        2.72795342       0.39978228       4.19335709       0.00000000       0.00000000      -0.00929333      -0.02678596       0.03525442      -0.07261834
C        4.87462865      -0.62214049       3.84822006       0.00000000       0.00000000      -0.02916908      -0.01713333       0.00667073      -0.02309436
C        5.74696612       0.60194431       4.20881713       0.00000000       0.00000000       0.00971463       0.00599711      -0.00992972      -0.07489299
C        5.79635445       1.71872732       3.15313058       0.00000000       0.00000000      -0.01534136       0.03872251      -0.04649267      -0.06659032
C        4.96123622       2.97355663       3.47441081       0.00000000       0.00000000      -0.03272253       0.02272009      -0.03314980      -0.06670887
C        3.92649395       3.26828633       2.38251199       0.00000000       0.00000000       0.03789779      -0.01297631       0.02618596      -0.06126132
C        3.14562652       4.56732001       2.60876554       0.00000000       0.00000000       0.06744469      -0.08390459      -0.03992506      -0.06296957
C        2.45702872       4.63570046       3.96972013       0.00000000       0.00000000       0.05500720      -0.03362459      -0.06564661      -0.05652265
C        1.53557213       5.84432319       4.06345711       0.00000000       0.00000000       0.02031817      -0.03617479      -0.00035299      -0.10936350
H        4.92566732      -8.07458321      -7.88756629       0.00000000       0.00000000      -0.09576493      -0.03761754      -0.01082589       0.04605457
H        5.69277550      -8.32751893      -6.32445010       0.00000000       0.00000000       0.01674849      -0.05556421       0.00826881       0.04318121
H        5.66255302      -6.72017266      -7.04642160       0.00000000       0.00000000      -0.01398165      -0.00725503      -0.01332319       0.03279130
H        3.19366105      -8.25056751      -6.08480414       0.00000000       0.00000000       0.03092499      -0.02053393       0.05265248       0.04014745
H        3.19758772      -6.65081495      -6.81506913       0.00000000       0.00000000      -0.00348143      -0.05575655       0.12586481       0.02475802
H        3.57354031      -5.72375191      -4.80277358       0.00000000       0.00000000      -0.05142694       0.06017268       0.07118559       0.01708089
H        5.14282588      -6.51009914      -4.80020640       0.00000000       0.00000000      -0.03007640       0.03722297       0.01833721       0.04728850
H        4.56863725      -7.45483779      -2.86726926       0.00000000       0.00000000       0.01728570       0.02485061       0.01703551       0.03610243
H        3.56275463      -8.53229153      -3.78499903       0.00000000       0.00000000      -0.04176085      -0.01359213      -0.04580796       0.05038565
H        1.60535508      -7.54334829      -3.07612095       0.00000000       0.00000000       0.06216351      -0.06605474       0.00126025       0.04183563
H        2.28586919      -5.92242283      -3.01176807       0.00000000       0.00000000       0.01182788      -0.01567884      -0.10807427       0.01783583
H        3.06443774      -8.00120562      -0.97103794       0.00000000       0.00000000       0.00774600       0.01837088      -0.00841533       0.05411362
H        1.60121454      -7.05905449      -0.78936520       0.00000000       0.00000000      -0.03855317      -0.06638276      -0.04312699       0.03382967
H        3.95716952      -5.38652643      -1.38498456       0.00000000       0.00000000      -0.06460465      -0.05107352       0.16548074       0.07360218
H        4.11359852      -6.30674751       0.10960221       0.00000000       0.00000000      -0.04673700      -0.02325317      -0.03541843       0.05145829
H        1.94424240      -5.37145886       0.91674943       0.00000000       0.00000000      -0.01127885      -0.00097954       0.02799230       0.05541416
H        1.81433534      -4.39692182      -0.55037588       0.00000000       0.00000000      -0.02311398       0.02498650      -0.01632789       0.06583626
H        4.62202123      -3.45566233       2.37302135       0.00000000       0.00000000      -0.04453033       0.06904656       0.03069263       0.06531841
H        5.09438806      -4.76061385       1.26796801       0.00000000       0.00000000      -0.00768064       0.02058536       0.09799118       0.08144222
H        3.73910352      -4.97836840       2.40444015       0.00000000       0.00000000       0.11541753      -0.01302468      -0.07375517       0.07828458
H        3.59647229      -0.66625007       0.05649305       0.00000000       0.00000000      -0.02597291      -0.01640960       0.04869132       0.13348634
H        5.88641369      -2.15702001       1.36264206       0.00000000       0.00000000      -0.04498732      -0.02480721      -0.03849637       0.04879430
H        5.77939270      -0.40199714       1.34886879       0.00000000       0.00000000       0.03972712       0.10456776      -0.05170146       0.06011810
H        5.09618199      -0.65305181      -1.12428877       0.00000000       0.00000000      -0.00484907      -0.01205954       0.02042031       0.02475907
H        5.65554596      -2.29957442      -0.96599653       0.00000000       0.00000000       0.00206682      -0.01881553       0.02550113       0.05670088
H        7.98457102      -1.47701866      -0.62790164       0.00000000       0.00000000      -0.01155528      -0.03703729      -0.00251304       0.04062694
H        7.40687919       0.16430256      -0.89895703       0.00000000       0.00000000      -0.04852823      -0.05113929       0.08897498       0.05493444
H        6.27571503      -0.66973099      -3.00987798       0.00000000       0.00000000      -0.10802756       0.04172792      -0.00319058       0.02524453
H        7.08530961      -2.19682707      -2.78324041       0.00000000       0.00000000       0.05069454       0.00957879      -0.06643271       0.04490663
H        9.22456312      -1.20574118      -3.31522248       0.00000000       0.00000000       0.03374269      -0.00429241       0.00282487       0.04200225
H        8.51131628       0.40601897      -3.41351275       0.00000000       0.00000000      -0.05000147      -0.07568225      -0.00396843       0.03329908
H        7.54409048      -1.97472537      -5.07987368       0.00000000       0.00000000       0.11103173       0.11536578      -0.05369129       0.03301417
H        8.64499564      -0.72744726      -5.69296589       0.00000000       0.00000000       0.05956965      -0.05953361       0.09563507       0.05148640
H        7.01511138      -0.29049673      -5.21678857       0.00000000       0.00000000      -0.01408215      -0.05949063      -0.06115979       0.02224872
H        2.51729121      -0.30057332       5.00293785       0.00000000       0.00000000       0.01311574       0.03333724       0.03572785       0.06406179
H        1.80499725       0.68090981       3.69303196       0.00000000       0.00000000       0.01454600       0.03114082       0.02060096       0.09427996
H        3.21303121       1.28238267       4.60485285       0.00000000       0.00000000      -0.05496533      -0.06005755      -0.03556119       0.09161553
H        5.42728993      -1.29014949       3.20122193       0.00000000       0.00000000       0.01238973      -0.01016780      -0.04719925       0.06526938
H        4.66557402      -1.16915223       4.77300494       0.00000000       0.00000000      -0.02373300      -0.00695155       0.02412058       0.06674914
H        6.75443227       0.21865723       4.36511844       0.00000000       0.00000000       0.01660756      -0.04736953       0.02994923       0.06367801
H        5.42880578       1.01772326       5.16479118       0.00000000       0.00000000      -0.02368214      -0.00438215      -0.01749159       0.05833653
H        5.45615971       1.32891446       2.19393461       0.00000000       0.00000000      -0.01935735      -0.02625448      -0.03571895       0.03255785
H        6.83371695       2.01816811       3.01569673       0.00000000       0.00000000       0.03012190       0.00509221       0.02428650       0.05420845
H        5.61930612       3.83836185       3.57555861       0.00000000       0.00000000      -0.01763105      -0.02940673      -0.04717820       0.04936331
H        4.45775733       2.85929874       4.43564192       0.00000000       0.00000000       0.04901740       0.00758517      -0.03340962       0.03587923
H        3.21271312       2.43874930       2.30729876       0.00000000       0.00000000       0.07093792       0.06128784      -0.00685834       0.02695538
H        4.45277785       3.34000641       1.42422262       0.00000000       0.00000000      -0.06738279      -0.00586622       0.06338482       0.02952831
H        2.37862368       4.62941259       1.83158563       0.00000000       0.00000000       0.01996757       0.02133172       0.03903303       0.01858233
H        3.81230150       5.42543704       2.49399479       0.00000000       0.00000000      -0.01375121      -0.04201760       0.04787224       0.03946443
H        3.20561584       4.70101018       4.75838827       0.00000000       0.00000000      -0.01821944       0.04247672      -0.00310611       0.04682469
H        1.88934193       3.71244837       4.12143415       0.00000000       0.00000000      -0.02695556       0.03649307       0.01885863       0.01739284
H        2.11716155       6.76075779       4.01543379       0.00000000       0.00000000      -0.02389295       0.01149156       0.00992505       0.04909198
H        0.98812558       5.83164618       5.00125172       0.00000000       0.00000000       0.00179900       0.03926142       0.01901715       0.04513501
H        0.82390563       5.84901791       3.23978597       0.00000000       0.00000000      -0.02623548       0.01451559       0.02441108       0.01965871
C        1.53005618       8.58976373      -6.89898007       0.00000000       0.00000000       0.01674966       0.00781706      -0.02398308      -0.10764732
C        0.57441259       8.43928491      -5.72164708       0.00000000       0.00000000      -0.00611354       0.02185305      -0.05023794      -0.05626938
C        1.03953901       7.39002219      -4.71190366       0.00000000       0.00000000      -0.01174334       0.03914879       0.00800122      -0.05666307
C        1.06282956       5.98297271      -5.29950427       0.00000000       0.00000000      -0.00843670      -0.01340226      -0.03064929      -0.06426467
C        1.44771235       4.89302627      -4.30200946       0.00000000       0.00000000       0.05113529      -0.03423134       0.05888922      -0.05845209
C        2.81537235       5.13793932      -3.66023311       0.00000000       0.00000000       0.08503967       0.05131742       0.11843868      -0.07265071
C        2.73838688       5.62988926      -2.21169131       0.00000000       0.00000000      -0.03821201      -0.04076713       0.14421353      -0.07412784
C        2.31798682       4.53387192      -1.20936934       0.00000000       0.00000000      -0.03341711       0.00283742       0.05319430      -0.01679366
N        0.96827194       4.67817894      -0.66388710       0.00000000       0.00000000      -0.01726511       0.07225641      -0.10418962      -0.04989619
C        0.67724194       5.92284960       0.01762608       0.00000000       0.00000000      -0.01430017       0.02777869      -0.01307595      -0.06405869
C        0.14479499       3.63668873      -0.72192109       0.00000000       0.00000000       0.11486446       0.02881382       0.02138577       0.26571349
O        0.55626265       2.51223169      -1.08716821       0.00000000       0.00000000      -0.03154961       0.00110541      -0.04851402      -0.41023139
C       -1.33080622       3.74314240      -0.28853715       0.00000000       0.00000000       0.03676049      -0.00906939       0.01689169      -0.07834510
C       -2.13004136       4.98340708      -0.70116329       0.00000000       0.00000000       0.01368990      -0.00025255       0.06191255      -0.07584788
C       -1.96438242       5.35968691      -2.17556208       0.00000000       0.00000000       0.01175600      -0.02667849       0.02268823      -0.06189330
C       -2.90943837       6.50914024      -2.53725928       0.00000000       0.00000000      -0.01806836       0.00302388      -0.03487452      -0.06218687
C       -2.82589152       6.95848661      -3.99818628       0.00000000       0.00000000      -0.01280788      -0.06507180      -0.09375007      -0.06721577
C       -3.26987152       5.89439815      -5.00576180       0.00000000       0.00000000       0.01226153       0.00375275      -0.07278343      -0.05240225
C       -3.05602210       6.34170469      -6.45101238       0.00000000       0.00000000      -0.01987560       0.00716361       0.02861826      -0.10713235
C       -1.23363570       3.27524377       1.16923119       0.00000000       0.00000000       0.03415900      -0.02908648      -0.00229847       0.25608159
O       -0.61502394       2.19895189       1.34271283       0.00000000       0.00000000       0.07018813       0.05545211       0.00940599      -0.39210354
N       -1.65176955       3.96562442       2.23463881       0.00000000       0.00000000       0.02030221      -0.02959675       0.03785679      -0.05960666
C       -1.11686966       3.51969361       3.51185775       0.00000000       0.00000000       0.05547668      -0.00898262       0.02677618      -0.05830453
C       -2.69242080       4.99071122       2.35702949       0.00000000       0.00000000       0.02471274      -0.03729497      -0.01353772      -0.01894072
C       -3.60628567       4.71976099       3.57087501       0.00000000       0.00000000       0.00652852      -0.04020528      -0.03337468      -0.07367445
C       -5.08832180       5.02146556       3.31759593       0.00000000       0.00000000       0.02943487      -0.01648012      -0.00023665      -0.06564219
C       -5.97374451       4.12907068       4.19758107       0.00000000       0.00000000       0.05140605       0.00536589      -0.03163422      -0.06050613
C       -7.43652881       4.11042050       3.75743984       0.00000000       0.00000000       0.03516028       0.01783557      -0.01052112      -0.06171874
C       -8.26843658       3.01399089       4.43046088       0.00000000       0.00000000      -0.03472484       0.05482096      -0.00626105      -0.06630857
C       -7.86660504       1.58514780       4.03373480       0.00000000       0.00000000      -0.00264335       0.01930817      -0.01253033      -0.05428079
C       -6.99124836       0.87711837       5.06045243       0.00000000       0.00000000       0.02714105      -0.02962915       0.04410624      -0.10316810
H        1.21505934       9.41356066      -7.53323026       0.00000000       0.00000000       0.01523199       0.02004032       0.02390765       0.04629663
H        1.55320059       7.69280892      -7.51285592       0.00000000       0.00000000      -0.02339256      -0.00279664       0.01024061       0.03461787
H        2.53972270       8.79048911      -6.54714042       0.00000000       0.00000000      -0.00498272       0.03746103      -0.01122677       0.03718357
H       -0.41723969       8.17924319      -6.09514201       0.00000000       0.00000000      -0.03013410      -0.01137612      -0.00855190       0.03330525
H        0.48744294       9.40135892      -5.21213722       0.00000000       0.00000000       0.01875515      -0.01280412       0.01217667       0.03627678
H        0.37176619       7.40699800      -3.84701386       0.00000000       0.00000000      -0.03589522       0.01360261       0.04361034       0.01506769
H        2.03478308       7.67073035      -4.36707341       0.00000000       0.00000000       0.03844454      -0.00609490       0.01822991       0.03447637
H        1.77212408       5.95295808      -6.12416255       0.00000000       0.00000000       0.06562173       0.00523849      -0.04067127       0.04380808
H        0.08064026       5.75082092      -5.71023411       0.00000000       0.00000000      -0.09860303      -0.00873184      -0.00669197       0.03688488
H        1.46333612       3.94086242      -4.83478823       0.00000000       0.00000000      -0.04123944      -0.04814039      -0.02912298       0.02069178
H        0.69726261       4.80849191      -3.51544220       0.00000000       0.00000000      -0.09611243       0.01833037      -0.02485154       0.02145606
H        3.35925103       5.88019465      -4.24081167       0.00000000       0.00000000       0.00743533       0.05267207      -0.04586314       0.06061072
H        3.41523884       4.23127778      -3.68853982       0.00000000       0.00000000      -0.01928804      -0.03561002      -0.02067124       0.03314531
H        2.04774800       6.46947768      -2.15157980       0.00000000       0.00000000       0.05422100       0.00805768      -0.03180787       0.06287502
H        3.72764510       5.99380358      -1.92251155       0.00000000       0.00000000      -0.09110521       0.01429947      -0.01572616       0.05253033
H        3.01364446       4.51200958      -0.36474406       0.00000000       0.00000000      -0.01110789       0.01263216      -0.02198516       0.05975220
H        2.33015403       3.55517832      -1.69036808       0.00000000       0.00000000       0.05060132       0.04047267       0.01790644       0.08148106
H        1.61613346       6.39414473       0.30466255       0.00000000       0.00000000       0.00788309      -0.03524295      -0.04384252       0.09251530
H        0.10011067       5.74016764       0.92309054       0.00000000       0.00000000       0.01178477      -0.03170268      -0.03307184       0.06191995
H        0.13051465       6.61581565      -0.62080842       0.00000000       0.00000000       0.01881042       0.06544583      -0.01274987       0.08332683
H       -1.78415481       2.88597473      -0.80086532       0.00000000       0.00000000      -0.07116405      -0.00832696      -0.00015728       0.12220603
H       -1.89354557       5.84334897      -0.08319468       0.00000000       0.00000000      -0.03041631       0.08249256       0.00718541       0.05215394
H       -3.19094098       4.75834829      -0.57044040       0.00000000       0.00000000      -0.00123754      -0.02583832       0.06061366       0.05308009
H       -2.18596326       4.48456297      -2.78630843       0.00000000       0.00000000      -0.01673134       0.00092793      -0.05817405       0.03706081
H       -0.94042559       5.66742037      -2.38400095       0.00000000       0.00000000       0.02426254      -0.02032220      -0.04178601       0.03387812
H       -2.67141842       7.36743000      -1.90561388       0.00000000       0.00000000       0.00298007       0.01525016       0.02988844       0.03478714
H       -3.93636935       6.21827456      -2.30971581       0.00000000       0.00000000      -0.03519653      -0.05043982      -0.02727061       0.03637668
H       -1.80571396       7.26958616      -4.22660808       0.00000000       0.00000000      -0.00430789      -0.05030697       0.01028247       0.04362216
H       -3.46480671       7.83617939      -4.11829358       0.00000000       0.00000000       0.03201209      -0.03120240      -0.00679840       0.04755770
H       -4.33209839       5.67808954      -4.85498002       0.00000000       0.00000000       0.08904068       0.00400005      -0.00132360       0.03234761
H       -2.70819028       4.96742955      -4.85178841       0.00000000       0.00000000      -0.03815577       0.06124964       0.02745149       0.01932533
H       -3.60505570       7.25658468      -6.66085575       0.00000000       0.00000000       0.00415501      -0.02564810       0.03515549       0.04567146
H       -3.39930890       5.57214147      -7.14134346       0.00000000       0.00000000       0.00510474       0.05046411       0.05471733       0.03929439
H       -2.00069413       6.52687535      -6.65001857       0.00000000       0.00000000      -0.06552997      -0.01024245       0.03612031       0.03461779
H       -1.70208683       2.70513659       3.93942025       0.00000000       0.00000000       0.03047755      -0.01294234      -0.03095900       0.06569112
H       -1.11996094       4.36332746       4.19627995       0.00000000       0.00000000       0.08147219      -0.05539099       0.01887575       0.08795670
H       -0.10225431       3.16139452       3.35603033       0.00000000       0.00000000       0.04902086       0.00711840      -0.00218306       0.08072615
H       -3.31727927       4.98288086       1.47043246       0.00000000       0.00000000       0.05162926      -0.03177035      -0.07927545       0.07368668
H       -2.21887548       5.97396937       2.44008202       0.00000000       0.00000000      -0.02815350       0.01142032       0.05579470       0.06017146
H       -3.26952362       5.26658844       4.45118239       0.00000000       0.00000000       0.01116047      -0.00949266      -0.04344244       0.05407457
H       -3.54658861       3.65589752       3.79509751       0.00000000       0.00000000       0.00406106       0.02924661       0.06902360       0.05130212
H       -5.30961176       4.80519258       2.26913492       0.00000000       0.00000000      -0.09142427       0.05526730       0.05297494       0.03427242
H       -5.30394605       6.07389488       3.49932896       0.00000000       0.00000000      -0.03450127      -0.03738998      -0.04408879       0.04910032
H       -5.89812199       4.44167910       5.24176376       0.00000000       0.00000000      -0.02018429      -0.02524750      -0.07209106       0.04035400
H       -5.58968674       3.10804862       4.12294186       0.00000000       0.00000000      -0.02265602       0.04850682       0.03121200       0.02848107
H       -7.47148790       3.95870193       2.67671003       0.00000000       0.00000000      -0.03584504      -0.01251657      -0.04312597       0.03371964
H       -7.90023002       5.07596806       3.96057026       0.00000000       0.00000000       0.04613337       0.02730047       0.04171697       0.04169455
H       -9.30523158       3.17921231       4.13877355       0.00000000       0.00000000      -0.04754172      -0.00707996      -0.02430955       0.04400449
H       -8.22962818       3.12660792       5.51458327       0.00000000       0.00000000       0.08640174      -0.01620958      -0.00667944       0.04549419
H       -8.76456418       0.98424811       3.88791246       0.00000000       0.00000000      -0.03899245       0.00760063       0.03707922       0.03760156
H       -7.34539923       1.61105855       3.07394560       0.00000000       0.00000000       0.01462072       0.02098789      -0.04168215       0.02211366
H       -6.05617913       1.40546315       5.22014206       0.00000000       0.00000000       0.07252739       0.02169279       0.02050246       0.02219919
H       -7.49580809       0.81116841       6.01776905       0.00000000       0.00000000      -0.09856086       0.02060721       0.04755791       0.04720978
H       -6.76845809      -0.13641717       4.73431064       0.00000000       0.00000000       0.01543580      -0.06138208      -0.03239138       0.01974055
O       -1.54800299       1.00461582      -1.94019097       0.00000000       0.00000000      -0.06232236       0.10735493      -0.07657881      -0.50656711
H       -1.16179731       1.66318917      -2.53981501       0.00000000       0.00000000       0.01376614      -0.10421676       0.08648926       0.33334067
H       -1.49397056       0.16118285      -2.41445968       0.00000000       0.00000000      -0.01142357      -0.06212540      -0.01937192       0.35602504
