98
Properties=species:S:1:pos:R:3:initial_charges:R:1:initial_magmoms:R:1:forces:R:3:charge:R:1 energy=-3559.907572270096 free_energy=-3559.907572270096 dipole="1.8062071829398954 -1.445075306566358 2.08166135688359" pbc="F F F"
Sm       1.15176815      -0.22667764       0.23774416       3.00000000       0.00000000       0.10502905      -0.08051454       0.03348275       0.70374789
C       -2.07280687       3.79058962       0.91884047       0.00000000       0.00000000       0.02968861       0.05034806      -0.05974563      -0.11442174
C       -0.79595857       4.60701310       1.09806674       0.00000000       0.00000000       0.07232798      -0.10204006       0.02820657      -0.07230216
C        0.25590349       3.88081491       1.94187943       0.00000000       0.00000000       0.07854432      -0.01923881       0.07257812      -0.07551382
C        0.95952901       2.72163238       1.19216177       0.00000000       0.00000000      -0.13023853      -0.03802550       0.00100512      -0.04972981
C        2.49898491       2.85288141       1.26353225       0.00000000       0.00000000      -0.11276320       0.01992362       0.10278699      -0.09192259
C        3.07535821       1.88702342       0.28169880       0.00000000       0.00000000       0.01911772       0.01233445      -0.01292977       0.07602566
N        2.88728206       2.20836835      -0.98793496       0.00000000       0.00000000       0.12649782       0.01000538      -0.07245497      -0.05974484
N        3.02447617       1.37935165      -1.96485491       0.00000000       0.00000000      -0.01655685       0.01510423      -0.07703733      -0.10888583
C        3.11397789       0.09764979      -1.62557880       0.00000000       0.00000000      -0.00114093       0.01063407      -0.00903215       0.17517370
C        2.45078208      -0.92071229      -2.48587313       0.00000000       0.00000000       0.08132624      -0.03356005      -0.03802651       0.09453911
C        2.73926550      -1.31355299      -3.77928641       0.00000000       0.00000000      -0.02018135       0.04559523      -0.05509539      -0.00816944
C        1.87373375      -2.23534679      -4.36037143       0.00000000       0.00000000       0.05714380      -0.07499342      -0.09704279       0.01878619
C        0.77928435      -2.73611108      -3.66405321       0.00000000       0.00000000       0.07210774      -0.11179063       0.07569588      -0.01593032
C        0.57250336      -2.31121142      -2.35339723       0.00000000       0.00000000      -0.00893657       0.00227801      -0.00833737       0.09569884
C       -0.46744198      -2.77716461      -1.39572171       0.00000000       0.00000000       0.01713707      -0.01848534       0.04746904       0.09415799
C       -1.49237674      -3.68155601      -1.65642197       0.00000000       0.00000000       0.04231936       0.03169753      -0.01907671      -0.01671738
C       -2.37101438      -3.99070513      -0.62429276       0.00000000       0.00000000      -0.09455411       0.01389944      -0.09074399       0.01550017
C       -2.20206498      -3.45436885       0.65075750       0.00000000       0.00000000       0.00421065      -0.04199784       0.01730702      -0.00777531
C       -1.12441135      -2.59475191       0.85097681       0.00000000       0.00000000      -0.05677659       0.04630363      -0.07491671       0.08980363
C       -0.72047019      -1.88123170       2.08887323       0.00000000       0.00000000      -0.11188541      -0.08431721       0.06482580       0.17305363
N        0.49784273      -1.31000208       1.99539527       0.00000000       0.00000000       0.08240348       0.04795336      -0.16332172      -0.17318430
N        1.03374816      -0.72904992       3.06382453       0.00000000       0.00000000      -0.12077805      -0.00969477      -0.03683642      -0.12535228
C        0.37271430      -0.65085295       4.21096285       0.00000000       0.00000000       0.08625914      -0.00166550       0.00985646       0.10613645
C        1.20373655      -0.18300989       5.34821686       0.00000000       0.00000000       0.00561908      -0.01233466       0.00481485      -0.07482782
C        2.39452530      -1.14631709       5.60968039       0.00000000       0.00000000      -0.02674783       0.05133991      -0.02155964      -0.06287444
C        1.95542363      -2.41160048       6.33964997       0.00000000       0.00000000       0.05882470       0.10081222       0.04307221      -0.07348615
C        1.04073991      -3.30498247       5.51109702       0.00000000       0.00000000       0.00980837       0.03912458       0.08780080      -0.05064079
C        1.74533829      -4.17080215       4.47497589       0.00000000       0.00000000       0.01904450      -0.00253600      -0.02831349      -0.10903553
C       -1.06521483      -0.77480984       4.05928770       0.00000000       0.00000000       0.01041673      -0.03587888       0.06737487       0.12734138
C       -2.02684842       0.15533896       4.67490547       0.00000000       0.00000000      -0.00036730       0.04273030      -0.06825317      -0.08421827
C       -2.55324315       1.09298121       3.53658754       0.00000000       0.00000000       0.04245184       0.02661906       0.08373042      -0.04125315
C       -4.06207083       1.05350295       3.29331011       0.00000000       0.00000000       0.00562665       0.01220145       0.06682002      -0.07202317
C       -4.62953324      -0.23616257       2.69299076       0.00000000       0.00000000       0.03782152      -0.06725737       0.01056115      -0.05818092
C       -4.76296228      -1.40486175       3.66421340       0.00000000       0.00000000      -0.01398340      -0.02811857       0.02389484      -0.11879248
N       -1.51287212      -1.53681084       3.07722208       0.00000000       0.00000000       0.03900091      -0.01673716      -0.02204214      -0.17885417
N       -0.32437166      -2.24606598      -0.17142287       0.00000000       0.00000000       0.00429895       0.10978314      -0.04881073      -0.16921051
N        1.39824402      -1.39856317      -1.80767399       0.00000000       0.00000000       0.05932372       0.01498414      -0.04359519      -0.17648122
N        3.42240304      -0.30973373      -0.38460523       0.00000000       0.00000000      -0.03335629      -0.04582953      -0.03669113      -0.19564917
C        3.59177275       0.58934491       0.59369495       0.00000000       0.00000000       0.02690716      -0.10529096      -0.00523197       0.11963426
C        4.12628249       0.11789772       1.91057989       0.00000000       0.00000000      -0.01845455      -0.02511424       0.05211325      -0.08522773
C        4.41773662      -1.39631503       1.92965511       0.00000000       0.00000000      -0.05641908       0.08618528      -0.02060893      -0.06150696
C        5.59670244      -1.74576544       1.00599483       0.00000000       0.00000000      -0.02171326       0.05499987       0.04241775      -0.07026489
C        5.71782218      -3.23472098       0.68852205       0.00000000       0.00000000      -0.00616627      -0.04521181       0.05476772      -0.05853793
C        6.13820403      -4.06302246       1.89620633       0.00000000       0.00000000       0.00584560      -0.03085170       0.05024669      -0.11739960
H       -2.64489335       4.22128488       0.10316764       0.00000000       0.00000000      -0.13955463      -0.07808684       0.03316871       0.06620891
H       -2.68484845       3.82379990       1.81693360       0.00000000       0.00000000       0.04779294      -0.02079341      -0.05187811       0.06064645
H       -1.85685289       2.74072409       0.68815276       0.00000000       0.00000000      -0.01149226       0.05393817      -0.02438953       0.00427187
H       -1.03821686       5.55315509       1.58948732       0.00000000       0.00000000      -0.00591211      -0.14811634      -0.07696622       0.08454830
H       -0.37315158       4.85376842       0.12000609       0.00000000       0.00000000       0.02434598       0.00013731       0.08444840       0.05310881
H       -0.19646515       3.52590037       2.86794052       0.00000000       0.00000000      -0.02294834      -0.00474114      -0.02150173       0.06492991
H        1.02066299       4.60410020       2.21252578       0.00000000       0.00000000       0.03017475       0.09898259       0.08707665       0.08723059
H        0.67431634       2.79818206       0.12901677       0.00000000       0.00000000      -0.01665100       0.08029389      -0.06872701       0.10223792
H        0.63305401       1.71013805       1.61429956       0.00000000       0.00000000       0.06607359       0.10272842       0.02936739       0.08601298
H        2.85236262       2.67963596       2.27802628       0.00000000       0.00000000       0.10512848       0.04783640       0.08600250       0.10043080
H        2.76108215       3.86407488       0.94878381       0.00000000       0.00000000       0.06223304       0.05677531       0.01862494       0.14277581
H        3.59030272      -0.91309327      -4.30591771       0.00000000       0.00000000       0.01257087      -0.04081488      -0.02525669       0.12559532
H        2.07132845      -2.58284834      -5.36110907       0.00000000       0.00000000      -0.02840411       0.00033858      -0.10965431       0.13048818
H        0.13738970      -3.46290648      -4.13438971       0.00000000       0.00000000      -0.03905162      -0.00951692       0.02179117       0.11423858
H       -1.60877110      -4.11138994      -2.63816843       0.00000000       0.00000000      -0.07102830      -0.05381034       0.03672867       0.10886229
H       -3.20209393      -4.64311328      -0.84752576       0.00000000       0.00000000      -0.01320296      -0.05462042       0.16905373       0.12414293
H       -2.88789903      -3.69617957       1.44920397       0.00000000       0.00000000       0.08506198       0.00337931       0.00860399       0.12169520
H        0.62942912      -0.03462049       6.26074324       0.00000000       0.00000000      -0.03760621      -0.08726190      -0.02732329       0.09186535
H        1.63033475       0.77721945       5.03896399       0.00000000       0.00000000      -0.01485180       0.00122687       0.15813846       0.08860834
H        3.13568171      -0.62210671       6.21414516       0.00000000       0.00000000      -0.09172077       0.01051176       0.01699834       0.07535038
H        2.86413597      -1.40914978       4.65828169       0.00000000       0.00000000      -0.06738708       0.03778136       0.00848192       0.04893585
H        1.45564554      -2.12002755       7.26483444       0.00000000       0.00000000      -0.04734213      -0.03893341      -0.01135200       0.06307546
H        2.84302163      -2.97742226       6.62828598       0.00000000       0.00000000       0.00167418       0.01729783      -0.02638883       0.08205451
H        0.30878909      -2.66017546       5.00419830       0.00000000       0.00000000      -0.09782804      -0.04881775       0.01320930       0.02155664
H        0.48709782      -3.95113813       6.18912567       0.00000000       0.00000000      -0.04915122      -0.05784572       0.02002703       0.06800054
H        2.62911721      -4.63446326       4.89990705       0.00000000       0.00000000       0.04529171      -0.00107448       0.06556311       0.06690904
H        2.04756011      -3.60398243       3.59571337       0.00000000       0.00000000       0.04615469       0.09965167      -0.03482327       0.01509438
H        1.08728178      -4.97119413       4.15202346       0.00000000       0.00000000      -0.05551924      -0.00899068      -0.07239782       0.04973899
H       -1.56530311       0.73084444       5.47840517       0.00000000       0.00000000      -0.06963503      -0.07379569      -0.05231755       0.08045897
H       -2.88067369      -0.39774281       5.07257232       0.00000000       0.00000000       0.05341058       0.03626229       0.00683759       0.14489662
H       -2.02642998       0.86724090       2.59249077       0.00000000       0.00000000      -0.07251191      -0.01266653       0.08238928       0.00686980
H       -2.28357991       2.11155899       3.81600366       0.00000000       0.00000000      -0.02077747       0.03828144       0.00778826       0.06213673
H       -4.29607275       1.86734375       2.60326554       0.00000000       0.00000000       0.04318809       0.01800019      -0.01230941       0.05546208
H       -4.57469143       1.28034763       4.22614788       0.00000000       0.00000000      -0.04055716      -0.05278483       0.07724761       0.07158377
H       -4.01220377      -0.54446748       1.84442558       0.00000000       0.00000000       0.02876380       0.01489950      -0.06596547       0.01309724
H       -5.62482904      -0.00535242       2.31041741       0.00000000       0.00000000       0.03485158       0.01870964       0.00704227       0.06151448
H       -3.79692535      -1.83834271       3.91618925       0.00000000       0.00000000      -0.04597583      -0.02147204      -0.02253598       0.03698266
H       -5.36507923      -2.18965463       3.21113129       0.00000000       0.00000000       0.01281578       0.02367755      -0.00201573       0.05534416
H       -5.27235764      -1.09409809       4.57276491       0.00000000       0.00000000       0.01269916       0.01409797      -0.00380772       0.05813807
H        3.38808108       0.39394262       2.68430348       0.00000000       0.00000000       0.08086656      -0.09008482       0.05567315       0.11463846
H        5.05024827       0.65185417       2.16685314       0.00000000       0.00000000      -0.00778226       0.05038639      -0.15078310       0.14124900
H        3.50929433      -1.95413454       1.61739620       0.00000000       0.00000000       0.03093364       0.06397626      -0.03421580       0.06443874
H        4.65557851      -1.68823159       2.95633927       0.00000000       0.00000000       0.01022607       0.01213196      -0.14339973       0.08945537
H        6.52924228      -1.41190962       1.45906330       0.00000000       0.00000000       0.01018152       0.03253877       0.10241762       0.07270452
H        5.48735025      -1.20248456       0.06640010       0.00000000       0.00000000      -0.02588298      -0.00271173      -0.07448756       0.03982295
H        6.46863421      -3.35162308      -0.09299449       0.00000000       0.00000000       0.00475592       0.00403675      -0.00130332       0.06082755
H        4.76703719      -3.60086820       0.29409969       0.00000000       0.00000000      -0.03264420      -0.03783107      -0.03087648       0.02693642
H        7.02184768      -3.63152000       2.36027768       0.00000000       0.00000000      -0.03945004      -0.00622297       0.01949786       0.05776990
H        6.39246238      -5.07588570       1.59479691       0.00000000       0.00000000      -0.05441448       0.02991517      -0.03525837       0.06503746
H        5.34085510      -4.12517297       2.63398688       0.00000000       0.00000000       0.03768131       0.03030385       0.01629190       0.03534070
O       -0.60830949       0.78597631      -1.25438982       0.00000000       0.00000000       0.09510515      -0.02007279      -0.00561257      -0.49996064
H       -1.09871803       1.61795047      -1.37798135       0.00000000       0.00000000      -0.05015088       0.11054564       0.03878509       0.36684108
H       -0.87218297       0.25756572      -2.02849609       0.00000000       0.00000000      -0.06063044       0.04905148      -0.01683182       0.35831540
