66
Properties=species:S:1:pos:R:3:initial_charges:R:1:initial_magmoms:R:1:forces:R:3:charge:R:1 energy=-2743.126530918876 free_energy=-2743.126530918876 dipole="3.8407245087534645 -2.955817925271336 -3.5711864721212" pbc="F F F"
Sm       0.43849833      -0.64963218      -0.50965082       2.00000000       0.00000000       0.01413016       0.08837020       0.05672915       0.73434402
C        3.17787509      -3.99090077       0.13260779       0.00000000       0.00000000      -0.08595759      -0.02573312      -0.04701722      -0.11430451
C        1.93328352      -4.87922726       0.07104216       0.00000000       0.00000000      -0.05917854       0.01899222       0.01117661      -0.07754314
C        0.62470458      -4.09677649       0.20883792       0.00000000       0.00000000       0.13358647      -0.06509492       0.03069862      -0.07373861
C        0.03957449      -3.46214799      -1.03792306       0.00000000       0.00000000      -0.04849551      -0.01050987       0.09493834       0.06293256
N       -1.18054172      -2.96730275      -0.81000118       0.00000000       0.00000000      -0.06463122      -0.07030246       0.03940747      -0.05613454
N       -1.89099064      -2.29469739      -1.65500366       0.00000000       0.00000000       0.10002260       0.12397103      -0.08142950      -0.07435718
C       -1.21900792      -1.88989280      -2.73729485       0.00000000       0.00000000      -0.10184465       0.06264012       0.01029025       0.18310370
C       -1.30525537      -0.51901826      -3.32585539       0.00000000       0.00000000      -0.09332071      -0.03152568      -0.02232062       0.11841333
C       -1.72548569      -0.04179397      -4.55103053       0.00000000       0.00000000      -0.15468053       0.09138957       0.04639066      -0.00788495
C       -1.26307604       1.21215391      -4.94367036       0.00000000       0.00000000       0.00858744       0.07213068       0.00599960       0.02314957
C       -0.30615672       1.88901605      -4.19117036       0.00000000       0.00000000       0.02130493      -0.01056976       0.00490297      -0.00999537
C        0.08500371       1.31751216      -2.99764724       0.00000000       0.00000000      -0.09053794       0.02509967       0.09165132       0.10397339
C        1.31836383       1.48919472      -2.18267380       0.00000000       0.00000000      -0.00800105      -0.03221591       0.02882806       0.18489499
N        1.47216386       2.31908357      -1.17433988       0.00000000       0.00000000       0.15443083      -0.02894538      -0.07551348      -0.10141015
N        2.41333726       2.03248344      -0.31983388       0.00000000       0.00000000       0.09730966       0.03176699       0.02981088      -0.05159889
C        3.33803930       1.11601954      -0.55848358       0.00000000       0.00000000      -0.03655640       0.06941734      -0.02246904       0.08456402
C        4.34830060       0.89003462       0.51458659       0.00000000       0.00000000      -0.03588632       0.05024008      -0.08846995      -0.09110376
C        4.20823230      -0.48537589       1.18409569       0.00000000       0.00000000      -0.09426605      -0.03805168       0.04285815      -0.07116891
C        2.80033012      -0.75521684       1.71824673       0.00000000       0.00000000       0.08820319      -0.04871806       0.05530693      -0.10599240
C        3.27488912       0.34272651      -1.75988903       0.00000000       0.00000000      -0.09084767      -0.06996646       0.14941199       0.12028428
C        4.33682926      -0.53124840      -2.31866279       0.00000000       0.00000000       0.03198185      -0.04599431       0.00042412      -0.07632768
C        4.70036263      -0.05496668      -3.74785197       0.00000000       0.00000000      -0.01016670      -0.01832492       0.08569330      -0.05050807
C        5.72207268      -0.99709702      -4.35824911       0.00000000       0.00000000       0.02174514      -0.00211272       0.00852767      -0.12044650
N        2.12433989       0.42585044      -2.43241927       0.00000000       0.00000000       0.07343157      -0.06410008       0.05447349      -0.24454679
N       -0.46244997       0.17830410      -2.54507162       0.00000000       0.00000000      -0.10447900      -0.06132566      -0.05505974      -0.18211966
N       -0.06026515      -2.42175734      -3.08997155       0.00000000       0.00000000      -0.01005681      -0.06322762      -0.08171651      -0.20514919
C        0.54095006      -3.36541867      -2.37941794       0.00000000       0.00000000       0.02714830       0.08370046      -0.04284083       0.11681876
C        1.63955206      -4.06291288      -3.09936949       0.00000000       0.00000000       0.05475447      -0.10374571      -0.08616461      -0.08017167
C        1.89449095      -3.38315122      -4.45519297       0.00000000       0.00000000       0.02773247      -0.01234724       0.01524170      -0.06289884
C        2.92421109      -4.10260934      -5.31164664       0.00000000       0.00000000       0.04638550      -0.00106090      -0.00395312      -0.11936503
H        4.01783443      -4.50890642      -0.32296483       0.00000000       0.00000000       0.02813355       0.08407747      -0.01180969       0.08166900
H        3.44833297      -3.79885419       1.16987952       0.00000000       0.00000000      -0.04556365       0.08738700      -0.08401490       0.06961766
H        3.01840294      -3.02825086      -0.39064833       0.00000000       0.00000000      -0.04499789      -0.07754920      -0.02126962       0.02322646
H        1.98977864      -5.59376374       0.89252621       0.00000000       0.00000000      -0.00619131       0.00947880       0.01868775       0.09309488
H        1.90326027      -5.47011894      -0.84336735       0.00000000       0.00000000       0.03578588       0.03577681      -0.00481339       0.07512822
H        0.74070785      -3.29990556       0.97859847       0.00000000       0.00000000      -0.05478277      -0.07945341       0.09908965       0.09748731
H       -0.15388107      -4.77425278       0.58036321       0.00000000       0.00000000       0.04177680       0.06469769       0.01258512       0.13177907
H       -2.37809952      -0.62262664      -5.18299235       0.00000000       0.00000000      -0.00244705      -0.00168754       0.00311048       0.12492819
H       -1.57156841       1.63292503      -5.88591041       0.00000000       0.00000000      -0.09130811       0.00353577      -0.09187992       0.12935770
H        0.16593488       2.79193149      -4.53976325       0.00000000       0.00000000      -0.06105872       0.07643456      -0.05353836       0.12070303
H        4.20531299       1.69376094       1.23546293       0.00000000       0.00000000       0.08568235      -0.05127477       0.15338599       0.11942605
H        5.35021858       0.96476782       0.08866029       0.00000000       0.00000000       0.03209084       0.08415814       0.05558568       0.10754842
H        4.91006989      -0.51177140       2.01656267       0.00000000       0.00000000       0.00517114      -0.00342160       0.05192171       0.11117967
H        4.48048766      -1.28460212       0.49058810       0.00000000       0.00000000       0.11892115       0.05187049       0.00108426       0.06288817
H        2.41665722       0.10453111       2.27272292       0.00000000       0.00000000       0.03119629       0.04172855      -0.03698322       0.13526395
H        2.80789089      -1.61105699       2.39364628       0.00000000       0.00000000       0.03262588       0.00609802       0.00424720       0.10835170
H        2.09169101      -1.00332636       0.84947438       0.00000000       0.00000000       0.04208439      -0.08069361       0.01402531       0.10553969
H        3.98768329      -1.56831521      -2.39763236       0.00000000       0.00000000      -0.07271264       0.11366101      -0.02680365       0.08199712
H        5.22981101      -0.52068758      -1.69662304       0.00000000       0.00000000       0.02193977       0.04893881       0.02428870       0.08588690
H        5.11097339       0.95279384      -3.69656668       0.00000000       0.00000000      -0.00674905       0.03363186       0.00291808       0.06191575
H        3.79548584      -0.02793928      -4.35620285       0.00000000       0.00000000      -0.01250441       0.00010577       0.01658969       0.05489782
H        6.63560475      -1.00703614      -3.77036441       0.00000000       0.00000000       0.03869016       0.00834564      -0.04477909       0.06225606
H        5.96432465      -0.68235507      -5.36879816       0.00000000       0.00000000       0.02279484       0.02903318       0.02650590       0.07839297
H        5.32720691      -2.00618204      -4.40103424       0.00000000       0.00000000       0.00070619      -0.10413646      -0.04977090       0.05096756
H        1.35923859      -5.10625987      -3.27539725       0.00000000       0.00000000      -0.07340557      -0.00778770       0.01176059       0.11940334
H        2.54484411      -4.08244690      -2.48946989       0.00000000       0.00000000       0.03290875      -0.02387505      -0.08154942       0.08757438
H        2.20806891      -2.35099458      -4.27229966       0.00000000       0.00000000      -0.00771515      -0.00346397      -0.02383535       0.04229208
H        0.95970395      -3.34481062      -5.01335551       0.00000000       0.00000000      -0.03629634      -0.00432004       0.04345749       0.06916423
H        3.90120328      -4.12157646      -4.83769921       0.00000000       0.00000000       0.02532435      -0.06761608       0.04479340       0.04685629
H        3.02186303      -3.58626692      -6.26388837       0.00000000       0.00000000       0.01823868      -0.04001881       0.04229103       0.06735720
H        2.61020148      -5.12204738      -5.51633625       0.00000000       0.00000000       0.04275923      -0.00968601       0.02043779       0.06316769
N       -0.92163390       0.87026306       0.83066077       0.00000000       0.00000000      -0.04285058      -0.10749537      -0.12740170       0.79356416
O       -1.53058787       1.84207879       1.05722652       0.00000000       0.00000000       0.03147988      -0.01568095       0.04746407      -0.30159776
O        0.30218867       0.74106951       1.08609163       0.00000000       0.00000000       0.10117314       0.01555152      -0.16092589      -0.46563726
O       -1.40977677      -0.13924245       0.27160457       0.00000000       0.00000000      -0.04274792      -0.03019641      -0.13066147      -0.45136047
