160
Properties=species:S:1:pos:R:3:initial_charges:R:1:initial_magmoms:R:1:forces:R:3:charge:R:1 energy=-5885.836948138238 free_energy=-5885.836948138238 dipole="-0.09216359880580492 -1.3498687996621588 -0.35815094330843206" pbc="F F F"
Sm       0.01964864       0.06415312       0.01678736       3.00000000       0.00000000       0.06875639      -0.00246673       0.06302702       0.79944844
C        2.77093076      -0.34654949       5.16392679       0.00000000       0.00000000      -0.02842860       0.00503814      -0.01491590      -0.10871749
C        2.10942532       0.35557009       6.34112292       0.00000000       0.00000000      -0.04795761       0.03226205       0.00068964      -0.06473858
C        0.73217568       0.94948874       6.02511202       0.00000000       0.00000000      -0.06511777       0.01322820      -0.02029733      -0.07092916
C        0.76274513       2.26590592       5.23493465       0.00000000       0.00000000       0.02886476      -0.00843846       0.02004810      -0.02501325
N        1.03568778       2.14593555       3.80909807       0.00000000       0.00000000       0.07275354       0.02834024       0.03554051      -0.02970605
C        2.24697314       2.85242202       3.38970521       0.00000000       0.00000000       0.04315367       0.02778701       0.01299024      -0.01777021
C        2.11104679       4.36676860       3.60111526       0.00000000       0.00000000       0.05718530      -0.06025494       0.00227902      -0.07390402
C        0.84068116       4.93013054       2.96725379       0.00000000       0.00000000       0.03092817       0.02764106       0.03296964      -0.05563854
C        0.71467789       6.43382664       3.17717773       0.00000000       0.00000000       0.00829500       0.04538196      -0.00432344      -0.11348198
C        0.33735916       1.53258920       2.85673191       0.00000000       0.00000000       0.01044460       0.01790777      -0.01590600       0.25722921
O        0.83004372       1.39743290       1.70820169       0.00000000       0.00000000      -0.06922083       0.02441215      -0.01795819      -0.39697543
C       -1.05981811       0.97171576       3.02630190       0.00000000       0.00000000       0.02003318       0.06079400       0.01577540       0.07833420
C       -1.93978530       1.11663229       4.11008163       0.00000000       0.00000000       0.01437118       0.01792387      -0.01801714      -0.03372763
C       -3.17962434       0.52368457       4.03828016       0.00000000       0.00000000      -0.03434187       0.00292902       0.09533026      -0.00529927
C       -3.52219525      -0.28860837       2.94788094       0.00000000       0.00000000      -0.02639497      -0.01513487      -0.01527214       0.02613773
C       -4.77173602      -0.96581654       2.86836598       0.00000000       0.00000000      -0.02641969      -0.05237331       0.03464091      -0.02121921
C       -5.06418791      -1.74447882       1.79913465       0.00000000       0.00000000      -0.02598938      -0.03757975       0.05575068      -0.02376010
C       -4.12076602      -1.91678504       0.74603377       0.00000000       0.00000000      -0.00807351       0.03238694       0.01013240       0.02380298
C       -4.41090993      -2.68066747      -0.39057926       0.00000000       0.00000000      -0.12064034      -0.01998909      -0.03683093      -0.00535305
C       -3.51988586      -2.75051323      -1.43548792       0.00000000       0.00000000       0.01964034      -0.00128086      -0.01812375      -0.03474095
C       -2.27968759      -2.10788798      -1.31587324       0.00000000       0.00000000       0.04300288       0.01579846      -0.04750232       0.07254986
C       -1.23654585      -1.87649315      -2.39479605       0.00000000       0.00000000       0.07814346       0.05800355      -0.02563967       0.24731554
O       -0.52152352      -0.86212792      -2.17540588       0.00000000       0.00000000      -0.02454499      -0.00445456       0.02825731      -0.42825234
N       -1.06229130      -2.57888756      -3.51406728       0.00000000       0.00000000      -0.01713734       0.06503885      -0.14676058      -0.03750935
C       -0.11906516      -2.03510308      -4.51384875       0.00000000       0.00000000       0.03100678      -0.00154290      -0.02010962      -0.01946655
C        0.97652267      -2.99528406      -5.00017754       0.00000000       0.00000000      -0.06810113      -0.00948458       0.08251957      -0.06709279
C        1.65127154      -2.53497494      -6.30091706       0.00000000       0.00000000      -0.03873150      -0.04521225       0.03457951      -0.06484495
C        2.47022274      -1.25520659      -6.20832589       0.00000000       0.00000000      -0.04316041      -0.01546870       0.02730295      -0.11195150
C       -1.79828381      -3.75393079      -3.96537073       0.00000000       0.00000000      -0.00966047       0.02563131      -0.02498980      -0.02246152
C       -2.66737923      -3.54379180      -5.22455526       0.00000000       0.00000000       0.06092138      -0.05456090       0.00404444      -0.07511159
C       -3.84061148      -2.56415742      -5.13148044       0.00000000       0.00000000       0.04141461      -0.06439642       0.03247022      -0.06306623
C       -3.45508552      -1.09410789      -5.00545505       0.00000000       0.00000000      -0.00029078      -0.00775680       0.00325200      -0.10775175
N       -1.96981470      -1.41695191      -0.21297401       0.00000000       0.00000000      -0.02344351       0.01931057       0.03596820      -0.15843963
C       -2.86008593      -1.26941340       0.77966621       0.00000000       0.00000000      -0.16683434      -0.03828679       0.02073572       0.09261013
C       -2.57172556      -0.39699817       1.90411894       0.00000000       0.00000000      -0.13740656       0.00067654       0.09443792       0.08940251
N       -1.42944295       0.29654107       1.93905544       0.00000000       0.00000000      -0.03296179      -0.03612920      -0.00418389      -0.12936058
H        3.68821235      -0.82594979       5.49554155       0.00000000       0.00000000       0.00359761       0.02071495      -0.02184367       0.05406627
H        3.02403985       0.34384331       4.36402584       0.00000000       0.00000000      -0.02444599      -0.03619450      -0.00739850       0.03092045
H        2.10838281      -1.11009280       4.76137957       0.00000000       0.00000000       0.00642086       0.03774380      -0.04322441       0.02495155
H        2.77288264       1.12980659       6.72687487       0.00000000       0.00000000      -0.02401238       0.05816266      -0.01326149       0.05414362
H        1.97850536      -0.37113805       7.14413020       0.00000000       0.00000000      -0.01850533      -0.01925683       0.00380061       0.05605500
H        0.25038415       1.18225292       6.97697455       0.00000000       0.00000000      -0.03318977      -0.05407977      -0.02129951       0.06679762
H        0.12654945       0.20012109       5.50929105       0.00000000       0.00000000       0.02775034       0.01867935       0.01580601       0.03510747
H        1.57393112       2.86440610       5.65058068       0.00000000       0.00000000      -0.01099489      -0.02016731       0.01476100       0.09778784
H       -0.15058220       2.84625239       5.39844126       0.00000000       0.00000000      -0.01901385      -0.08581774      -0.03740285       0.06425990
H        2.41372381       2.63711176       2.33141240       0.00000000       0.00000000      -0.02638894       0.03366398       0.07668986       0.08012207
H        3.09681759       2.46817235       3.95910207       0.00000000       0.00000000      -0.00186238       0.06578991       0.00923686       0.07392976
H        2.98957556       4.82643573       3.14581249       0.00000000       0.00000000      -0.03950368       0.06964434       0.00721085       0.06826605
H        2.13287702       4.61676543       4.66391781       0.00000000       0.00000000      -0.01950924       0.01321507      -0.06550375       0.05764116
H       -0.03876836       4.44590828       3.39927262       0.00000000       0.00000000       0.00385343      -0.02877050      -0.00263877       0.01806132
H        0.85373035       4.70791687       1.89978949       0.00000000       0.00000000      -0.03323805      -0.00850564       0.03615844       0.03611734
H        0.67464234       6.67832680       4.23670208       0.00000000       0.00000000       0.03227508      -0.03870486      -0.04305478       0.05211986
H       -0.19943296       6.80059902       2.71578759       0.00000000       0.00000000       0.02602365       0.01837803      -0.00061003       0.04506294
H        1.55981969       6.95936543       2.73889078       0.00000000       0.00000000      -0.01147511      -0.01569286       0.02183578       0.05008330
H       -1.68844463       1.68596315       4.98563018       0.00000000       0.00000000       0.00352037       0.02531602      -0.01812668       0.09152046
H       -3.89474736       0.65412923       4.83518046       0.00000000       0.00000000      -0.01312590       0.02214280       0.05744687       0.09618734
H       -5.47164220      -0.83511840       3.67972632       0.00000000       0.00000000      -0.03768663      -0.00636379      -0.04210447       0.09329891
H       -6.01447076      -2.25038929       1.71746682       0.00000000       0.00000000       0.01458011       0.01458943       0.02627466       0.09247767
H       -5.36873653      -3.17137115      -0.45906659       0.00000000       0.00000000      -0.04268345      -0.05207868      -0.02612439       0.09608013
H       -3.82305498      -3.26795832      -2.32786508       0.00000000       0.00000000       0.02666356       0.04020151      -0.01353678       0.09299374
H        0.34108906      -1.14649378      -4.07697643       0.00000000       0.00000000      -0.02872955      -0.07032848       0.00517149       0.07198616
H       -0.71246098      -1.71671365      -5.37452477       0.00000000       0.00000000       0.01765518      -0.04241782       0.00673154       0.08633639
H        0.54685199      -3.97264232      -5.22060790       0.00000000       0.00000000       0.00549306       0.00960943       0.04898444       0.05788055
H        1.73113050      -3.13029551      -4.22015317       0.00000000       0.00000000      -0.03302075       0.03932000       0.00540405       0.02963871
H        0.89967913      -2.42516698      -7.08345569       0.00000000       0.00000000      -0.05410910       0.01257610       0.03481149       0.05226484
H        2.32075876      -3.33757750      -6.61037713       0.00000000       0.00000000       0.00347147      -0.03544945      -0.04560688       0.06096148
H        1.85603471      -0.40133017      -5.93036015       0.00000000       0.00000000      -0.00903865      -0.00173389       0.03237015       0.02287864
H        2.91481083      -1.04998334      -7.17920595       0.00000000       0.00000000       0.00110104       0.01542558       0.05235463       0.06455666
H        3.26996516      -1.37318675      -5.48151996       0.00000000       0.00000000      -0.03000535       0.02277774      -0.02129205       0.03000999
H       -2.39480744      -4.16916369      -3.15603101       0.00000000       0.00000000       0.07109884       0.10547932       0.00632959       0.06435258
H       -1.05411372      -4.51634080      -4.21722857       0.00000000       0.00000000      -0.02976880       0.01284439       0.01281871       0.07843154
H       -3.07262119      -4.52978575      -5.46182214       0.00000000       0.00000000      -0.02236538       0.00309558       0.02378513       0.07087035
H       -2.04015520      -3.26507163      -6.07235352       0.00000000       0.00000000       0.03468148       0.02852826       0.06518093       0.06310725
H       -4.49272745      -2.84619205      -4.30521850       0.00000000       0.00000000      -0.05134879       0.01197135       0.04412672       0.03534288
H       -4.42612005      -2.67877511      -6.04566078       0.00000000       0.00000000       0.02160946      -0.01884852       0.01869282       0.06727862
H       -2.93404508      -0.88507906      -4.07215051       0.00000000       0.00000000      -0.01146532       0.01853102      -0.01686114       0.00974088
H       -4.35442408      -0.48464075      -5.03378892       0.00000000       0.00000000      -0.00030679       0.00958642       0.00306946       0.05277284
H       -2.82541598      -0.79151276      -5.83958422       0.00000000       0.00000000      -0.01843925      -0.00318233       0.01262740       0.04370786
C        3.46914785      -3.60590215       3.85382223       0.00000000       0.00000000      -0.00242355      -0.01408017      -0.00230344      -0.10912261
C        3.07602958      -5.07714404       3.83335705       0.00000000       0.00000000      -0.05951749      -0.02972049      -0.01497375      -0.06317324
C        1.59700768      -5.34423243       4.11906800       0.00000000       0.00000000      -0.06643317      -0.02536271       0.01132378      -0.07400953
C        0.57713875      -4.92051496       3.04462925       0.00000000       0.00000000       0.03200543       0.00685958       0.01238018      -0.01911255
N        0.37416411      -3.48537749       2.89456512       0.00000000       0.00000000       0.02277578      -0.00409526       0.13270371      -0.04171911
C       -0.24933056      -2.83705207       4.06011262       0.00000000       0.00000000      -0.03245718      -0.01861039       0.03766168      -0.01481345
C       -1.69322732      -3.24714935       4.37490349       0.00000000       0.00000000       0.06003896      -0.03266918      -0.07263764      -0.06649016
C       -2.20449974      -2.51663458       5.62223534       0.00000000       0.00000000       0.00689736      -0.05369334      -0.05921715      -0.05820807
C       -3.65101303      -2.88228483       5.93485025       0.00000000       0.00000000      -0.01289914      -0.01603663      -0.00728633      -0.11492798
C        0.69144794      -2.68477829       1.87532889       0.00000000       0.00000000      -0.03674610       0.08095239       0.05928019       0.25015787
O        0.28859152      -1.49800094       1.88568608       0.00000000       0.00000000       0.04984577      -0.03664896       0.03687564      -0.41243957
C        1.59767315      -2.97741708       0.69879423       0.00000000       0.00000000      -0.04989307      -0.00820202       0.00708204       0.07625177
C        2.41550242      -4.08909030       0.46152603       0.00000000       0.00000000      -0.01902836      -0.01627479      -0.02532523      -0.03171141
C        3.30346158      -4.05202849      -0.58839415       0.00000000       0.00000000       0.02601916      -0.07601153      -0.02749769      -0.00514980
C        3.41017745      -2.90932949      -1.39107961       0.00000000       0.00000000       0.01383624      -0.01302780       0.00787990       0.02259323
C        4.37611190      -2.79742858      -2.43012958       0.00000000       0.00000000       0.03225417      -0.07045897      -0.03357609      -0.02274381
C        4.49276277      -1.65111185      -3.13947003       0.00000000       0.00000000       0.02724138       0.01934585      -0.08733234      -0.02133168
C        3.62943286      -0.54569763      -2.88778933       0.00000000       0.00000000       0.09299800       0.02141955      -0.00504216       0.02578638
C        3.74879495       0.66692360      -3.58367586       0.00000000       0.00000000       0.03225441       0.00829452      -0.01910630      -0.00372241
C        2.87464384       1.69954880      -3.33719002       0.00000000       0.00000000       0.04949247      -0.03330238       0.00844388      -0.03604203
C        1.86411160       1.50915332      -2.38496980       0.00000000       0.00000000      -0.05247351       0.10601893       0.01664556       0.07893207
C        0.77803806       2.48241153      -2.00255390       0.00000000       0.00000000      -0.10452296      -0.01258731       0.11771033       0.25485220
O        0.16989720       2.22217994      -0.93468944       0.00000000       0.00000000       0.07391462      -0.04032194      -0.06693794      -0.39085962
N        0.42237586       3.56422620      -2.69527908       0.00000000       0.00000000      -0.04410886       0.12918122      -0.02288483      -0.04042050
C        0.62356129       3.85645935      -4.11254547       0.00000000       0.00000000      -0.00437213       0.00153321      -0.04828655      -0.01963853
C        1.24503641       5.23509015      -4.40840547       0.00000000       0.00000000      -0.09166365      -0.02906017      -0.03575680      -0.07509121
C        2.77160427       5.30880564      -4.42448546       0.00000000       0.00000000      -0.03022394      -0.03464381      -0.00813748      -0.06152670
C        3.39436919       4.69137778      -5.67066780       0.00000000       0.00000000       0.01830038      -0.01485870      -0.01673634      -0.11380468
C       -0.61803739       4.40625522      -2.08561742       0.00000000       0.00000000      -0.04650453       0.03453757       0.00023039      -0.01095973
C       -0.28841848       5.03092602      -0.72300987       0.00000000       0.00000000      -0.01902972      -0.07721340      -0.03958491      -0.06910494
C        0.95586023       5.92166153      -0.69522007       0.00000000       0.00000000      -0.03971109      -0.02268835      -0.01947609      -0.06263787
C        2.26345574       5.13759288      -0.68931902       0.00000000       0.00000000       0.01203739       0.01111003       0.02311945      -0.10637048
N        1.79882694       0.39823955      -1.64925392       0.00000000       0.00000000       0.01312984      -0.03535500      -0.03912693      -0.13359834
C        2.63184062      -0.62375709      -1.88798788       0.00000000       0.00000000       0.11960114       0.04419058      -0.05064566       0.08828551
C        2.53308613      -1.83611293      -1.10026630       0.00000000       0.00000000       0.10978386      -0.05327802      -0.04806287       0.08980330
N        1.65262181      -1.90111935      -0.09567377       0.00000000       0.00000000      -0.02871681      -0.01265215      -0.06438315      -0.15968733
H        4.53936441      -3.51163466       3.69154787       0.00000000       0.00000000       0.00776117       0.00727469       0.01831312       0.05087210
H        3.23729465      -3.17571407       4.82436966       0.00000000       0.00000000       0.02097688      -0.02237120      -0.01735058       0.04900690
H        2.96128162      -3.02828084       3.08354396       0.00000000       0.00000000       0.02011885      -0.00245552       0.01743800       0.00945096
H        3.65134452      -5.58427307       4.60959302       0.00000000       0.00000000      -0.01734326      -0.02943125      -0.01970730       0.06611587
H        3.35805458      -5.53262740       2.88416580       0.00000000       0.00000000       0.03421761      -0.01563678      -0.03370229       0.03469671
H        1.33609561      -4.89672271       5.07879849       0.00000000       0.00000000      -0.00690416       0.02700867      -0.03443364       0.06030943
H        1.46569931      -6.42119650       4.23869643       0.00000000       0.00000000       0.01894685      -0.01722068      -0.02228425       0.07031525
H       -0.39350721      -5.33518041       3.33991698       0.00000000       0.00000000       0.05718999       0.02433085       0.00167133       0.07845845
H        0.82251189      -5.37346188       2.08609435       0.00000000       0.00000000       0.01928709       0.09396717      -0.00507544       0.06122087
H       -0.21820098      -1.75817892       3.88333855       0.00000000       0.00000000      -0.00163607      -0.10149259       0.01554458       0.06965609
H        0.37277620      -3.05750378       4.93175512       0.00000000       0.00000000      -0.01381689      -0.05079939      -0.03663418       0.07886830
H       -1.74941850      -4.31935245       4.57106181       0.00000000       0.00000000      -0.01640636       0.03324143      -0.02294332       0.05959139
H       -2.34362478      -3.02367182       3.52341231       0.00000000       0.00000000       0.06145131       0.01218403       0.00393016       0.02761245
H       -2.12539202      -1.43508342       5.48070233       0.00000000       0.00000000       0.02933796      -0.03826237      -0.02061772       0.02029091
H       -1.58289959      -2.78960952       6.47644916       0.00000000       0.00000000       0.01862796       0.03121478      -0.01982733       0.05381804
H       -4.30946791      -2.63051601       5.10550986       0.00000000       0.00000000       0.03785841      -0.00776765      -0.00999538       0.03181070
H       -3.99022188      -2.34965054       6.81831375       0.00000000       0.00000000       0.00439938       0.01040913       0.00450672       0.05980598
H       -3.74595918      -3.94659824       6.13258954       0.00000000       0.00000000       0.02211048       0.00360816      -0.01362464       0.05775670
H        2.39169532      -4.96850417       1.07871690       0.00000000       0.00000000      -0.01281867       0.04258987       0.04640543       0.09353752
H        3.94459099      -4.89533133      -0.78927640       0.00000000       0.00000000       0.03890179      -0.05656635       0.01468312       0.09516118
H        5.01772376      -3.64407663      -2.62240692       0.00000000       0.00000000       0.01886738       0.03600626      -0.00109726       0.09232766
H        5.24123167      -1.54629684      -3.91009868       0.00000000       0.00000000       0.02359950      -0.02180544       0.01105562       0.09196080
H        4.53205629       0.77418925      -4.31606514       0.00000000       0.00000000       0.05804195       0.05233956      -0.04822523       0.09672647
H        3.00534356       2.63225328      -3.85711187       0.00000000       0.00000000      -0.00254589       0.01453683       0.06125963       0.10232925
H       -0.38491967       3.84747363      -4.54657630       0.00000000       0.00000000       0.06255195      -0.00814068      -0.06578557       0.06879475
H        1.18512244       3.05838061      -4.59666601       0.00000000       0.00000000      -0.02137737       0.05713097       0.08160057       0.06589860
H        0.86914768       5.96581039      -3.69299011       0.00000000       0.00000000       0.01170569      -0.05192665       0.02964892       0.06134409
H        0.88038489       5.54930257      -5.38679572       0.00000000       0.00000000       0.02324349      -0.02595387      -0.05900058       0.07073997
H        3.18112490       4.85121668      -3.52275325       0.00000000       0.00000000       0.05353094      -0.02108648       0.00708717       0.03053502
H        3.04861650       6.36368489      -4.39977444       0.00000000       0.00000000       0.00688801      -0.02197247       0.01272820       0.06224982
H        3.16226776       3.63203201      -5.77819271       0.00000000       0.00000000      -0.01165817       0.02669529      -0.01202921       0.02210603
H        4.47452333       4.80132591      -5.62788376       0.00000000       0.00000000       0.00496292      -0.02461169      -0.04555170       0.05508684
H        3.03822302       5.20175549      -6.56235041       0.00000000       0.00000000       0.01836334      -0.00707117       0.02986970       0.05661630
H       -1.53074177       3.80359414      -1.98089876       0.00000000       0.00000000       0.05244686      -0.00202070       0.00793836       0.04670037
H       -0.84056110       5.21176477      -2.78334844       0.00000000       0.00000000       0.04172280      -0.01635353      -0.02380387       0.08501118
H       -0.18412139       4.24362852       0.02634712       0.00000000       0.00000000       0.00715932      -0.00344483       0.00088846       0.05579749
H       -1.16254543       5.63393165      -0.45867245       0.00000000       0.00000000       0.07799308      -0.03219196      -0.00342100       0.05685173
H        0.90683008       6.53464187       0.20552841       0.00000000       0.00000000       0.02479945      -0.01045616      -0.00777643       0.05943648
H        0.94048911       6.60589546      -1.54342686       0.00000000       0.00000000       0.00840194       0.01406932      -0.02279372       0.04875406
H        2.29850398       4.44218420       0.14795817       0.00000000       0.00000000      -0.02210865      -0.00791501      -0.01590443       0.02923928
H        3.10517270       5.81752119      -0.59919812       0.00000000       0.00000000       0.00643531       0.03947158       0.01930539       0.05416916
H        2.38772133       4.56982229      -1.60641832       0.00000000       0.00000000       0.02822371       0.02611215       0.04897320       0.02476886
O       -2.29107926       1.28262730      -0.64564928       0.00000000       0.00000000       0.04576164       0.13566410      -0.04969047      -0.50352818
H       -2.25409869       2.16462130      -0.24304831       0.00000000       0.00000000      -0.06608149       0.00034313      -0.02059207       0.34519443
H       -2.30562381       1.43185175      -1.60239503       0.00000000       0.00000000      -0.09450916      -0.00990812       0.02830058       0.33357188
