272
Properties=species:S:1:pos:R:3:initial_charges:R:1:initial_magmoms:R:1:forces:R:3:charge:R:1 energy=-8896.780486639036 free_energy=-8896.780486639036 dipole="-0.7278966988952971 -0.7457409696558497 0.492496162015898" pbc="F F F"
Sm      -0.09439880       0.11127435      -0.17824866       3.00000000       0.00000000      -0.07787343       0.08415354       0.02311215       0.86890689
C       -7.74368360       5.08358011       0.55892950       0.00000000       0.00000000       0.01230240       0.00572425      -0.00985099      -0.10954274
C       -6.46908201       4.88567992      -0.25435590       0.00000000       0.00000000      -0.02029467      -0.00863322       0.03230075      -0.05773066
C       -5.58583683       3.79930154       0.35887475       0.00000000       0.00000000       0.01893427       0.01354815      -0.02119722      -0.06112934
C       -4.26172130       3.59860947      -0.38458111       0.00000000       0.00000000       0.00020357      -0.00732637      -0.06056583      -0.06491229
C       -4.41533395       3.13021527      -1.83857041       0.00000000       0.00000000       0.00400686      -0.01274553      -0.00895600      -0.07265262
C       -5.15901021       1.81120512      -2.07193953       0.00000000       0.00000000       0.00378498       0.08164076      -0.00247203      -0.07010460
C       -4.43769961       0.53662964      -1.62069917       0.00000000       0.00000000      -0.03148044       0.08549454      -0.10221340      -0.07176013
C       -4.45927208       0.30922923      -0.10812375       0.00000000       0.00000000      -0.01260122       0.00804433      -0.07554590      -0.01473377
N       -4.26030640      -1.08943350       0.23035631       0.00000000       0.00000000       0.02067083      -0.01322334       0.12257591      -0.05888983
C       -5.42274423      -1.94660538       0.13399670       0.00000000       0.00000000      -0.02404374       0.03341298      -0.00331129      -0.07459108
C       -3.07118911      -1.49747397       0.67856436       0.00000000       0.00000000       0.03396868      -0.12696149       0.01146556       0.27093948
O       -2.06698169      -0.76928812       0.62432076       0.00000000       0.00000000      -0.02370328      -0.00248011      -0.02556154      -0.36195943
C       -3.05542420      -2.90397855       1.26954638       0.00000000       0.00000000       0.12083801       0.01640250       0.09809672      -0.12126037
C       -1.90883530      -3.12143995       2.26923802       0.00000000       0.00000000       0.01402262       0.05744024       0.03235766       0.26515045
O       -1.00969963      -2.29835434       2.39558951       0.00000000       0.00000000       0.05240655       0.01114354      -0.03453329      -0.44712270
N       -1.94596756      -4.28561589       2.95433643       0.00000000       0.00000000      -0.04629428       0.03389076      -0.04950674      -0.09028586
C       -3.11941578      -5.14032670       2.93775535       0.00000000       0.00000000       0.00470268      -0.02136879       0.00751141      -0.06755247
C       -0.87995322      -4.63908639       3.90228287       0.00000000       0.00000000      -0.03237785       0.03668359      -0.05190380      -0.01449968
C       -0.15519539      -5.94830851       3.52620391       0.00000000       0.00000000       0.02926317       0.00836088       0.07947428      -0.08159678
C        1.18035305      -6.23510251       4.24299177       0.00000000       0.00000000       0.06072197      -0.02317163       0.05100151      -0.07228359
C        2.49961569      -5.76506783       3.60412980       0.00000000       0.00000000       0.03697198      -0.00544252      -0.08143213      -0.06960152
C        2.89917771      -6.44979831       2.29183521       0.00000000       0.00000000      -0.00763536      -0.03081954      -0.08201570      -0.06162312
C        4.40997127      -6.43850043       2.01076743       0.00000000       0.00000000      -0.05259099       0.10462352       0.02709818      -0.06618209
C        5.03643634      -5.04837311       1.81237828       0.00000000       0.00000000      -0.02589055       0.07366578      -0.04107912      -0.06107429
C        4.82708792      -4.41781299       0.42387726       0.00000000       0.00000000       0.10806481      -0.15109554      -0.07235705      -0.10169696
H       -8.34749589       5.87493225       0.12317757       0.00000000       0.00000000       0.00050908      -0.02520730       0.01698527       0.05203269
H       -7.50928250       5.35891735       1.58573213       0.00000000       0.00000000      -0.00905394      -0.00743153      -0.03860036       0.03904724
H       -8.33549998       4.16952111       0.57337683       0.00000000       0.00000000       0.01786799       0.04492403       0.00820238       0.03726556
H       -5.91241872       5.82557051      -0.29290800       0.00000000       0.00000000      -0.02448088      -0.04024905      -0.00936353       0.03599763
H       -6.74215014       4.61196791      -1.27546850       0.00000000       0.00000000       0.00527503       0.02539726       0.04431002       0.03750488
H       -6.14547847       2.86275649       0.39626000       0.00000000       0.00000000       0.01813434       0.02196989      -0.00502770       0.03074154
H       -5.35702687       4.07781701       1.39079958       0.00000000       0.00000000      -0.01250593       0.00641808      -0.00473200       0.03222993
H       -3.64234142       2.89848033       0.18804877       0.00000000       0.00000000      -0.01027292       0.03213044      -0.01976682       0.00825148
H       -3.73901436       4.55981467      -0.40378086       0.00000000       0.00000000      -0.00519388      -0.01134292       0.00674247       0.03340663
H       -3.42733983       3.05637366      -2.30563461       0.00000000       0.00000000      -0.03410624       0.00873606       0.01255777       0.02435853
H       -4.95949197       3.90875035      -2.37674681       0.00000000       0.00000000       0.04140785      -0.04120147       0.00721701       0.06075953
H       -5.32873327       1.73306161      -3.14960240       0.00000000       0.00000000       0.01633363      -0.01924266       0.05618164       0.04948126
H       -6.14290081       1.85605727      -1.60323277       0.00000000       0.00000000       0.03443453       0.00033379       0.00246613       0.05662332
H       -3.40268632       0.53499569      -1.97151890       0.00000000       0.00000000      -0.00700579       0.02013445       0.01885517       0.05552314
H       -4.95262795      -0.30367021      -2.09252684       0.00000000       0.00000000       0.02773383      -0.01121677      -0.00252173       0.04587356
H       -5.42592977       0.60843707       0.30229872       0.00000000       0.00000000      -0.00548737       0.03338434       0.01573549       0.07505348
H       -3.66721236       0.87503054       0.38609641       0.00000000       0.00000000      -0.00487933      -0.02626913      -0.00536086       0.07751866
H       -6.15055830      -1.47159634      -0.51827256       0.00000000       0.00000000      -0.03858157       0.02840595       0.00340781       0.09616470
H       -5.89160544      -2.09316280       1.11008865       0.00000000       0.00000000      -0.03165560      -0.03551547      -0.02483249       0.07706485
H       -5.16727377      -2.91102084      -0.30212845       0.00000000       0.00000000      -0.02110042      -0.01190879       0.04181668       0.07118301
H       -2.95437604      -3.62525166       0.45431534       0.00000000       0.00000000       0.02595099      -0.03258911       0.00557388       0.08184351
H       -4.00746645      -3.09123786       1.76399516       0.00000000       0.00000000       0.02536626       0.01574360       0.04494193       0.09090238
H       -3.38534526      -5.45596173       1.92774541       0.00000000       0.00000000       0.07012585      -0.01011330       0.02121818       0.06136836
H       -3.98003965      -4.63519317       3.38457528       0.00000000       0.00000000       0.02966303      -0.02647732       0.01564704       0.06637381
H       -2.91584967      -6.03007347       3.52290798       0.00000000       0.00000000       0.02668173      -0.03847061       0.03484523       0.09270896
H       -1.32353439      -4.75733000       4.89502529       0.00000000       0.00000000       0.00941589       0.05439162      -0.00617528       0.06502268
H       -0.21002599      -3.78155049       3.93201236       0.00000000       0.00000000       0.07566535      -0.03232777       0.01564506       0.07149749
H        0.01593367      -5.99366578       2.45901290       0.00000000       0.00000000       0.00530165      -0.00972339       0.03053528       0.04737064
H       -0.82571136      -6.77168919       3.77563340       0.00000000       0.00000000      -0.00514107      -0.01008256      -0.02724685       0.05087999
H        1.25540105      -7.31820270       4.32785666       0.00000000       0.00000000       0.02112139      -0.07729752       0.04994429       0.05960523
H        1.14097859      -5.84732910       5.26153861       0.00000000       0.00000000      -0.08200991       0.06827389       0.01409242       0.04449048
H        3.28552933      -5.95709396       4.33792522       0.00000000       0.00000000      -0.03586468      -0.08578251      -0.00714706       0.05497892
H        2.50176258      -4.69460903       3.42542891       0.00000000       0.00000000      -0.07616494       0.05497714       0.05251192       0.02180024
H        2.40427786      -5.96214422       1.44993788       0.00000000       0.00000000      -0.04842576       0.03225819      -0.02959375       0.01149511
H        2.56682799      -7.48790763       2.30557068       0.00000000       0.00000000       0.02464776      -0.06034313       0.06022773       0.04193894
H        4.58655983      -7.04415492       1.11581619       0.00000000       0.00000000       0.06476498       0.06933977       0.11521341       0.04364516
H        4.93310979      -6.91809951       2.84171731       0.00000000       0.00000000      -0.12186995      -0.02978840      -0.03802245       0.04615844
H        6.10977572      -5.15589306       1.97720716       0.00000000       0.00000000      -0.04069487      -0.01605072      -0.03660556       0.04718312
H        4.66889745      -4.36813873       2.58223979       0.00000000       0.00000000       0.01616737      -0.02295631       0.02466671       0.02907817
H        4.50311735      -5.17273540      -0.29255691       0.00000000       0.00000000      -0.04134561       0.08438878       0.03296908       0.03886305
H        5.76584282      -4.01039138       0.05082341       0.00000000       0.00000000      -0.04998180      -0.02162023       0.04675944       0.04624916
H        4.11066443      -3.59197857       0.42052939       0.00000000       0.00000000       0.02874086      -0.16811105       0.03878775       0.00826074
C        0.26201596      -2.83858599      -9.65402712       0.00000000       0.00000000       0.00093483      -0.01093701      -0.02008838      -0.10780050
C       -0.19161825      -1.39935474      -9.44504008       0.00000000       0.00000000       0.00351730       0.00176032      -0.00269837      -0.05087238
C       -1.67178282      -1.18881054      -9.76509577       0.00000000       0.00000000      -0.01355551       0.01632994      -0.01843044      -0.06871489
C       -2.61665369      -1.84285126      -8.74470698       0.00000000       0.00000000      -0.01551987       0.00512013       0.01116727      -0.06421510
C       -3.66242486      -0.87534832      -8.18341367       0.00000000       0.00000000      -0.02302675       0.02740786       0.02054224      -0.06918845
C       -3.10629344       0.24665267      -7.29611129       0.00000000       0.00000000       0.01013358       0.01982897       0.03576671      -0.06753511
C       -3.07605077      -0.07485460      -5.79731858       0.00000000       0.00000000       0.03317404      -0.04011960      -0.00812820      -0.06805073
C       -2.06669404      -1.18162121      -5.47287658       0.00000000       0.00000000      -0.00872273      -0.00227066      -0.00186852      -0.02500929
N       -1.86035271      -1.35487369      -4.04220086       0.00000000       0.00000000       0.00508789       0.02347052      -0.01660082      -0.04725763
C       -2.68588331      -2.38368231      -3.43276281       0.00000000       0.00000000       0.02738512       0.04088622      -0.01381842      -0.06227041
C       -1.15663689      -0.53950420      -3.25474896       0.00000000       0.00000000      -0.04720804       0.04519372      -0.04756801       0.27384672
O       -1.25578200      -0.61466342      -2.01444944       0.00000000       0.00000000       0.10939119      -0.00673416      -0.01729903      -0.38386075
C       -0.28247275       0.52903636      -3.90307765       0.00000000       0.00000000       0.00024234      -0.02071282       0.02853732      -0.12749744
C        1.08534997       0.69451634      -3.22075169       0.00000000       0.00000000      -0.01161642       0.01641708      -0.04851761       0.27022687
O        1.18306575       0.63131113      -1.98733802       0.00000000       0.00000000      -0.01621602      -0.04447429      -0.03049642      -0.35759517
N        2.12726336       0.98531500      -3.99880450       0.00000000       0.00000000       0.00231993      -0.05415572      -0.02232418      -0.04840440
C        2.00188532       1.25726031      -5.42079776       0.00000000       0.00000000       0.02320399       0.01011148      -0.00537267      -0.07782143
C        3.45344535       1.20811912      -3.41046732       0.00000000       0.00000000      -0.02109724       0.00075443      -0.00328748      -0.01679635
C        3.95983901       0.13122440      -2.44317526       0.00000000       0.00000000      -0.00528208      -0.00192007       0.02507260      -0.06620676
C        5.49682407       0.12024552      -2.45409710       0.00000000       0.00000000      -0.03192714       0.00831115      -0.02338727      -0.06911695
C        6.14514767      -0.81285198      -1.41939013       0.00000000       0.00000000      -0.04052400       0.04392934      -0.01536278      -0.06442827
C        6.61765382      -0.11717568      -0.14140010       0.00000000       0.00000000      -0.02651600       0.00886052       0.02491937      -0.06518474
C        5.48987024       0.28390789       0.80466369       0.00000000       0.00000000      -0.02603638      -0.00855141       0.07981211      -0.05382490
C        6.02446807       0.88357853       2.10457446       0.00000000       0.00000000       0.02620374       0.08633383      -0.00515647      -0.06217398
C        4.90146035       1.18768989       3.09000233       0.00000000       0.00000000       0.05662100      -0.00945448      -0.04019630      -0.09935093
H        1.31399285      -2.94681693      -9.40081329       0.00000000       0.00000000       0.00925940      -0.00348696      -0.02676715       0.03270128
H        0.13313561      -3.12585004     -10.69285743       0.00000000       0.00000000      -0.00381835       0.00997133      -0.02802372       0.04949379
H       -0.30960303      -3.53101076      -9.04177697       0.00000000       0.00000000      -0.02418968       0.00235916      -0.02299746       0.03334424
H        0.40096543      -0.74949848     -10.09063886       0.00000000       0.00000000       0.01452666       0.00468513      -0.00991578       0.03685923
H        0.00425612      -1.09948222      -8.41015077       0.00000000       0.00000000       0.00813329       0.00956676       0.01220010       0.00545296
H       -1.86961863      -1.58768868     -10.75831377       0.00000000       0.00000000      -0.00019472      -0.00991428      -0.03643585       0.04958130
H       -1.86971861      -0.11725662      -9.81289833       0.00000000       0.00000000      -0.00456186       0.02464023       0.01746063       0.03731425
H       -2.02635654      -2.26851588      -7.93475156       0.00000000       0.00000000       0.01012346      -0.00273328       0.02669805       0.02360270
H       -3.15159073      -2.66923257      -9.21174083       0.00000000       0.00000000       0.00336610      -0.01396034      -0.03676586       0.04306347
H       -4.41328285      -1.43564389      -7.62308565       0.00000000       0.00000000      -0.00761985      -0.02043767       0.01702238       0.03446218
H       -4.17636144      -0.42156630      -9.03021156       0.00000000       0.00000000      -0.01060004       0.00297279      -0.02912129       0.05406465
H       -3.73067137       1.13210148      -7.41908379       0.00000000       0.00000000      -0.01841451       0.00132260      -0.01154995       0.05050880
H       -2.10187505       0.51242769      -7.62914989       0.00000000       0.00000000       0.00300877       0.00082214      -0.00087609       0.04508081
H       -4.07341441      -0.38095295      -5.47448713       0.00000000       0.00000000       0.02893802       0.01401967      -0.01214906       0.04827991
H       -2.81160976       0.83110140      -5.24307265       0.00000000       0.00000000      -0.00867653      -0.05064398      -0.03785708       0.03044933
H       -1.12408460      -0.96801580      -5.97783534       0.00000000       0.00000000      -0.00866544      -0.04619905       0.01240889       0.06903832
H       -2.43742295      -2.12906336      -5.86019240       0.00000000       0.00000000      -0.02088997      -0.00029571       0.01913494       0.08901915
H       -2.49609673      -3.34010904      -3.92116403       0.00000000       0.00000000       0.01794812       0.02772494      -0.01015846       0.07674687
H       -3.74098649      -2.13853623      -3.54879306       0.00000000       0.00000000      -0.03994524       0.01049001      -0.00434931       0.07519191
H       -2.44531177      -2.45775720      -2.37399847       0.00000000       0.00000000       0.02430436       0.03586743      -0.00214918       0.07731237
H       -0.79830881       1.48194412      -3.74133883       0.00000000       0.00000000      -0.02721996       0.02283342      -0.05875066       0.11666860
H       -0.17681480       0.35591614      -4.96650957       0.00000000       0.00000000      -0.00537637       0.00522106       0.03277835       0.09653281
H        1.18099763       1.94592055      -5.62394991       0.00000000       0.00000000       0.01781781      -0.03204956      -0.00209345       0.07282610
H        1.86864822       0.33775532      -5.99542525       0.00000000       0.00000000       0.01041625       0.03206518       0.00892359       0.07984205
H        2.91473203       1.73388033      -5.76657726       0.00000000       0.00000000       0.00019843      -0.00874792      -0.05221711       0.09554373
H        3.44709299       2.18195357      -2.91304066       0.00000000       0.00000000       0.00336520       0.00857453       0.04308255       0.06034076
H        4.15780123       1.26508580      -4.23951396       0.00000000       0.00000000       0.00503478      -0.02810759      -0.03297454       0.07771089
H        3.57842493      -0.84357823      -2.75233031       0.00000000       0.00000000       0.06022501      -0.00891678      -0.03548420       0.04883868
H        3.58240779       0.31809137      -1.43719147       0.00000000       0.00000000      -0.03658303      -0.02026341       0.01849104       0.06509146
H        5.86983574       1.13442718      -2.29951620       0.00000000       0.00000000      -0.04023569      -0.01870022       0.01733234       0.04658548
H        5.82982925      -0.18533942      -3.44788869       0.00000000       0.00000000      -0.06249069      -0.01736609      -0.02496002       0.04138581
H        7.02086963      -1.26880365      -1.87922145       0.00000000       0.00000000       0.03157385      -0.03265892      -0.02222842       0.04881809
H        5.45588172      -1.61837459      -1.16394009       0.00000000       0.00000000      -0.04232153      -0.01702664      -0.00259981       0.03464692
H        7.20696238       0.76193958      -0.40634895       0.00000000       0.00000000      -0.01479506       0.03475363      -0.00905411       0.04189083
H        7.28608463      -0.79374361       0.39399521       0.00000000       0.00000000      -0.00860855      -0.04122025       0.00410238       0.04218570
H        4.89170600      -0.59736653       1.04567421       0.00000000       0.00000000      -0.05117808      -0.09110793      -0.03191954       0.01893684
H        4.82410390       1.00423961       0.32136449       0.00000000       0.00000000       0.00502384      -0.02304456       0.02440799       0.02234036
H        6.56460078       1.80151670       1.88205615       0.00000000       0.00000000       0.05700069       0.03295643      -0.03040989       0.04625288
H        6.74229256       0.19952661       2.56037187       0.00000000       0.00000000      -0.07811518      -0.04823073       0.00989386       0.04168759
H        5.29109047       1.61225135       4.01318019       0.00000000       0.00000000       0.01178558      -0.00277143      -0.06607931       0.04354836
H        4.37318475       0.26829550       3.32759735       0.00000000       0.00000000       0.01885092      -0.01231027       0.07754850       0.02586681
H        4.19331841       1.89577381       2.65208483       0.00000000       0.00000000       0.07717159      -0.02292485       0.03394732       0.01119077
C        5.99488392      -3.95499307       5.36618956       0.00000000       0.00000000      -0.01213315      -0.00331318       0.02862609      -0.10315097
C        5.11498042      -4.35249865       6.54742913       0.00000000       0.00000000      -0.01598842      -0.01194815      -0.02884556      -0.05468330
C        5.04505890      -3.27226612       7.62813390       0.00000000       0.00000000       0.05086536      -0.05579215       0.01650524      -0.06704218
C        4.16292012      -2.06055798       7.30755548       0.00000000       0.00000000       0.05359581      -0.01157424      -0.01449685      -0.06148682
C        2.69626700      -2.22837431       7.72225141       0.00000000       0.00000000       0.00879391       0.00720648       0.02924678      -0.06670980
C        1.75659858      -2.79002093       6.65441579       0.00000000       0.00000000       0.00890244      -0.01547580      -0.04469786      -0.06503299
C        1.47615215      -1.76947128       5.53992074       0.00000000       0.00000000      -0.06103557       0.08326551      -0.02518818      -0.07037185
C        2.10859808      -2.14732504       4.20043393       0.00000000       0.00000000      -0.01913897      -0.02342682      -0.00518848      -0.01285490
N        1.71166827      -1.28036933       3.10584335       0.00000000       0.00000000       0.04222234      -0.05638451      -0.04516010      -0.04931547
C        1.64156160       0.15578661       3.34547337       0.00000000       0.00000000       0.04777309      -0.09416380       0.03670354      -0.05876024
C        1.49436896      -1.59281536       1.82543247       0.00000000       0.00000000      -0.00343838       0.00136280      -0.04527518       0.28207902
O        1.43124619      -0.63631940       1.02943432       0.00000000       0.00000000       0.03303676       0.07078188       0.03786302      -0.38200058
C        1.37299895      -3.01555989       1.28228481       0.00000000       0.00000000       0.07060200       0.03277658      -0.09078117      -0.11024100
C        0.79186525      -3.05376054      -0.14949094       0.00000000       0.00000000       0.07746483      -0.03969914       0.05290235       0.27431554
O        0.84893331      -2.07094300      -0.90069961       0.00000000       0.00000000      -0.04520428       0.00563245      -0.06636421      -0.37071582
N        0.34878726      -4.22925737      -0.63578708       0.00000000       0.00000000       0.03468839      -0.02301771       0.05225944      -0.07745276
C       -0.17434882      -5.30971451       0.16613841       0.00000000       0.00000000      -0.01005241      -0.02345794      -0.00062389      -0.06732704
C        0.48221047      -4.53776146      -2.05414151       0.00000000       0.00000000       0.09024804      -0.02787756       0.06673615      -0.00719731
C        1.28535008      -5.83650419      -2.24271251       0.00000000       0.00000000       0.05914348      -0.02986442      -0.01164714      -0.06858184
C        1.98424473      -5.88146636      -3.60271252       0.00000000       0.00000000      -0.00843598       0.00337290      -0.01145927      -0.07165323
C        3.21624235      -4.96876602      -3.70804980       0.00000000       0.00000000       0.00104965      -0.01547976       0.01123546      -0.06445556
C        3.24380157      -4.17004377      -5.01285506       0.00000000       0.00000000       0.01046228       0.01439980       0.01125757      -0.06806761
C        2.40173519      -2.88868729      -4.93585327       0.00000000       0.00000000      -0.02760599       0.04274224       0.00007802      -0.05911115
C        1.41055886      -2.70983764      -6.07956693       0.00000000       0.00000000      -0.03175493      -0.01472061      -0.08910275      -0.05222166
C        0.26718595      -3.71405049      -6.04405819       0.00000000       0.00000000      -0.02508600      -0.03683442       0.00381560      -0.10592350
H        6.06920752      -4.77357583       4.65248560       0.00000000       0.00000000      -0.00855190       0.04323174       0.03499897       0.03384537
H        6.99656374      -3.71898910       5.71691368       0.00000000       0.00000000      -0.00789828       0.00039197      -0.03070366       0.04563301
H        5.60289850      -3.07941784       4.84879145       0.00000000       0.00000000       0.00939360      -0.02534138       0.01775167       0.01744914
H        5.53210184      -5.25647275       6.99624677       0.00000000       0.00000000      -0.00527181       0.03017975      -0.01980624       0.04019929
H        4.11151021      -4.59812051       6.19638662       0.00000000       0.00000000      -0.03238598      -0.01425157      -0.00686771       0.02013262
H        6.06361800      -2.93243043       7.81595680       0.00000000       0.00000000       0.04147345       0.05108296      -0.00238817       0.04404874
H        4.68970390      -3.72244275       8.55492763       0.00000000       0.00000000      -0.01420818      -0.02184121       0.03565004       0.04103464
H        4.23927229      -1.81806836       6.24850144       0.00000000       0.00000000      -0.01998297       0.01055865      -0.05230542       0.02814914
H        4.56700322      -1.20766462       7.85366242       0.00000000       0.00000000       0.00151493       0.01805646       0.04220429       0.03770223
H        2.30315097      -1.25926052       8.03226194       0.00000000       0.00000000      -0.03984629       0.05118425       0.04688394       0.03229262
H        2.66003660      -2.87592766       8.59607976       0.00000000       0.00000000      -0.02494119      -0.05453791       0.05365259       0.05175948
H        0.81756776      -3.05785012       7.13826326       0.00000000       0.00000000      -0.02652002       0.00184600       0.01991574       0.04159977
H        2.17352338      -3.70188120       6.23675491       0.00000000       0.00000000       0.05601315      -0.08190159      -0.03431969       0.04457747
H        1.85752281      -0.81307172       5.88914855       0.00000000       0.00000000       0.03090123       0.05107889      -0.00680228       0.05644348
H        0.40497113      -1.65135192       5.38375710       0.00000000       0.00000000      -0.12113897      -0.06180666      -0.00492356       0.04068715
H        1.80818069      -3.16303140       3.95570043       0.00000000       0.00000000       0.00830140       0.03336066      -0.00593750       0.06749748
H        3.20176628      -2.12742787       4.28682296       0.00000000       0.00000000       0.00762430       0.00606016       0.01551006       0.06706852
H        1.96750001       0.39980656       4.34573712       0.00000000       0.00000000       0.02771447      -0.08513799       0.15255099       0.08172540
H        0.60093442       0.45417382       3.19889813       0.00000000       0.00000000       0.03120844       0.08794985       0.02141387       0.07645981
H        2.28630481       0.67795186       2.63478029       0.00000000       0.00000000      -0.12975371      -0.01567270      -0.05439008       0.09293106
H        0.83147562      -3.66238888       1.96383341       0.00000000       0.00000000       0.03199242      -0.00031095      -0.00764204       0.10548759
H        2.39429953      -3.40329471       1.16589330       0.00000000       0.00000000      -0.03685266      -0.06738630       0.03498372       0.11655254
H        0.62013699      -5.92544861       0.59381112       0.00000000       0.00000000      -0.04550017       0.03340255      -0.00931076       0.07748947
H       -0.77882103      -5.96472455      -0.46083438       0.00000000       0.00000000      -0.00263600       0.10314916      -0.04603295       0.08096549
H       -0.81860822      -4.89504229       0.93877027       0.00000000       0.00000000       0.10681066      -0.09214061       0.02409439       0.05898867
H        1.00791448      -3.70175011      -2.51150164       0.00000000       0.00000000      -0.00822953       0.05621171      -0.00088867       0.07884329
H       -0.49626635      -4.64053251      -2.53158645       0.00000000       0.00000000      -0.05362681       0.04563517       0.08438551       0.04589684
H        0.61306571      -6.69329991      -2.17644223       0.00000000       0.00000000       0.05043318      -0.00570886       0.04575590       0.04771981
H        2.03312746      -5.93025925      -1.45080503       0.00000000       0.00000000      -0.02549906       0.04298348      -0.07102063       0.04636082
H        1.25256435      -5.61685003      -4.36280153       0.00000000       0.00000000      -0.00617441       0.04204815      -0.02946267       0.05139411
H        2.29302997      -6.90679137      -3.80969198       0.00000000       0.00000000      -0.05714224       0.00011576       0.07011238       0.05430136
H        4.11584478      -5.58047427      -3.65261633       0.00000000       0.00000000       0.01663708      -0.01550384       0.01796300       0.04573629
H        3.25490900      -4.27014544      -2.86891904       0.00000000       0.00000000       0.00130316      -0.02331724       0.02463776       0.02829721
H        2.89420060      -4.80743742      -5.82309934       0.00000000       0.00000000       0.01164550      -0.00281931      -0.03163868       0.05141592
H        4.27454462      -3.90453758      -5.24191940       0.00000000       0.00000000       0.04031565       0.00787617      -0.01644866       0.04322234
H        3.06857362      -2.02762325      -4.91214366       0.00000000       0.00000000       0.06098037       0.09085155      -0.03466744       0.02443446
H        1.83432453      -2.86867394      -4.00551655       0.00000000       0.00000000      -0.01807930       0.03143879       0.09559842       0.02196228
H        1.93364111      -2.78737342      -7.02978817       0.00000000       0.00000000       0.02615903      -0.00551154      -0.08543349       0.05009646
H        0.98660678      -1.70331922      -6.01726620       0.00000000       0.00000000       0.02978444       0.03334984       0.00498830       0.00204636
H        0.61632986      -4.71250291      -6.28721346       0.00000000       0.00000000       0.01817764      -0.01443902      -0.00976722       0.04902273
H       -0.49316689      -3.44975697      -6.77302399       0.00000000       0.00000000       0.02050530      -0.01840722      -0.01787052       0.04002038
H       -0.18961161      -3.73525549      -5.05593239       0.00000000       0.00000000      -0.01787359       0.02055201       0.01295156       0.01805872
C        9.56687582       5.08686890       2.97070712       0.00000000       0.00000000      -0.01542427      -0.02343926      -0.02339173      -0.10709753
C        9.07340894       3.75410265       2.41749746       0.00000000       0.00000000       0.01182384       0.00967492      -0.02323105      -0.05454236
C        8.73229605       3.80359314       0.92325943       0.00000000       0.00000000       0.01261286      -0.01973094      -0.00802983      -0.06232736
C        7.33307803       4.35712744       0.65428534       0.00000000       0.00000000       0.02253972       0.00258997       0.00638762      -0.06146676
C        6.95030491       4.31040209      -0.83284362       0.00000000       0.00000000      -0.00125693       0.01753482       0.01383679      -0.06601152
C        5.53354910       3.78458513      -1.06896653       0.00000000       0.00000000      -0.01107129       0.02912395      -0.01993905      -0.06242881
C        4.47324027       4.63551812      -0.36923308       0.00000000       0.00000000      -0.04699442      -0.05329247      -0.02893248      -0.07270188
C        3.05400417       4.12514644      -0.66349817       0.00000000       0.00000000      -0.02678986       0.00197631       0.01132001      -0.01667216
N        2.16425648       4.29297197       0.48372328       0.00000000       0.00000000       0.02463422       0.00590013       0.00210091      -0.05874602
C        2.16573591       5.58486241       1.14936167       0.00000000       0.00000000       0.00317989      -0.03370934      -0.02146549      -0.07521849
C        1.43451573       3.25525007       0.89987738       0.00000000       0.00000000       0.03568626       0.02827769       0.02848666       0.25724725
O        1.32619072       2.20988626       0.23634963       0.00000000       0.00000000      -0.04750620       0.03640595       0.00334623      -0.38782631
C        0.78479209       3.39311799       2.27128410       0.00000000       0.00000000      -0.03921685      -0.00350075      -0.03229030      -0.12611099
C       -0.45544131       2.52071196       2.46322399       0.00000000       0.00000000      -0.02631443       0.03003166       0.01422812       0.26066952
O       -0.87761359       1.76652131       1.56313583       0.00000000       0.00000000      -0.03102438       0.01257710       0.03478248      -0.40135709
N       -1.07607770       2.65475893       3.63569885       0.00000000       0.00000000       0.00009112      -0.02641621       0.02609875      -0.05158189
C       -2.35292250       1.99875697       3.85192218       0.00000000       0.00000000       0.02009892      -0.00888387      -0.01040108      -0.06660223
C       -0.60699694       3.55625817       4.69005448       0.00000000       0.00000000      -0.00114439      -0.01862655      -0.02400259      -0.02308929
C       -1.00826792       3.16102021       6.11189821       0.00000000       0.00000000       0.00790734       0.04734882      -0.03194967      -0.07555673
C       -0.41732279       1.81437188       6.56605472       0.00000000       0.00000000      -0.01819186       0.04535550      -0.04870244      -0.06540333
C        0.66863006       1.90562987       7.64719703       0.00000000       0.00000000      -0.02725962      -0.01729091      -0.01442461      -0.07009645
C        2.10853033       2.10571860       7.16026669       0.00000000       0.00000000      -0.01670016      -0.02824732       0.01456114      -0.05982998
C        2.54245499       3.54453452       6.87870471       0.00000000       0.00000000      -0.03303826      -0.00449298       0.00023194      -0.06009729
C        4.06907272       3.68204592       6.91203093       0.00000000       0.00000000       0.00613890      -0.00212407      -0.01246733      -0.05495820
C        4.60920948       3.77654933       8.33294443       0.00000000       0.00000000       0.00925754       0.00163420       0.03203662      -0.10984130
H        9.78072632       4.99604521       4.03360575       0.00000000       0.00000000       0.00089954       0.00870188      -0.03661160       0.04019251
H        8.82514532       5.87116168       2.83878524       0.00000000       0.00000000      -0.01558610      -0.01374773      -0.00709465       0.03272490
H       10.47932339       5.39116800       2.46412219       0.00000000       0.00000000      -0.01138232      -0.00075000       0.00894132       0.04452412
H        8.19164864       3.43213379       2.98067080       0.00000000       0.00000000       0.02927136      -0.00720591      -0.01832071       0.02160578
H        9.84959371       3.00201208       2.57242143       0.00000000       0.00000000       0.01298367       0.03912365       0.01030624       0.03759900
H        8.78696818       2.79076515       0.51494765       0.00000000       0.00000000      -0.00964221      -0.01763835       0.00983555       0.02613313
H        9.47410623       4.40555873       0.39599887       0.00000000       0.00000000      -0.01265618       0.00439070       0.04215777       0.04446876
H        7.27344662       5.38072358       1.02401595       0.00000000       0.00000000      -0.01201675      -0.00203165       0.00442173       0.03662091
H        6.62028114       3.75920647       1.22860422       0.00000000       0.00000000       0.02274570       0.01583877      -0.00034658       0.02549496
H        7.64332752       3.65776007      -1.36741797       0.00000000       0.00000000       0.00047535       0.00677496       0.02202898       0.04509492
H        7.03844676       5.30228626      -1.27507170       0.00000000       0.00000000       0.03737078       0.02575535      -0.00182458       0.04157952
H        5.47027706       2.76027005      -0.69675878       0.00000000       0.00000000      -0.01474523       0.04308757      -0.00921563       0.04333393
H        5.33790725       3.76960787      -2.14388213       0.00000000       0.00000000      -0.01020085       0.01583845      -0.00585261       0.02816229
H        4.58558036       5.67325292      -0.68801983       0.00000000       0.00000000      -0.00357829      -0.04647438       0.01478510       0.05354949
H        4.65239819       4.58930675       0.70500645       0.00000000       0.00000000      -0.00453450       0.01621968      -0.00826103       0.05630079
H        3.07596859       3.05064340      -0.87233434       0.00000000       0.00000000      -0.00841866       0.04713053       0.02692652       0.08109329
H        2.63284239       4.63719807      -1.53531941       0.00000000       0.00000000      -0.00157810       0.01707352       0.04316967       0.05487262
H        2.76717190       6.28152438       0.57180750       0.00000000       0.00000000      -0.01722473      -0.05586736      -0.00205906       0.10333381
H        2.58546903       5.52294664       2.15500928       0.00000000       0.00000000       0.01610712       0.02880062      -0.03517381       0.07507856
H        1.15297328       5.98889450       1.20473170       0.00000000       0.00000000       0.03272395       0.02198351       0.00106632       0.06858881
H        0.51005579       4.42789895       2.47814215       0.00000000       0.00000000      -0.01758971      -0.04898194      -0.03510231       0.09486468
H        1.55723258       3.10322854       2.99232806       0.00000000       0.00000000      -0.06196395       0.00607444      -0.00344699       0.09990027
H       -2.55922708       1.33227999       3.01640408       0.00000000       0.00000000       0.04235303       0.02976497      -0.04223370       0.08211707
H       -3.14125141       2.75048635       3.92673697       0.00000000       0.00000000       0.00572583      -0.04508927      -0.00987149       0.07808398
H       -2.32531407       1.41723068       4.77069276       0.00000000       0.00000000      -0.01629084      -0.01398866      -0.03955312       0.08812442
H       -0.98084899       4.56685614       4.48342270       0.00000000       0.00000000      -0.01250540      -0.03448842       0.01131118       0.06247001
H        0.48188303       3.57611072       4.67196595       0.00000000       0.00000000      -0.01104168       0.03792794      -0.00750450       0.06943816
H       -2.09253787       3.16169772       6.21662630       0.00000000       0.00000000       0.02367074       0.00556148       0.00117165       0.05672406
H       -0.63510086       3.95771266       6.75577160       0.00000000       0.00000000       0.00472304      -0.01420040       0.03020030       0.07483556
H       -0.01447269       1.28417254       5.70112710       0.00000000       0.00000000       0.02344169      -0.03808248      -0.02141837       0.02849554
H       -1.22391431       1.20008098       6.96893904       0.00000000       0.00000000      -0.00459750       0.01476999       0.02852228       0.04081732
H        0.64229853       0.96454602       8.19886033       0.00000000       0.00000000       0.01685132      -0.02657629       0.02436351       0.04299456
H        0.41231432       2.69196913       8.35688273       0.00000000       0.00000000       0.00465689       0.00029425       0.00384676       0.05286271
H        2.76445142       1.71851246       7.93970890       0.00000000       0.00000000       0.00844517      -0.01464097       0.02464812       0.05139484
H        2.28269203       1.49629777       6.26744088       0.00000000       0.00000000       0.01789839       0.00401014       0.00841330       0.00877769
H        2.11718257       4.21056284       7.62863540       0.00000000       0.00000000      -0.01595619       0.01358472       0.03602681       0.04608452
H        2.17087596       3.86990500       5.90400920       0.00000000       0.00000000      -0.02095027       0.00517670      -0.03947897       0.00431967
H        4.36894880       4.57820710       6.36690282       0.00000000       0.00000000      -0.02522668       0.04454974      -0.00931281       0.03203490
H        4.52050849       2.82666517       6.40447199       0.00000000       0.00000000      -0.00059579      -0.04096204      -0.02544080       0.02445463
H        4.27255250       4.69466541       8.80497604       0.00000000       0.00000000      -0.02162722       0.03360605       0.01484509       0.04483450
H        5.69510255       3.77649065       8.33130959       0.00000000       0.00000000       0.02252699       0.01038773      -0.03087548       0.04587850
H        4.27509782       2.94218748       8.94319945       0.00000000       0.00000000      -0.00170096      -0.03416863      -0.00178172       0.03967591
O       -1.13449855       2.17535876      -1.27416408       0.00000000       0.00000000      -0.06048548      -0.12753912      -0.03237581      -0.50512495
H       -0.41579213       2.77384660      -1.03011531       0.00000000       0.00000000       0.10475816       0.09225235       0.00856291       0.34735150
H       -1.95239808       2.55338169      -0.91589222       0.00000000       0.00000000      -0.06342451       0.05604455       0.04532721       0.34709535
