160
Properties=species:S:1:pos:R:3:initial_charges:R:1:initial_magmoms:R:1:forces:R:3:charge:R:1 energy=-6627.5529449512605 free_energy=-6627.5529449512605 dipole="0.4424713149385447 -0.6443604582004605 -0.851288647256584" pbc="F F F"
Sm      -0.00098734      -0.03196425      -0.12091510       3.00000000       0.00000000      -0.07805194       0.04423166       0.06367533       0.84640867
C       -0.79014325       4.10811978      -4.22068868       0.00000000       0.00000000       0.01261439      -0.02229769       0.02516473      -0.07259108
N       -1.22617085       3.00457482      -3.37274822       0.00000000       0.00000000       0.02365233       0.02814087       0.05733021      -0.04571813
C       -0.48844855       2.58407363      -2.33353777       0.00000000       0.00000000       0.08209847      -0.10068297       0.08538572       0.27221302
O       -0.88199188       1.76597110      -1.48665311       0.00000000       0.00000000      -0.07913314       0.02166423      -0.09065301      -0.37794765
C        0.94837518       3.11325804      -2.24056397       0.00000000       0.00000000       0.03310525       0.02587327       0.04974524      -0.13051322
C        1.46792916       3.10074857      -0.80338371       0.00000000       0.00000000      -0.05797681       0.13109450      -0.07973481       0.26811573
O        1.36977035       2.07465439      -0.11370976       0.00000000       0.00000000      -0.01773036      -0.12270841       0.06086273      -0.38067255
N        2.03500669       4.22038374      -0.32585855       0.00000000       0.00000000       0.00218077      -0.06459702      -0.06761853      -0.05620960
C        2.15950215       5.45715162      -1.08726555       0.00000000       0.00000000       0.00250089      -0.05431538       0.03351886      -0.06939694
C        2.55519886       4.25216704       1.01134190       0.00000000       0.00000000      -0.03203307       0.02802923      -0.07245104       0.05873067
C        3.79028400       4.83886649       1.26171346       0.00000000       0.00000000       0.01145949      -0.00596340       0.01273245      -0.04152421
C        4.23939149       4.97150440       2.56381311       0.00000000       0.00000000      -0.02771006       0.01001346       0.06738782      -0.02066953
C        3.47234499       4.50336586       3.61716132       0.00000000       0.00000000      -0.09157369       0.03460069       0.03523458      -0.02430869
C        2.26777277       3.87178312       3.36166876       0.00000000       0.00000000      -0.04075596       0.00349948      -0.00890153      -0.02728968
C        1.80291615       3.75223471       2.06528316       0.00000000       0.00000000       0.01118917      -0.05050738      -0.06368821      -0.04224322
C       -2.46559720       2.38945045      -3.74167500       0.00000000       0.00000000       0.02044641      -0.01342343       0.05956028       0.06020397
C       -2.82441771       2.34205094      -5.08649766       0.00000000       0.00000000       0.03090034       0.01642494      -0.04447720      -0.04513068
C       -4.05332167       1.84157156      -5.47215663       0.00000000       0.00000000      -0.10554353      -0.00988705       0.05409829      -0.02234585
C       -4.94299147       1.36582984      -4.52262573       0.00000000       0.00000000       0.01120170       0.00417439       0.06650291      -0.02636691
C       -4.56274278       1.34793164      -3.19226341       0.00000000       0.00000000      -0.00369412       0.03381595       0.04802714      -0.02937527
C       -3.33638379       1.85795401      -2.79912209       0.00000000       0.00000000       0.04717640      -0.02679798      -0.04279309      -0.04715922
H       -0.43159625       4.94147912      -3.61677774       0.00000000       0.00000000      -0.02916970      -0.02009311      -0.00735120       0.07046726
H       -1.63987105       4.48523433      -4.78523403       0.00000000       0.00000000      -0.00386308      -0.06689884      -0.00073120       0.10165067
H       -0.00517249       3.79499228      -4.91210941       0.00000000       0.00000000      -0.02237601       0.02724833      -0.01611962       0.07446672
H        1.07093395       4.07814491      -2.71195214       0.00000000       0.00000000       0.05037433      -0.00390715       0.01439458       0.08917882
H        1.53351920       2.37714845      -2.80727379       0.00000000       0.00000000       0.01802646       0.02750864       0.06734937       0.11484156
H        1.18786163       5.77837851      -1.47046505       0.00000000       0.00000000       0.08764323      -0.00589377       0.04421001       0.06809666
H        2.86995658       5.35414170      -1.91195227       0.00000000       0.00000000      -0.06586721       0.01445531       0.04485729       0.07434609
H        2.52023284       6.23488179      -0.41643855       0.00000000       0.00000000      -0.02305853      -0.01822469      -0.04036307       0.10002515
H        4.40548899       5.20162085       0.45453240       0.00000000       0.00000000      -0.01581622       0.02307277      -0.06118745       0.05731595
H        5.17749671       5.46603059       2.76000556       0.00000000       0.00000000       0.01469120      -0.04223358      -0.03057258       0.06908723
H        3.78500320       4.65716051       4.63642521       0.00000000       0.00000000       0.11715975      -0.05183768       0.00944600       0.06396205
H        1.66212244       3.49670398       4.17196891       0.00000000       0.00000000       0.02197085       0.01058508       0.04361896       0.04487093
H        0.86550997       3.26175467       1.86037484       0.00000000       0.00000000      -0.04527545       0.04307317       0.10659364       0.05513890
H       -2.15483056       2.70188229      -5.84746889       0.00000000       0.00000000       0.05699186       0.01585862      -0.07840651       0.05640195
H       -4.32670267       1.84649610      -6.51500792       0.00000000       0.00000000       0.01884731      -0.01740029      -0.01419507       0.06709108
H       -5.92731173       1.02905177      -4.80727058       0.00000000       0.00000000       0.04872589      -0.05554104      -0.05374969       0.06156225
H       -5.24038130       0.97002976      -2.43962628       0.00000000       0.00000000       0.03012370       0.03645105      -0.04045505       0.03865251
H       -3.05546398       1.84513414      -1.76227305       0.00000000       0.00000000      -0.06193134       0.05400211      -0.07139775       0.06454026
C        2.37121155      -0.07441985       5.38587753       0.00000000       0.00000000      -0.00923584       0.03075186       0.00020293      -0.07051458
N        2.44348662      -0.02296545       3.92988568       0.00000000       0.00000000      -0.02168956       0.02517359       0.00441080      -0.04673358
C        1.38151585      -0.11109137       3.11404834       0.00000000       0.00000000       0.10482113      -0.02992699       0.11112125       0.27180616
O        1.48735466      -0.13335708       1.87672600       0.00000000       0.00000000       0.03705836      -0.07946395      -0.17259478      -0.38416293
C       -0.04121717      -0.16675687       3.67333544       0.00000000       0.00000000       0.10049864       0.08106592      -0.00139323      -0.13460309
C       -0.75789824      -1.34910142       3.03408035       0.00000000       0.00000000       0.05299953       0.01979483      -0.02707241       0.27087522
O       -0.88128347      -1.34951211       1.79932377       0.00000000       0.00000000       0.03407175      -0.10923468      -0.02002683      -0.38129514
N       -1.22547086      -2.31758153       3.83024562       0.00000000       0.00000000      -0.02267357       0.00355268       0.00888949      -0.04816158
C       -0.95338435      -2.33406784       5.25954687       0.00000000       0.00000000      -0.00439460      -0.02955321       0.02211072      -0.07114250
C       -2.05725748      -3.36813603       3.33277656       0.00000000       0.00000000      -0.05461649      -0.03786636      -0.05021315       0.05736413
C       -1.81150565      -3.94794223       2.09378679       0.00000000       0.00000000      -0.01635594       0.05413178      -0.05659492      -0.04825881
C       -2.60893686      -4.98131393       1.63065955       0.00000000       0.00000000       0.01669661      -0.01520745       0.01004603      -0.03166782
C       -3.64348696      -5.46272010       2.41279724       0.00000000       0.00000000       0.02439931      -0.06472332       0.03443225      -0.02589854
C       -3.88709070      -4.89529536       3.65440911       0.00000000       0.00000000       0.00948203      -0.06384975      -0.05456840      -0.02154084
C       -3.11254824      -3.84105510       4.10992164       0.00000000       0.00000000      -0.05398040      -0.05234934      -0.00120165      -0.04323698
C        3.75814570       0.24186385       3.40826231       0.00000000       0.00000000      -0.08472523       0.05792485       0.02727759       0.05732574
C        4.89095241      -0.19436921       4.09318349       0.00000000       0.00000000      -0.05423611      -0.01477439      -0.03180251      -0.04309152
C        6.15322515       0.17565436       3.65958107       0.00000000       0.00000000      -0.02363176      -0.00289382      -0.05903994      -0.02171225
C        6.30358892       0.95786615       2.52855180       0.00000000       0.00000000      -0.02313154       0.06741791      -0.02154572      -0.02612992
C        5.18184286       1.36373819       1.82910375       0.00000000       0.00000000      -0.04596983       0.01141835      -0.03068548      -0.03132672
C        3.91579112       1.02456140       2.26840768       0.00000000       0.00000000      -0.05738866      -0.02297918      -0.00516847      -0.05071493
H        1.40230119       0.24896073       5.75832902       0.00000000       0.00000000       0.08656974       0.03574727      -0.03621651       0.07349230
H        3.12183153       0.60478560       5.79309929       0.00000000       0.00000000      -0.04129629      -0.05677018      -0.01755002       0.09509333
H        2.57223996      -1.08112517       5.76902176       0.00000000       0.00000000      -0.01662787       0.08928702      -0.13173988       0.07761166
H       -0.50646187       0.71960127       3.23086538       0.00000000       0.00000000      -0.05600341       0.04730081       0.05215655       0.13680076
H       -0.14507047      -0.11607571       4.74611495       0.00000000       0.00000000       0.04484799      -0.03901556       0.04128226       0.08382162
H        0.09325276      -2.09839934       5.44455741       0.00000000       0.00000000      -0.01445202      -0.07002102       0.03451336       0.07135490
H       -1.14197867      -3.33628516       5.63982640       0.00000000       0.00000000       0.01557876       0.01552248      -0.01486950       0.09761106
H       -1.59076372      -1.63323685       5.80416767       0.00000000       0.00000000       0.01314158      -0.02307048      -0.00595120       0.07626895
H       -0.98719852      -3.60214280       1.49387362       0.00000000       0.00000000       0.05099495      -0.02481503      -0.02103665       0.05843636
H       -2.39099461      -5.43115036       0.67062934       0.00000000       0.00000000      -0.02608961       0.04173361       0.08639416       0.04460756
H       -4.24170310      -6.29254509       2.07031165       0.00000000       0.00000000      -0.01559224       0.02702049       0.00576414       0.06430970
H       -4.67352558      -5.30226284       4.27340926       0.00000000       0.00000000       0.02157049       0.14437054      -0.00957875       0.07013602
H       -3.34374349      -3.40162022       5.06776820       0.00000000       0.00000000       0.03673706       0.00325461      -0.02434161       0.05974380
H        4.81784614      -0.81834049       4.96804204       0.00000000       0.00000000      -0.07261732      -0.00903717       0.01648201       0.06061110
H        7.02300486      -0.14052002       4.21188969       0.00000000       0.00000000      -0.01362320      -0.04219654       0.02411480       0.07063082
H        7.27835617       1.27265237       2.19907809       0.00000000       0.00000000       0.10669797      -0.05636704       0.00594062       0.06457613
H        5.28080124       1.96842723       0.94091777       0.00000000       0.00000000       0.02531008       0.04471313       0.00570099       0.04031573
H        3.05293993       1.38889568       1.73226358       0.00000000       0.00000000       0.05046239       0.04732784       0.02558910       0.06455374
C        4.68760632      -0.77064377      -3.43764272       0.00000000       0.00000000      -0.02440082      -0.01414614      -0.03091110      -0.07038615
N        3.33631078      -0.26296136      -3.22662076       0.00000000       0.00000000       0.02595832      -0.04237956      -0.06548915      -0.04912482
C        2.72162586      -0.32333599      -2.03600612       0.00000000       0.00000000      -0.15700422       0.01721786      -0.04297223       0.27130673
O        1.57026449       0.10555068      -1.85260677       0.00000000       0.00000000       0.10870010       0.01060753      -0.06632837      -0.37597072
C        3.39552664      -0.94203373      -0.82039974       0.00000000       0.00000000       0.01794796       0.03730572      -0.01970354      -0.12512330
C        2.62663466      -2.22541812      -0.47692627       0.00000000       0.00000000      -0.08462018       0.02495588       0.04844945       0.27228276
O        1.39456390      -2.10338074      -0.34632892       0.00000000       0.00000000      -0.00897797      -0.02712171       0.00519322      -0.38506537
N        3.26997294      -3.38141003      -0.27514217       0.00000000       0.00000000      -0.02260442      -0.01611466       0.00742745      -0.04337037
C        4.65581990      -3.63496822      -0.62986605       0.00000000       0.00000000       0.03677897       0.03620465       0.00968301      -0.06871805
C        2.63121800      -4.48317070       0.38919930       0.00000000       0.00000000      -0.01364591      -0.04723306       0.06178791       0.05864374
C        1.67884112      -4.23589717       1.37245383       0.00000000       0.00000000      -0.03953364       0.03067471       0.01279277      -0.04057586
C        1.12779366      -5.27511417       2.09977158       0.00000000       0.00000000      -0.02055999      -0.02019640      -0.01223340      -0.02755280
C        1.52600380      -6.57868017       1.86244022       0.00000000       0.00000000       0.04589467      -0.01869973       0.02306578      -0.02342769
C        2.48512766      -6.83294383       0.89663255       0.00000000       0.00000000      -0.05968397       0.00772788       0.00781314      -0.01968652
C        3.03383331      -5.79674425       0.15534148       0.00000000       0.00000000      -0.01860335      -0.04239335       0.02620662      -0.04126864
C        2.69626051       0.32132283      -4.37524924       0.00000000       0.00000000      -0.04508619      -0.04145990       0.04690289       0.05496646
C        3.47891477       0.82107496      -5.41482275       0.00000000       0.00000000       0.02992223      -0.01784101       0.03897800      -0.04671136
C        2.89483589       1.33981396      -6.55620796       0.00000000       0.00000000      -0.05702865      -0.00072333      -0.00913448      -0.02249016
C        1.51771565       1.39048117      -6.67801340       0.00000000       0.00000000      -0.05219858      -0.05444771       0.01066751      -0.02720265
C        0.73329838       0.89576798      -5.65217264       0.00000000       0.00000000      -0.01765019      -0.07160036       0.03357157      -0.03278932
C        1.30723565       0.36146636      -4.51089895       0.00000000       0.00000000       0.02729233      -0.04915731       0.02471438      -0.05190455
H        4.93065140      -1.56451258      -2.73743366       0.00000000       0.00000000      -0.08552718       0.01172101      -0.06578672       0.07067703
H        5.43489455       0.02343282      -3.34005251       0.00000000       0.00000000      -0.09819913      -0.04562115       0.01603685       0.07981327
H        4.75790812      -1.19331818      -4.43997904       0.00000000       0.00000000      -0.02269805       0.03705361       0.01131361       0.09393954
H        3.12237895      -0.27367318       0.01028309       0.00000000       0.00000000       0.12502057       0.03256938       0.02034512       0.14008245
H        4.47242518      -1.00841241      -0.87795190       0.00000000       0.00000000       0.02106642      -0.03663479       0.04087870       0.07902069
H        5.22293021      -2.72160874      -0.76127172       0.00000000       0.00000000       0.02038993       0.02883975       0.03386950       0.06757962
H        4.71682603      -4.21624507      -1.55307940       0.00000000       0.00000000      -0.02463497       0.02176159       0.02346933       0.08381824
H        5.12753827      -4.19918197       0.17324318       0.00000000       0.00000000       0.01115729      -0.05081935      -0.00728803       0.09354012
H        1.36754506      -3.22031889       1.56139569       0.00000000       0.00000000       0.01793009       0.03515165       0.11650191       0.04628617
H        0.38001396      -5.07016083       2.85329636       0.00000000       0.00000000       0.10712503      -0.01578789      -0.01533704       0.04497453
H        1.10017636      -7.38598399       2.43722689       0.00000000       0.00000000       0.02455379      -0.00428276      -0.02434029       0.06544036
H        2.81025442      -7.84995742       0.73230060       0.00000000       0.00000000       0.01204800       0.09453021      -0.08536746       0.07153924
H        3.77465688      -6.04393315      -0.58805683       0.00000000       0.00000000      -0.04394160       0.06384223      -0.00991223       0.06072788
H        4.55234153       0.80740568      -5.36152970       0.00000000       0.00000000       0.07510706       0.03021080       0.02518624       0.06080475
H        3.52176661       1.68083345      -7.36259184       0.00000000       0.00000000       0.03784277       0.07999253       0.00232190       0.07051411
H        1.05390185       1.78583593      -7.56547271       0.00000000       0.00000000       0.03845635       0.03364007      -0.07806085       0.06309715
H       -0.34255662       0.87991393      -5.74657217       0.00000000       0.00000000       0.01840806       0.03581345       0.02854874       0.04451483
H        0.65677585      -0.04043990      -3.75043014       0.00000000       0.00000000       0.01917865       0.01249638      -0.06401985       0.07412614
C       -3.42417885      -3.51011760      -3.43916350       0.00000000       0.00000000       0.03092259      -0.01507832       0.00250124      -0.06848224
N       -2.20410083      -2.75827509      -3.16827630       0.00000000       0.00000000      -0.01520836      -0.05142391      -0.00663602      -0.04546766
C       -2.00745249      -2.02110085      -2.06285011       0.00000000       0.00000000       0.12334349       0.06449507      -0.02251908       0.27121870
O       -1.09911221      -1.17760847      -1.96871149       0.00000000       0.00000000      -0.05296573      -0.03769844       0.00750265      -0.37289047
C       -2.82278466      -2.27303219      -0.78927927       0.00000000       0.00000000       0.07053543      -0.10383064      -0.09866001      -0.12716172
C       -3.34619933      -0.95347329      -0.23954275       0.00000000       0.00000000       0.03567304      -0.02695247       0.01093213       0.27165174
O       -2.48244662      -0.16465449       0.17593927       0.00000000       0.00000000       0.01195646       0.11844004      -0.07881912      -0.38027086
N       -4.66136723      -0.69393942      -0.19816671       0.00000000       0.00000000       0.01726204       0.01119605      -0.01579020      -0.04235815
C       -5.65369554      -1.63158135      -0.69703700       0.00000000       0.00000000      -0.03162188      -0.03405448      -0.03957246      -0.07070502
C       -5.18686974       0.50630464       0.37912713       0.00000000       0.00000000      -0.04697096       0.06799042       0.09573896       0.05728222
C       -4.42479468       1.66801556       0.47483384       0.00000000       0.00000000       0.01292021       0.04260765       0.02011370      -0.05986690
C       -4.95419829       2.83760785       0.98899767       0.00000000       0.00000000      -0.06037858       0.03116663      -0.00888811      -0.03116984
C       -6.26569876       2.87363520       1.42629080       0.00000000       0.00000000      -0.06121907       0.01381309      -0.02747411      -0.02245554
C       -7.03362311       1.72245023       1.34972148       0.00000000       0.00000000       0.02591671       0.07805863      -0.00473002      -0.01937878
C       -6.50293739       0.54719936       0.84062549       0.00000000       0.00000000      -0.06505656       0.04318936       0.05655205      -0.04462165
C       -1.18670698      -2.86349209      -4.18236186       0.00000000       0.00000000      -0.03878627      -0.05035813       0.11850249       0.06019906
C       -1.51915417      -3.27540051      -5.47055046       0.00000000       0.00000000      -0.05344406       0.05218980       0.05002586      -0.04347285
C       -0.54192317      -3.44459132      -6.43470523       0.00000000       0.00000000       0.00658752       0.05266076      -0.00883330      -0.02031408
C        0.78366818      -3.19084191      -6.14145314       0.00000000       0.00000000       0.03780044      -0.01208178       0.07293264      -0.02503513
C        1.12459149      -2.81283611      -4.85574102       0.00000000       0.00000000       0.00015145       0.02914115       0.06344810      -0.02626007
C        0.15943469      -2.66586314      -3.87500243       0.00000000       0.00000000      -0.06601437       0.02289616       0.03479811      -0.04032649
H       -4.08675563      -3.57003757      -2.58184371       0.00000000       0.00000000       0.13543893       0.03154024       0.00456674       0.06718361
H       -3.17580948      -4.53045561      -3.73436447       0.00000000       0.00000000       0.05475797       0.03124742      -0.02289921       0.09118168
H       -3.98756151      -3.03798515      -4.24856557       0.00000000       0.00000000       0.06844955       0.01952670       0.04738383       0.08439545
H       -2.02355153      -2.54156473      -0.08447421       0.00000000       0.00000000      -0.10245630      -0.08237354       0.12639141       0.13774175
H       -3.52565417      -3.09214426      -0.83107576       0.00000000       0.00000000      -0.08951357       0.00563779       0.02461708       0.07963471
H       -5.26049616      -2.23504145      -1.50619101       0.00000000       0.00000000       0.04941431       0.06015877      -0.06295496       0.06803333
H       -6.50461622      -1.08321599      -1.09585641       0.00000000       0.00000000      -0.00247106       0.06174755      -0.00070364       0.09432437
H       -6.01012148      -2.29260526       0.09431320       0.00000000       0.00000000       0.02208256      -0.02636839       0.05153977       0.07846846
H       -3.40808373       1.67253044       0.13098952       0.00000000       0.00000000       0.01410448       0.03007403      -0.05038201       0.06277942
H       -4.34072743       3.72928663       1.01779567       0.00000000       0.00000000      -0.07931057      -0.07692925       0.04910969       0.04360308
H       -6.68819191       3.78812971       1.81160688       0.00000000       0.00000000      -0.00192985      -0.03186055       0.00437673       0.06765011
H       -8.06406999       1.75215215       1.67541991       0.00000000       0.00000000       0.10585121      -0.09253047       0.00111376       0.07084731
H       -7.13918274      -0.32216393       0.82433924       0.00000000       0.00000000       0.04021374      -0.00001059      -0.00095416       0.05971526
H       -2.53639866      -3.47749567      -5.75111966       0.00000000       0.00000000      -0.06437317       0.02941702      -0.02568708       0.06150647
H       -0.82623542      -3.77848973      -7.41753323       0.00000000       0.00000000      -0.01996116       0.00843873      -0.07322565       0.07062419
H        1.54780728      -3.30058481      -6.89114496       0.00000000       0.00000000       0.01387651      -0.02882744      -0.07348079       0.06249207
H        2.15966495      -2.63118726      -4.61159763       0.00000000       0.00000000       0.02547407      -0.04282969       0.04596525       0.03339649
H        0.45905711      -2.39065715      -2.87212615       0.00000000       0.00000000       0.00319631      -0.08746014      -0.06952135       0.05630567
O       -1.10098906       1.85669135       1.53574495       0.00000000       0.00000000      -0.00658051       0.01167627      -0.10135521      -0.50677838
H       -2.02875321       1.64201476       1.72282273       0.00000000       0.00000000       0.02266820      -0.04523472      -0.07240795       0.34323064
H       -1.11913326       2.67781279       1.02430782       0.00000000       0.00000000      -0.04964156      -0.02106402       0.01045435       0.33216186
