340
Properties=species:S:1:pos:R:3:initial_charges:R:1:initial_magmoms:R:1:forces:R:3:charge:R:1 energy=-10640.79654049838 free_energy=-10640.79654049838 dipole="-2.83898165279091 0.9350222111327815 -1.4058688851222914" pbc="F F F"
Sm       0.14627452       0.02754009      -0.08609302       3.00000000       0.00000000       0.00673068       0.03679275      -0.04531812       0.82977772
C       -6.86213769      -6.12357220      -3.65937830       0.00000000       0.00000000       0.00722223       0.01028337      -0.01677923      -0.10382845
C       -7.03639605      -5.35367690      -4.96348126       0.00000000       0.00000000      -0.00633520       0.03039123      -0.01607633      -0.05555342
C       -7.42719615      -3.89661455      -4.72211974       0.00000000       0.00000000       0.00464539      -0.02174623       0.01133317      -0.05565286
C       -7.66789561      -3.12047067      -6.01820813       0.00000000       0.00000000       0.01405821      -0.06337542       0.03196962      -0.06271844
C       -7.93385799      -1.64893094      -5.71672031       0.00000000       0.00000000      -0.00436898      -0.00368213       0.01033060      -0.05504176
C       -8.21363020      -0.76863096      -6.93403572       0.00000000       0.00000000       0.00609078       0.02314334      -0.02140786      -0.06115316
C       -7.13086406      -0.73379354      -8.02296724       0.00000000       0.00000000       0.01444232       0.02699442       0.00676164      -0.06397747
C       -5.67131941      -0.64390638      -7.55637486       0.00000000       0.00000000       0.02237883      -0.02275456       0.04053863      -0.06150950
C       -5.35529165       0.51841184      -6.59886818       0.00000000       0.00000000      -0.01275097       0.03035373       0.01343613      -0.06650080
C       -4.52624976       0.06078773      -5.39163776       0.00000000       0.00000000       0.00393808       0.00190178      -0.02120761      -0.06001384
C       -3.06936215      -0.25960533      -5.74424340       0.00000000       0.00000000       0.02330116      -0.01840841      -0.00425970      -0.07869376
C       -2.48651710      -1.49455697      -5.05036468       0.00000000       0.00000000       0.02840113      -0.04751617       0.06464550      -0.02182466
N       -2.40674909      -1.47031215      -3.59071635       0.00000000       0.00000000       0.07015827       0.04347828       0.07658158      -0.05789011
C       -3.55067873      -1.97041767      -2.81820818       0.00000000       0.00000000       0.00992714       0.04522382      -0.08025822      -0.00891916
C       -3.33845173      -3.40515232      -2.33025841       0.00000000       0.00000000      -0.00404383      -0.00887468      -0.00608649      -0.06611180
C       -2.98092618      -4.34185702      -3.48173686       0.00000000       0.00000000      -0.01519589       0.01526551       0.04780137      -0.06592684
C       -2.61340912      -5.74864079      -3.02550752       0.00000000       0.00000000       0.00657940      -0.05350255       0.00362724      -0.05696590
C       -2.20982538      -6.65632765      -4.19636862       0.00000000       0.00000000       0.00760651      -0.00656508       0.00551221      -0.06771301
C       -0.72298640      -6.65996668      -4.57288625       0.00000000       0.00000000       0.01305230       0.02335992       0.01894680      -0.06495362
C       -0.11965278      -5.44008539      -5.28668289       0.00000000       0.00000000       0.01474368      -0.02764999       0.00302663      -0.05387366
C       -0.42022080      -5.31135674      -6.78755405       0.00000000       0.00000000       0.00811489       0.02871120       0.04928087      -0.06740329
C       -1.77525997      -4.69244063      -7.13180074       0.00000000       0.00000000      -0.03253920      -0.00518701      -0.02704504      -0.05686364
C       -1.89147989      -4.26956591      -8.60572375       0.00000000       0.00000000      -0.00006868       0.02538837      -0.04054273      -0.06810892
C       -1.68953969      -2.77108268      -8.85638090       0.00000000       0.00000000      -0.00587598      -0.02831575       0.01654605      -0.05472331
C       -0.27055313      -2.27761031      -8.59418481       0.00000000       0.00000000      -0.03242256      -0.02691052       0.02402675      -0.10243538
C       -1.31269891      -1.21157646      -2.88724274       0.00000000       0.00000000       0.04553244      -0.04343525      -0.07749616       0.24595514
O       -1.27796621      -1.34980833      -1.64688915       0.00000000       0.00000000       0.06566142      -0.00615476       0.04631051      -0.40080900
C       -0.01964156      -0.70905812      -3.54053826       0.00000000       0.00000000      -0.00574653       0.10787645       0.01224848       0.04091052
O        1.00664257      -0.65513692      -2.54921278       0.00000000       0.00000000       0.09182297      -0.06378558      -0.01468502      -0.22842658
C        1.81172652      -1.84519312      -2.48050140       0.00000000       0.00000000      -0.06602447       0.08429203       0.02675237       0.04981499
C        1.13688209      -3.00621712      -1.74865852       0.00000000       0.00000000      -0.01488520      -0.06928499       0.03857104       0.05760785
O        0.77107076      -2.57902913      -0.43488662       0.00000000       0.00000000      -0.07406605       0.01093758      -0.09420207      -0.22502336
C       -0.04823456      -3.54164111       0.21573712       0.00000000       0.00000000      -0.03506367      -0.03539231       0.07543197       0.04664035
C       -0.98365448      -2.81659449       1.19011335       0.00000000       0.00000000       0.03236052       0.01898665      -0.03105450       0.25667270
O       -0.76614417      -1.59466315       1.39727600       0.00000000       0.00000000       0.00986651      -0.00318292      -0.02522225      -0.40424156
N       -1.97646622      -3.48758613       1.75375842       0.00000000       0.00000000      -0.05090048      -0.04406716       0.03851472      -0.04219214
C       -2.28612423      -4.89084683       1.47823493       0.00000000       0.00000000       0.00852108       0.07827463      -0.03748686      -0.02529556
C       -2.12469433      -5.86320462       2.65295896       0.00000000       0.00000000       0.01428531       0.02886846      -0.01030185      -0.07461796
C       -0.67481959      -6.18098110       3.01637843       0.00000000       0.00000000       0.02729929       0.00342188      -0.00329789      -0.07182097
C        0.04995257      -5.08982605       3.82094696       0.00000000       0.00000000       0.05064690      -0.00958010       0.02878153      -0.05892509
C        0.41714778      -5.53607571       5.24138846       0.00000000       0.00000000       0.01014711       0.01922527       0.01077044      -0.06413287
C       -0.76410533      -5.78189079       6.18493539       0.00000000       0.00000000      -0.04044926       0.03191129       0.00918656      -0.06530518
C       -1.68525575      -4.57988840       6.41672426       0.00000000       0.00000000       0.01183290       0.04034569       0.02311250      -0.05582385
C       -0.96248879      -3.31676077       6.88382789       0.00000000       0.00000000       0.02860344      -0.01350181      -0.02737757      -0.06637625
C       -1.90394439      -2.11451786       6.96943417       0.00000000       0.00000000       0.00117868      -0.05210718      -0.01383858      -0.05883861
C       -1.18063029      -0.80097354       7.29114198       0.00000000       0.00000000      -0.02422043      -0.01826435       0.02018950      -0.06629347
C       -0.78830636       0.04446670       6.07505253       0.00000000       0.00000000      -0.02042653      -0.00491701       0.01838095      -0.05192633
C        0.29266445      -0.56362092       5.18422039       0.00000000       0.00000000      -0.04581227      -0.01858984      -0.00249517      -0.09660297
C       -2.78040663      -2.87027837       2.81896319       0.00000000       0.00000000      -0.02687065       0.03519889       0.03155358      -0.01776079
C       -4.31194560      -2.96604761       2.71555901       0.00000000       0.00000000       0.05314771       0.02034043       0.02733034      -0.07755197
C       -4.92815657      -1.94079464       1.76628906       0.00000000       0.00000000      -0.00274849       0.03716731       0.00223264      -0.06698573
C       -6.45726736      -1.82372276       1.87356348       0.00000000       0.00000000      -0.04320083       0.00824516       0.07142281      -0.07059310
C       -6.94304219      -0.76604892       2.88536156       0.00000000       0.00000000       0.00309493       0.03075148       0.00322835      -0.06854810
C       -7.41602840       0.55245471       2.25588920       0.00000000       0.00000000       0.04812553       0.03660168       0.00362016      -0.06771538
C       -6.32533812       1.45926797       1.66498514       0.00000000       0.00000000       0.01298090       0.01373603      -0.03188865      -0.06145720
C       -5.83873024       2.59640292       2.57349228       0.00000000       0.00000000      -0.03119964      -0.05552630      -0.07408615      -0.06562986
C       -5.08779386       2.17115452       3.84474420       0.00000000       0.00000000      -0.00756467      -0.00078503      -0.01765832      -0.05729802
C       -5.89387243       2.45287975       5.10910156       0.00000000       0.00000000       0.00819452      -0.01486374       0.06705484      -0.06484099
C       -5.17165173       2.00618904       6.37892182       0.00000000       0.00000000      -0.00068320       0.00265336       0.01345764      -0.05185318
C       -6.03052883       2.26333714       7.61175725       0.00000000       0.00000000       0.03326109       0.00283722      -0.04550463      -0.10993682
H       -6.57095698      -7.15047197      -3.86178671       0.00000000       0.00000000       0.01460799      -0.00595375       0.00287363       0.04263566
H       -7.79334567      -6.14026698      -3.09912266       0.00000000       0.00000000      -0.00763222       0.01277160      -0.00496272       0.04182085
H       -6.09666413      -5.66265000      -3.03548507       0.00000000       0.00000000       0.00889029      -0.00031824       0.00032345       0.01621344
H       -7.80957527      -5.83586793      -5.56189103       0.00000000       0.00000000       0.00144643       0.00489306      -0.00063395       0.04531960
H       -6.10631652      -5.39098959      -5.53836690       0.00000000       0.00000000      -0.01046868      -0.00541058      -0.00306758       0.02205126
H       -6.63330234      -3.40111638      -4.14781260       0.00000000       0.00000000      -0.00771418      -0.02056824      -0.00043442       0.00211517
H       -8.33251867      -3.86574121      -4.11132504       0.00000000       0.00000000       0.01861964      -0.00275304      -0.02123517       0.03599021
H       -8.52126147      -3.54762611      -6.54446849       0.00000000       0.00000000      -0.01050425       0.00583879       0.00551451       0.04415223
H       -6.79718999      -3.22827149      -6.66718120       0.00000000       0.00000000       0.00283437       0.00747126      -0.01592613       0.03027602
H       -7.08707960      -1.24057360      -5.16182189       0.00000000       0.00000000       0.03545170       0.00924648       0.02477922       0.01421256
H       -8.80151360      -1.59075815      -5.05522442       0.00000000       0.00000000      -0.02010233       0.02504743       0.00038862       0.03280776
H       -8.39901279       0.24603274      -6.57265979       0.00000000       0.00000000       0.01410258       0.01284509       0.00709004       0.02895492
H       -9.14182906      -1.10497588      -7.39985775       0.00000000       0.00000000       0.04446935       0.00439357      -0.02542855       0.04565951
H       -7.34565899       0.11644486      -8.67352073       0.00000000       0.00000000      -0.00165564      -0.01288603       0.00536620       0.04072179
H       -7.21815669      -1.63362592      -8.63404304       0.00000000       0.00000000       0.02076668       0.00097086       0.00714787       0.04354381
H       -5.05096539      -0.56216767      -8.45190419       0.00000000       0.00000000      -0.01636950      -0.02341188       0.02862442       0.03325671
H       -5.40581790      -1.58560461      -7.07218430       0.00000000       0.00000000      -0.00705119       0.00523692       0.00038104       0.03312290
H       -6.28527631       0.93909427      -6.22137281       0.00000000       0.00000000      -0.03819366       0.00945478      -0.00904179       0.05617720
H       -4.83606975       1.31655846      -7.13222195       0.00000000       0.00000000       0.01892071      -0.01482337       0.03897522       0.03384813
H       -5.01339443      -0.83271973      -4.99881956       0.00000000       0.00000000       0.01623625       0.03709180      -0.00748145       0.04144378
H       -4.55552054       0.82287155      -4.60930299       0.00000000       0.00000000      -0.05475695       0.00055185       0.03412228       0.01450766
H       -2.42864453       0.60128031      -5.56734885       0.00000000       0.00000000       0.00488962       0.05532216       0.00930147       0.03686757
H       -3.01164931      -0.47497392      -6.81114446       0.00000000       0.00000000      -0.01480664      -0.03157477      -0.02911772       0.08060199
H       -1.48434585      -1.65955245      -5.45353773       0.00000000       0.00000000      -0.05136731      -0.04022331       0.01690862       0.05516906
H       -3.10764571      -2.35175778      -5.31174594       0.00000000       0.00000000      -0.03898991       0.00227069      -0.03362873       0.09389542
H       -4.43162175      -1.92949689      -3.45167477       0.00000000       0.00000000      -0.02134815       0.01325333      -0.04458148       0.08201705
H       -3.69591077      -1.31003474      -1.95816367       0.00000000       0.00000000       0.00484317      -0.02143620      -0.05344196       0.05879833
H       -4.26194471      -3.73726407      -1.85606134       0.00000000       0.00000000      -0.01596259      -0.02529786       0.03591547       0.05605278
H       -2.55120462      -3.40913882      -1.57273101       0.00000000       0.00000000      -0.01184866      -0.02625533      -0.02848414       0.03090350
H       -2.13357615      -3.92913259      -4.02263578       0.00000000       0.00000000       0.05699043       0.00684538      -0.04669545       0.03084195
H       -3.82711442      -4.40338583      -4.16770638       0.00000000       0.00000000       0.00222424      -0.03301707      -0.00198415       0.05243855
H       -3.47716100      -6.18583149      -2.51855261       0.00000000       0.00000000       0.04601997      -0.00236964      -0.01467875       0.03983607
H       -1.79507673      -5.70169477      -2.29933257       0.00000000       0.00000000       0.00155313      -0.01933728      -0.00561469       0.01102494
H       -2.81573062      -6.40813058      -5.06422902       0.00000000       0.00000000      -0.03333722      -0.00798868      -0.03089316       0.05088401
H       -2.45599990      -7.68079487      -3.91503111       0.00000000       0.00000000      -0.00085341      -0.02367103      -0.02116832       0.04948344
H       -0.55486480      -7.52512180      -5.21505454       0.00000000       0.00000000       0.01016102      -0.00204363      -0.02059362       0.05355941
H       -0.14707696      -6.83510137      -3.65867125       0.00000000       0.00000000      -0.00731599       0.01537833       0.01284571       0.02418861
H        0.96631828      -5.53766976      -5.19154878       0.00000000       0.00000000      -0.01623102      -0.01381421       0.01271860       0.02736073
H       -0.39509587      -4.51249905      -4.77514485       0.00000000       0.00000000      -0.01003923       0.00140154       0.00601205      -0.00186557
H       -0.34823541      -6.29633016      -7.24668134       0.00000000       0.00000000      -0.00003784      -0.02035323      -0.01619457       0.04882128
H        0.36259789      -4.69220604      -7.23118178       0.00000000       0.00000000      -0.01198429      -0.01482211       0.00877280       0.03803748
H       -1.94240308      -3.81630974      -6.50289393       0.00000000       0.00000000      -0.00462538       0.00215404       0.01615434       0.01272268
H       -2.56464968      -5.41075067      -6.90929481       0.00000000       0.00000000       0.02072228      -0.00292824      -0.00076141       0.03378551
H       -2.88650084      -4.52850703      -8.97381855       0.00000000       0.00000000       0.03529387      -0.00829080       0.01504013       0.04038649
H       -1.17077199      -4.82756664      -9.20437299       0.00000000       0.00000000      -0.01981087      -0.01508348       0.01263745       0.04911778
H       -2.39503844      -2.20306873      -8.24042332       0.00000000       0.00000000       0.00370148      -0.02603113      -0.01477673       0.01459725
H       -1.93496389      -2.56700335      -9.90052180       0.00000000       0.00000000       0.01082385      -0.01578042       0.03107832       0.04514256
H        0.00252393      -2.38103128      -7.54464282       0.00000000       0.00000000      -0.01590304      -0.00322867       0.01096153       0.01166954
H       -0.17955185      -1.22921496      -8.86974948       0.00000000       0.00000000       0.00451331       0.00162091       0.00633891       0.03272971
H        0.43852335      -2.84650881      -9.18822412       0.00000000       0.00000000       0.01302920       0.00162010      -0.01819610       0.04870653
H       -0.15397302       0.31538497      -3.90869490       0.00000000       0.00000000      -0.01400922       0.01611795       0.03145646       0.09393103
H        0.29705286      -1.32798647      -4.38364279       0.00000000       0.00000000       0.01385635      -0.10120334      -0.02728374       0.08646912
H        2.71153521      -1.55318565      -1.93240204       0.00000000       0.00000000       0.01206683       0.01751287      -0.02231610       0.12039616
H        2.08619428      -2.17437801      -3.48942502       0.00000000       0.00000000       0.02807762       0.03533090       0.01000914       0.08492535
H        1.83244271      -3.85441072      -1.68443386       0.00000000       0.00000000       0.06522011       0.07520735      -0.02721779       0.07979751
H        0.24446127      -3.34784308      -2.29766248       0.00000000       0.00000000       0.05338150       0.09712495       0.03759708       0.06801304
H        0.57129121      -4.26560938       0.76733800       0.00000000       0.00000000       0.00152596       0.09248911      -0.01244405       0.09245238
H       -0.63289169      -4.08623157      -0.53451601       0.00000000       0.00000000      -0.00791207       0.04045458      -0.00724940       0.07641719
H       -1.66641395      -5.25650304       0.66238388       0.00000000       0.00000000      -0.06681654       0.02121333       0.02387876       0.05882029
H       -3.32698572      -4.91355652       1.14455840       0.00000000       0.00000000       0.00798417      -0.04029303      -0.01577059       0.08031334
H       -2.60212164      -6.78735874       2.32615529       0.00000000       0.00000000      -0.03212428      -0.03943623       0.03763580       0.06904710
H       -2.66284220      -5.51144507       3.53112431       0.00000000       0.00000000      -0.00211476      -0.03881125      -0.01204985       0.06764212
H       -0.12573097      -6.40397629       2.09894364       0.00000000       0.00000000       0.00758447       0.00018874      -0.01061745       0.02686626
H       -0.67315993      -7.09940846       3.60211876       0.00000000       0.00000000      -0.01583035      -0.00379704       0.01811740       0.07055101
H       -0.55470700      -4.18563067       3.87690224       0.00000000       0.00000000       0.02019784      -0.01114331       0.00768076       0.02507440
H        0.97860338      -4.81475537       3.31282886       0.00000000       0.00000000       0.00470863      -0.01793917       0.01067873       0.01578038
H        1.06970151      -4.78068709       5.68300182       0.00000000       0.00000000       0.00698859      -0.02319561      -0.01321281       0.03977960
H        0.99810243      -6.45768805       5.17581759       0.00000000       0.00000000      -0.00750053      -0.00172743       0.00018032       0.04387463
H       -0.35493250      -6.09433092       7.14721742       0.00000000       0.00000000       0.00080012       0.00951001      -0.02320494       0.04959430
H       -1.37311494      -6.60829706       5.81119593       0.00000000       0.00000000       0.03152228       0.00821716      -0.00613639       0.03788317
H       -2.42756689      -4.85728052       7.16793992       0.00000000       0.00000000       0.00927828      -0.01420607      -0.02344110       0.04156643
H       -2.23904998      -4.35688841       5.49936448       0.00000000       0.00000000       0.00616764      -0.00256676       0.00234771       0.00781063
H       -0.14913485      -3.08383244       6.19784106       0.00000000       0.00000000      -0.00251065       0.00153061      -0.00537562       0.03410979
H       -0.52374321      -3.50117582       7.86561106       0.00000000       0.00000000      -0.00587494       0.01293625      -0.01888408       0.04338733
H       -2.64814162      -2.31735924       7.74185174       0.00000000       0.00000000       0.02546837       0.02105375      -0.00560739       0.04067110
H       -2.44544168      -2.00507542       6.02539514       0.00000000       0.00000000      -0.02391528       0.00769008      -0.03745664       0.01414118
H       -0.29129611      -1.01833181       7.88234464       0.00000000       0.00000000       0.03418378       0.01292968       0.00364280       0.04673348
H       -1.83521052      -0.18554025       7.91097728       0.00000000       0.00000000       0.00473223       0.01141973      -0.01138328       0.04178833
H       -0.42620796       1.00165468       6.45671112       0.00000000       0.00000000      -0.00381733       0.00359468      -0.02016581       0.03550970
H       -1.68356275       0.24401028       5.47702525       0.00000000       0.00000000      -0.01184059       0.00221268      -0.00673331       0.01223625
H        1.15269688      -0.84855451       5.78329681       0.00000000       0.00000000       0.02524799       0.00452564       0.00963886       0.04440136
H        0.62423425       0.15440675       4.43094560       0.00000000       0.00000000      -0.02217663      -0.02611883      -0.00936229       0.01113429
H       -0.07039052      -1.44528100       4.66179494       0.00000000       0.00000000      -0.02690982      -0.01381431      -0.00831365       0.02819719
H       -2.48281664      -1.82273669       2.88320759       0.00000000       0.00000000       0.05707645       0.02027006      -0.01362671       0.06892899
H       -2.48628978      -3.35475383       3.75373571       0.00000000       0.00000000       0.01765005       0.01351441       0.02372406       0.08590009
H       -4.70022612      -2.78121299       3.71961831       0.00000000       0.00000000       0.01709195       0.01749990      -0.01715967       0.07202246
H       -4.62569593      -3.97058477       2.44000141       0.00000000       0.00000000      -0.01090190      -0.01126490       0.01570412       0.06232841
H       -4.64958543      -2.19077558       0.73991690       0.00000000       0.00000000       0.00536992      -0.02617518      -0.02828524       0.01722897
H       -4.50106950      -0.97187293       2.01434914       0.00000000       0.00000000       0.00537173       0.02652845       0.00847416       0.02628675
H       -6.86212685      -2.79715525       2.14996047       0.00000000       0.00000000      -0.00028183      -0.00360748      -0.00720791       0.04994721
H       -6.86742001      -1.57807459       0.89285166       0.00000000       0.00000000       0.01370145      -0.00285516       0.00719264       0.04473191
H       -6.17129956      -0.57006317       3.62939065       0.00000000       0.00000000       0.03044031      -0.02877214      -0.01494794       0.03915518
H       -7.79795677      -1.16732586       3.42691722       0.00000000       0.00000000      -0.03629821      -0.06896348      -0.00201699       0.05197612
H       -7.96782234       1.11784200       3.00705679       0.00000000       0.00000000       0.00273636      -0.01890059      -0.00206704       0.05352156
H       -8.12098348       0.30933655       1.46060811       0.00000000       0.00000000      -0.06459737      -0.04895485       0.01673669       0.04199483
H       -6.72228244       1.93117717       0.75988248       0.00000000       0.00000000      -0.00666517      -0.04545399       0.07729367       0.03192004
H       -5.48103053       0.84170280       1.35691050       0.00000000       0.00000000      -0.04125480       0.01859259       0.07578710       0.00564668
H       -6.70635460       3.19412574       2.85313597       0.00000000       0.00000000       0.01838444      -0.00774369       0.04030093       0.05596040
H       -5.19741920       3.24967501       1.97506965       0.00000000       0.00000000       0.00564316       0.01470291      -0.03193686       0.00994333
H       -4.13589957       2.70732122       3.91789131       0.00000000       0.00000000      -0.02778559       0.02523144       0.00073743       0.00820848
H       -4.85134436       1.10622482       3.80096204       0.00000000       0.00000000      -0.01824233      -0.01279587       0.01921478       0.01984495
H       -6.85370631       1.94018075       5.04373994       0.00000000       0.00000000      -0.01208750      -0.02582864       0.02216206       0.04462707
H       -6.09369055       3.52482197       5.17711879       0.00000000       0.00000000      -0.00358716      -0.03291218      -0.01779679       0.04016827
H       -4.22492910       2.54890097       6.47080371       0.00000000       0.00000000      -0.04715544      -0.03336482       0.00210198       0.02270705
H       -4.93761510       0.93889544       6.31631140       0.00000000       0.00000000      -0.01205157       0.02572410      -0.01292789       0.02246196
H       -6.25381883       3.32433999       7.70036434       0.00000000       0.00000000       0.00332433      -0.03766077       0.03025831       0.04388073
H       -5.51535244       1.93989702       8.51237793       0.00000000       0.00000000      -0.02050950       0.01557977      -0.00575566       0.04437577
H       -6.97015012       1.72044793       7.53521673       0.00000000       0.00000000       0.02653191       0.01464546       0.03362248       0.04338395
C       -2.97269738       9.67068617      -1.33024796       0.00000000       0.00000000      -0.00681062       0.01138357      -0.00861228      -0.10447995
C       -3.60424822       9.29947459      -2.66563108       0.00000000       0.00000000       0.00423959       0.00666685      -0.03014087      -0.05495519
C       -2.55802306       8.86151593      -3.68817796       0.00000000       0.00000000      -0.00340346       0.01404529      -0.00358037      -0.05684373
C       -3.17768315       8.47577300      -5.03073074       0.00000000       0.00000000      -0.02133588       0.02099594       0.02790182      -0.06257400
C       -2.12411593       7.93346401      -5.99421356       0.00000000       0.00000000       0.00654441       0.01120013       0.03354177      -0.05706304
C       -2.67982840       7.45942026      -7.33914208       0.00000000       0.00000000       0.04737996       0.05005210       0.01587046      -0.06327734
C       -3.75413537       6.36711281      -7.27203046       0.00000000       0.00000000       0.01217320       0.01116199      -0.02701932      -0.06272979
C       -3.47896381       5.25656778      -6.25992099       0.00000000       0.00000000       0.01778841      -0.01447520       0.01553151      -0.06123331
C       -2.25875364       4.39588002      -6.59754234       0.00000000       0.00000000       0.02621993       0.01048203      -0.01886292      -0.06803015
C       -1.57242467       3.82056936      -5.35601749       0.00000000       0.00000000       0.02228131       0.00009193      -0.07016418      -0.06166749
C       -2.54181903       3.05192338      -4.44687979       0.00000000       0.00000000      -0.00903996       0.00055556      -0.00901417      -0.06944891
C       -2.99238788       3.82260378      -3.20123404       0.00000000       0.00000000       0.05931200       0.00815966       0.02529209      -0.02343407
N       -1.91923546       3.82927998      -2.21364934       0.00000000       0.00000000       0.00522215      -0.07827364       0.03965299      -0.05411779
C       -1.27829103       5.09571278      -1.89942366       0.00000000       0.00000000      -0.00968281       0.03238368      -0.04398851      -0.01306616
C       -1.92434869       5.70321948      -0.64389170       0.00000000       0.00000000       0.01352928      -0.01020763      -0.01522475      -0.06291173
C       -3.43777909       5.87278146      -0.80004312       0.00000000       0.00000000       0.02603499      -0.03786913      -0.01552183      -0.06488734
C       -4.14363727       6.46414163       0.42112055       0.00000000       0.00000000       0.03149219       0.01760011      -0.01839326      -0.05976364
C       -5.55350597       6.97822259       0.06993881       0.00000000       0.00000000       0.00866800       0.05174345       0.01157905      -0.06577194
C       -6.70752901       6.17350549       0.66526329       0.00000000       0.00000000      -0.02390462      -0.06782960      -0.02913111      -0.06474873
C       -6.98578392       4.80617531       0.02859288       0.00000000       0.00000000      -0.03788462      -0.03114997      -0.01154846      -0.05585164
C       -7.84612047       4.80705854      -1.24491555       0.00000000       0.00000000       0.05006135      -0.04114464       0.04473268      -0.06728595
C       -7.08637058       5.04087125      -2.55397030       0.00000000       0.00000000      -0.00973309       0.02652797       0.04734961      -0.05281980
C       -7.88674030       4.60120454      -3.79003313       0.00000000       0.00000000       0.02230806      -0.01910494      -0.03282489      -0.06762470
C       -7.49781244       3.22811753      -4.34743736       0.00000000       0.00000000       0.01595016      -0.01523214       0.02766767      -0.05097555
C       -7.82658718       2.06165198      -3.42060281       0.00000000       0.00000000       0.01108375       0.01566474       0.00797395      -0.10248891
C       -1.57582549       2.70474852      -1.60073478       0.00000000       0.00000000      -0.17649217       0.05732665      -0.07435638       0.25443337
O       -0.49065320       2.45260386      -1.04295450       0.00000000       0.00000000       0.02732111      -0.07147529       0.01617241      -0.39298943
C       -2.69024986       1.65056993      -1.49756708       0.00000000       0.00000000      -0.00154450      -0.02554482       0.05168448       0.04013862
O       -2.19754566       0.61869115      -0.66494940       0.00000000       0.00000000      -0.09329131       0.00679250       0.11777046      -0.22869677
C       -2.98652393       0.29017331       0.46696541       0.00000000       0.00000000       0.08967943       0.02596632      -0.01607230       0.04883360
C       -2.59717441       1.15929922       1.67321957       0.00000000       0.00000000       0.02629588       0.03565166      -0.00151282       0.05517056
O       -1.18086819       1.29552556       1.64813609       0.00000000       0.00000000      -0.04024632      -0.03870953      -0.00944888      -0.21771324
C       -0.72662057       2.48807781       2.26558927       0.00000000       0.00000000       0.00634931       0.03128117       0.04270640       0.05147706
C        0.74397782       2.64841342       1.88260198       0.00000000       0.00000000      -0.09103469      -0.03106089      -0.03113778       0.26095762
O        1.27716733       1.69913035       1.25888661       0.00000000       0.00000000       0.03425863      -0.01351234       0.03542874      -0.38712088
N        1.38613477       3.74068202       2.24754963       0.00000000       0.00000000       0.03912115       0.09837131       0.06327811      -0.03473298
C        0.75160737       4.93598235       2.80705595       0.00000000       0.00000000       0.01742517      -0.03787670      -0.01788271      -0.02266909
C        1.28919182       5.42628908       4.15645353       0.00000000       0.00000000       0.01593117      -0.01329557      -0.02261738      -0.07227367
C        0.88639349       4.57066297       5.35440492       0.00000000       0.00000000       0.01582358      -0.02591433       0.00859108      -0.07138757
C        1.46482751       3.15084717       5.30939748       0.00000000       0.00000000       0.00868777      -0.02201969       0.00891005      -0.06161881
C        2.10344225       2.70318292       6.62695218       0.00000000       0.00000000       0.02214242       0.00037720       0.00898507      -0.06175422
C        3.44877687       3.37415168       6.92597603       0.00000000       0.00000000      -0.00060623       0.00176314       0.00246330      -0.06484895
C        4.50366049       3.24179391       5.82243033       0.00000000       0.00000000      -0.00435909      -0.00431723       0.01406952      -0.05840114
C        4.78951391       1.80427254       5.38855617       0.00000000       0.00000000      -0.01979557      -0.02035594      -0.00874130      -0.06458914
C        5.75367774       1.76159535       4.20225700       0.00000000       0.00000000       0.00338748      -0.00344967       0.00197524      -0.06121931
C        6.16835889       0.34741800       3.77412402       0.00000000       0.00000000       0.02026893       0.00317063       0.00978511      -0.06696833
C        5.31100512      -0.30817520       2.68446649       0.00000000       0.00000000       0.03421937       0.01712151       0.02464436      -0.05832082
C        3.89536489      -0.68505255       3.12301869       0.00000000       0.00000000       0.00858647       0.02741106       0.00883070      -0.10942468
C        2.80584727       3.87080899       1.91977244       0.00000000       0.00000000      -0.04063690      -0.03030429       0.02763013      -0.01097990
C        3.06424222       4.84203607       0.77009129       0.00000000       0.00000000       0.04474784      -0.00643545       0.02965078      -0.07335712
C        2.16675976       4.54152594      -0.42678908       0.00000000       0.00000000      -0.00758422      -0.03480915       0.02366085      -0.05525992
C        2.56705583       5.33049223      -1.67259819       0.00000000       0.00000000       0.02128180      -0.03793166      -0.01745326      -0.06483183
C        3.89230670       4.87013288      -2.29724092       0.00000000       0.00000000       0.03089591      -0.01020966      -0.04268872      -0.06887963
C        3.71606052       4.10158743      -3.61033149       0.00000000       0.00000000      -0.00140038      -0.02245298       0.00934016      -0.06410682
C        3.11192080       2.69460848      -3.49482256       0.00000000       0.00000000       0.00143162      -0.02479457      -0.01015661      -0.05710502
C        4.10628230       1.54343031      -3.29394057       0.00000000       0.00000000      -0.02657494      -0.02057165       0.07675899      -0.06639550
C        4.78445276       1.45571356      -1.91711472       0.00000000       0.00000000       0.05537654      -0.01510665       0.00324989      -0.05651652
C        6.19457908       2.05545550      -1.89962780       0.00000000       0.00000000       0.01862163       0.02116503       0.03192547      -0.06816792
C        6.79741799       2.09163146      -0.49332940       0.00000000       0.00000000      -0.01793936      -0.02118912      -0.03914385      -0.05074095
C        8.22870671       2.61646833      -0.49056631       0.00000000       0.00000000      -0.03682912      -0.00896428      -0.00356977      -0.11122558
H       -3.73927284       9.92106014      -0.60256221       0.00000000       0.00000000      -0.00911091       0.00164129       0.01394771       0.04073439
H       -2.32016536      10.53154208      -1.44434309       0.00000000       0.00000000       0.01357469       0.00937572      -0.01716926       0.04424354
H       -2.37959069       8.84411396      -0.94171004       0.00000000       0.00000000      -0.00607170       0.01560861       0.01396381       0.01919383
H       -4.15168308      10.15718128      -3.05596439       0.00000000       0.00000000       0.00593836       0.01295884      -0.00804518       0.04455891
H       -4.32967706       8.49360584      -2.51876107       0.00000000       0.00000000      -0.00041778       0.02278779      -0.00308929       0.01996332
H       -1.99935629       8.00663160      -3.28729049       0.00000000       0.00000000       0.00102036       0.00375523       0.00516081       0.00395338
H       -1.84014922       9.66933399      -3.83888108       0.00000000       0.00000000      -0.01165893       0.00426318      -0.00155551       0.03962604
H       -3.65493240       9.34972361      -5.47341829       0.00000000       0.00000000      -0.00164577       0.01392747      -0.00497332       0.04401136
H       -3.96019387       7.73283372      -4.85974322       0.00000000       0.00000000      -0.00686954       0.00679542      -0.01094029       0.02541466
H       -1.57661334       7.11764223      -5.51284570       0.00000000       0.00000000      -0.00217949      -0.01346311      -0.01119395       0.01576562
H       -1.39759307       8.72634926      -6.18619445       0.00000000       0.00000000      -0.00939438      -0.02435517      -0.02808629       0.03807370
H       -1.83860030       7.10923513      -7.93977290       0.00000000       0.00000000       0.01408941      -0.01275692      -0.02300070       0.03355828
H       -3.10624114       8.31703547      -7.86044272       0.00000000       0.00000000      -0.00730414      -0.01146882      -0.01919898       0.04658384
H       -3.86054836       5.93078332      -8.26592400       0.00000000       0.00000000      -0.02263654      -0.00334636      -0.01761654       0.04081606
H       -4.71114130       6.82165340      -7.01605599       0.00000000       0.00000000      -0.02717221       0.03264965       0.02494577       0.04086491
H       -4.36991014       4.62719567      -6.19390859       0.00000000       0.00000000       0.01058492       0.01636011       0.02275584       0.02447735
H       -3.32855835       5.72018436      -5.28642642       0.00000000       0.00000000      -0.02705104       0.00039940      -0.02295501       0.03481657
H       -1.52733214       4.99537366      -7.13701597       0.00000000       0.00000000       0.00384653       0.01370318      -0.00543357       0.05786670
H       -2.55366615       3.57681644      -7.25636539       0.00000000       0.00000000      -0.01610289       0.02733434      -0.00802608       0.03570534
H       -1.09055199       4.62504727      -4.79973314       0.00000000       0.00000000      -0.02762956       0.00994364       0.02136699       0.03774800
H       -0.77556159       3.14966059      -5.68652876       0.00000000       0.00000000      -0.01357671       0.00941883       0.00007414       0.03084443
H       -2.06148267       2.12975959      -4.11016437       0.00000000       0.00000000      -0.00333981      -0.00603294      -0.02719300       0.00978325
H       -3.42777194       2.78672865      -5.02063955       0.00000000       0.00000000      -0.00257689      -0.00879975      -0.04504677       0.07414225
H       -3.90608923       3.37954592      -2.79631835       0.00000000       0.00000000       0.01970878       0.01333411      -0.00094610       0.05094149
H       -3.22012713       4.85363243      -3.45919073       0.00000000       0.00000000      -0.00286587      -0.00182176      -0.01838571       0.10200700
H       -1.41142136       5.76819880      -2.74789792       0.00000000       0.00000000       0.05930351       0.01386313       0.05540054       0.07784877
H       -0.21543504       4.92140794      -1.74230842       0.00000000       0.00000000       0.01400367       0.00921694       0.01733961       0.07697784
H       -1.47427430       6.68029406      -0.46467323       0.00000000       0.00000000       0.02529358      -0.00248920      -0.01728513       0.06246722
H       -1.68598167       5.07236594       0.21573878       0.00000000       0.00000000      -0.05861520      -0.07090908       0.05205734       0.01615200
H       -3.90155615       4.91059603      -1.02160312       0.00000000       0.00000000       0.00118589      -0.01126055      -0.03621345       0.01800873
H       -3.60664395       6.53569617      -1.64891947       0.00000000       0.00000000      -0.01919623      -0.01437069       0.01243422       0.05717213
H       -3.54140168       7.28649615       0.80762274       0.00000000       0.00000000      -0.01912070       0.03905533      -0.00979621       0.03997167
H       -4.20896323       5.71503189       1.21478580       0.00000000       0.00000000       0.00479811       0.00341517      -0.01385164       0.02296888
H       -5.67263160       7.01500724      -1.01024908       0.00000000       0.00000000       0.00955552       0.01271260      -0.05172981       0.04479530
H       -5.64890489       8.00118955       0.43184939       0.00000000       0.00000000      -0.00409860       0.02045607       0.02952381       0.04657776
H       -7.61578498       6.77116454       0.58911860       0.00000000       0.00000000      -0.01930343       0.01078684      -0.00001703       0.04937376
H       -6.51264672       6.02682595       1.72970516       0.00000000       0.00000000       0.01376755       0.00203150       0.02824432       0.03241134
H       -7.53357142       4.22124775       0.77142647       0.00000000       0.00000000       0.02808207       0.01811912      -0.00803551       0.03343998
H       -6.04542549       4.28108250      -0.17037117       0.00000000       0.00000000      -0.00271871       0.04221564       0.02010600       0.00637573
H       -8.62684101       5.56083870      -1.14463473       0.00000000       0.00000000      -0.00876076      -0.01056047      -0.01578119       0.04592267
H       -8.34367927       3.83565183      -1.30336545       0.00000000       0.00000000       0.02202535       0.05200012      -0.02047181       0.03714622
H       -6.13700918       4.49770736      -2.53107276       0.00000000       0.00000000       0.03160899      -0.01839190       0.00448992       0.00866520
H       -6.85027837       6.10258187      -2.64292598       0.00000000       0.00000000      -0.00142107      -0.03101784       0.00015636       0.03205283
H       -7.73994067       5.32995601      -4.58803308       0.00000000       0.00000000       0.00743595       0.01612624      -0.01605260       0.03824138
H       -8.94980826       4.59754276      -3.55075516       0.00000000       0.00000000      -0.01367015       0.01427369       0.00494587       0.04885257
H       -6.42681896       3.22023918      -4.57829456       0.00000000       0.00000000       0.01078344       0.01899226       0.00845184       0.01052324
H       -8.03167439       3.08197214      -5.28862404       0.00000000       0.00000000      -0.00179309       0.01143273       0.01518567       0.03874958
H       -7.26356373       2.12216916      -2.49051277       0.00000000       0.00000000       0.01499585       0.00389411      -0.01556256       0.01983186
H       -7.59427070       1.11203972      -3.90153364       0.00000000       0.00000000       0.00030151       0.03350685       0.00881112       0.02768128
H       -8.88564325       2.06509913      -3.17884330       0.00000000       0.00000000      -0.01074788      -0.00830437      -0.00410423       0.04679342
H       -2.96405934       1.20800091      -2.46161573       0.00000000       0.00000000      -0.03513430       0.04672340      -0.02862130       0.08093244
H       -3.57021979       2.12858755      -1.05251480       0.00000000       0.00000000      -0.02439673      -0.02843936      -0.03461566       0.08354166
H       -2.74594215      -0.75802241       0.66899506       0.00000000       0.00000000      -0.03018501      -0.00240464       0.00460453       0.12730313
H       -4.04833363       0.40050659       0.23011184       0.00000000       0.00000000      -0.01739635      -0.04573752       0.02960418       0.08902796
H       -2.91196837       0.69013571       2.61491303       0.00000000       0.00000000      -0.03763439       0.05838165      -0.04842671       0.08544101
H       -3.06627239       2.14680483       1.59761718       0.00000000       0.00000000      -0.04381744       0.03257995      -0.01652645       0.07682143
H       -0.80822607       2.41772625       3.36011709       0.00000000       0.00000000      -0.05814465      -0.01157435      -0.00742590       0.09189072
H       -1.32158455       3.34224295       1.91131013       0.00000000       0.00000000       0.02057294      -0.05296885      -0.01975582       0.07033875
H       -0.31856427       4.77517594       2.92004934       0.00000000       0.00000000       0.04121215      -0.01814401      -0.02649936       0.05545804
H        0.89955871       5.73683817       2.07634370       0.00000000       0.00000000      -0.01082979      -0.00602144       0.00463162       0.07950272
H        0.87024067       6.42286424       4.29589725       0.00000000       0.00000000       0.03254525       0.06577860       0.01272047       0.06772075
H        2.37261517       5.53363919       4.12324418       0.00000000       0.00000000      -0.01094735       0.00207605       0.02646865       0.06221010
H       -0.20308504       4.53665416       5.42165658       0.00000000       0.00000000       0.00206063      -0.01812604       0.00568645       0.03207768
H        1.23762171       5.07512145       6.25408033       0.00000000       0.00000000       0.02775424       0.00389991      -0.01963960       0.06854907
H        2.22216792       3.09310683       4.53090446       0.00000000       0.00000000       0.00440821      -0.06241962       0.00829069       0.03432054
H        0.67647320       2.44202637       5.04506276       0.00000000       0.00000000       0.01114790       0.00107558       0.02949278       0.00893959
H        2.24707292       1.62147517       6.59434858       0.00000000       0.00000000      -0.01211891       0.01860701       0.01426349       0.03784432
H        1.41794927       2.91319987       7.45057182       0.00000000       0.00000000       0.01777524      -0.00384161      -0.00984847       0.04026352
H        3.84303409       2.94045970       7.84649326       0.00000000       0.00000000      -0.01379281      -0.01604280      -0.02709793       0.04727726
H        3.29303641       4.43836753       7.11655835       0.00000000       0.00000000      -0.00032603      -0.01940622      -0.00472623       0.03887202
H        5.43205928       3.68465820       6.18600105       0.00000000       0.00000000      -0.00723029       0.01664172       0.01344316       0.04343443
H        4.19871125       3.83028241       4.95350520       0.00000000       0.00000000       0.00330639       0.00239349      -0.03265798       0.01415436
H        3.85947590       1.30240191       5.12487378       0.00000000       0.00000000      -0.02610816      -0.00673749      -0.02117555       0.02839225
H        5.22968535       1.26605833       6.22877049       0.00000000       0.00000000       0.00162915      -0.01469757      -0.00413926       0.04228351
H        6.65127603       2.31272425       4.48714204       0.00000000       0.00000000       0.01088817      -0.01742445      -0.00536094       0.04426446
H        5.31549888       2.28857484       3.35019222       0.00000000       0.00000000      -0.01973157       0.00552346      -0.02992508       0.01652698
H        6.19005217      -0.29950304       4.65127021       0.00000000       0.00000000      -0.00432740      -0.02297909       0.01033682       0.04794200
H        7.18836045       0.39476053       3.38706312       0.00000000       0.00000000      -0.02715012      -0.00921574      -0.00560631       0.04588867
H        5.82804999      -1.22048801       2.37702925       0.00000000       0.00000000      -0.01558749       0.01795436      -0.01243646       0.03996218
H        5.27638783       0.35997405       1.81801971       0.00000000       0.00000000      -0.02220017      -0.00023011      -0.00243723       0.01900652
H        3.92645001      -1.16688349       4.09508285       0.00000000       0.00000000       0.02097401       0.00290170       0.07711367       0.06249693
H        3.45074440      -1.41090953       2.43452351       0.00000000       0.00000000       0.00849878      -0.03764388       0.06695245       0.01625443
H        3.24718674       0.18668722       3.20147756       0.00000000       0.00000000      -0.01323200       0.00865514      -0.01925111       0.03249405
H        3.16421832       2.87674010       1.64851536       0.00000000       0.00000000      -0.02801731      -0.04069832       0.01075884       0.07280295
H        3.33878377       4.20163718       2.81287155       0.00000000       0.00000000       0.00553587      -0.00946509      -0.02397139       0.07998146
H        4.11305785       4.74593521       0.49254974       0.00000000       0.00000000       0.02956601       0.00719086      -0.01819010       0.06847821
H        2.91880858       5.87124299       1.10066561       0.00000000       0.00000000      -0.02156605       0.00326135      -0.04442423       0.05573469
H        1.14032348       4.79597565      -0.15381405       0.00000000       0.00000000      -0.04433754       0.01222882      -0.01412595       0.01731489
H        2.18129530       3.46721179      -0.63726807       0.00000000       0.00000000       0.02563089       0.00008714      -0.01504082       0.03788426
H        2.62708096       6.38433617      -1.40054320       0.00000000       0.00000000       0.03422274       0.02750964       0.00523385       0.04344390
H        1.77914999       5.24070212      -2.42250023       0.00000000       0.00000000      -0.00028128       0.00207328      -0.02205767       0.03342717
H        4.44638071       4.25958056      -1.58861226       0.00000000       0.00000000       0.00552330       0.00023293       0.01457207       0.04775346
H        4.50384016       5.74677256      -2.51165940       0.00000000       0.00000000       0.00770124      -0.00593367      -0.01647301       0.04729889
H        4.68293020       4.02692957      -4.10887687       0.00000000       0.00000000       0.01572565      -0.03329215       0.00760943       0.04978460
H        3.07483560       4.69761877      -4.26353006       0.00000000       0.00000000       0.00744269       0.01487193       0.00180751       0.03705424
H        2.59733647       2.48519441      -4.43617607       0.00000000       0.00000000      -0.02132352       0.00680830      -0.01368059       0.02642349
H        2.35283700       2.66438155      -2.70659137       0.00000000       0.00000000      -0.00482551       0.00457434       0.04131487       0.02279701
H        4.87667524       1.60255477      -4.06180903       0.00000000       0.00000000       0.01341665       0.01829784      -0.02152394       0.05588384
H        3.55234334       0.61656120      -3.46871007       0.00000000       0.00000000      -0.01862281      -0.03684167      -0.00212859       0.01465985
H        4.88183163       0.40003492      -1.63099686       0.00000000       0.00000000      -0.02632303       0.03782009      -0.02299583       0.00988035
H        4.16300797       1.95727351      -1.16762913       0.00000000       0.00000000      -0.03713664       0.02826484       0.01398117       0.01703460
H        6.17543694       3.06446183      -2.31053089       0.00000000       0.00000000       0.00738478       0.00847351       0.02158298       0.04944342
H        6.83812354       1.45498784      -2.54522856       0.00000000       0.00000000      -0.01134290       0.00393362       0.01492781       0.04498938
H        6.79226341       1.08247692      -0.07210138       0.00000000       0.00000000      -0.01064291      -0.01014369       0.00061398       0.02363487
H        6.18335055       2.72720379       0.15263470       0.00000000       0.00000000      -0.02137013      -0.01073904       0.00928299       0.01497559
H        8.86370340       2.00059895      -1.12184885       0.00000000       0.00000000      -0.01285612      -0.00383833       0.00484416       0.04721585
H        8.63160727       2.59953839       0.51941944       0.00000000       0.00000000       0.00096563       0.01836450      -0.03085801       0.04541698
H        8.26798507       3.63787207      -0.86053489       0.00000000       0.00000000      -0.01298862      -0.00536901      -0.00169214       0.04401656
O        2.60754490      -0.38187439       0.13993282       0.00000000       0.00000000      -0.03678632       0.05234186      -0.17108213      -0.50004481
H        2.97428953      -0.55564437       1.02753390       0.00000000       0.00000000      -0.01480568       0.00195221       0.05497376       0.35914566
H        3.26882437       0.19618646      -0.28041343       0.00000000       0.00000000       0.00652722       0.06728250      -0.05050301       0.35150335
