340
Properties=species:S:1:pos:R:3:initial_charges:R:1:initial_magmoms:R:1:forces:R:3:charge:R:1 energy=-10777.84728830431 free_energy=-10777.84728830431 dipole="1.2267026616516463 -0.048077309364364496 0.9813345392771708" pbc="F F F"
La       0.35066858      -0.14109367      -0.07885031       3.00000000       0.00000000      -0.00194447       0.01137851      -0.06542439       0.80361068
C       -1.24738546      -0.87780649      -4.57104210       0.00000000       0.00000000       0.01282639      -0.01602145      -0.03617220      -0.11430666
C       -0.02330831      -0.77263637      -5.49676968       0.00000000       0.00000000      -0.02389773       0.01338298      -0.03156031      -0.06103709
C        1.29032900      -0.56770860      -4.73710690       0.00000000       0.00000000       0.04441232       0.03347503       0.02038902      -0.06918718
C        2.53449175      -0.63443853      -5.64251537       0.00000000       0.00000000       0.00937326      -0.07289178      -0.00065043      -0.06748492
C        3.16758982       0.70114019      -6.05529059       0.00000000       0.00000000      -0.07504525      -0.08063848       0.06826161      -0.06613841
C        3.42830048       1.69021390      -4.91742284       0.00000000       0.00000000      -0.02772443       0.04014883      -0.00969526      -0.06068778
C        4.12673025       1.08568673      -3.70015896       0.00000000       0.00000000      -0.05458564      -0.03427950       0.00189502      -0.07120011
C        4.04120456       2.04946443      -2.51685234       0.00000000       0.00000000       0.08920539       0.04737079      -0.04817140      -0.01106039
N        4.47874280       1.43586401      -1.26758691       0.00000000       0.00000000      -0.07681786      -0.09826304       0.03249128      -0.04334616
C        5.83389549       1.70537298      -0.81337592       0.00000000       0.00000000       0.04512450       0.05749210      -0.01048832      -0.02552363
C        5.92141117       2.80963540       0.25085346       0.00000000       0.00000000      -0.03391800       0.02179376       0.00479831      -0.07471289
C        5.06551597       4.03336840      -0.07812550       0.00000000       0.00000000      -0.00775557       0.00378578      -0.05827509      -0.06003433
C        5.30971803       5.17469476       0.90672215       0.00000000       0.00000000       0.04411778      -0.01075635       0.02129752      -0.06592407
C        4.46376882       6.41967175       0.63511727       0.00000000       0.00000000       0.01429533       0.00689268      -0.00313222      -0.06765525
C        2.97530636       6.21242299       0.91545385       0.00000000       0.00000000      -0.00769850       0.00589280      -0.02125176      -0.05531488
C        2.21660495       7.51804265       1.16314301       0.00000000       0.00000000       0.00994358       0.03422128      -0.01011622      -0.05675369
C        2.13977248       8.42318539      -0.05828276       0.00000000       0.00000000       0.02201842       0.00426424      -0.03697478      -0.11013457
C        3.60303398       0.67005360      -0.63377843       0.00000000       0.00000000      -0.04624574       0.03762399       0.00327302       0.25177391
O        2.45800100       0.45396799      -1.09410794       0.00000000       0.00000000      -0.02925958       0.07052764       0.01704258      -0.35939116
C        3.96163668       0.06216944       0.71803620       0.00000000       0.00000000       0.05679392      -0.02161592      -0.00040725       0.04623459
O        2.93425181      -0.83085261       1.11809648       0.00000000       0.00000000      -0.05576662       0.10494102      -0.03417750      -0.23580587
C        3.30349814      -2.19389329       0.98767123       0.00000000       0.00000000      -0.05110013      -0.05461453       0.15343062       0.05467728
C        2.03947944      -3.02142342       1.18598363       0.00000000       0.00000000      -0.01662278      -0.03738636       0.06012402       0.25671007
O        0.94058337      -2.47616540       0.94730503       0.00000000       0.00000000      -0.02317518       0.03633546      -0.04852695      -0.37137222
N        2.13723754      -4.28760789       1.57578322       0.00000000       0.00000000      -0.03840043       0.05753795      -0.01670043      -0.04671664
C        0.91260495      -5.08560630       1.57990509       0.00000000       0.00000000      -0.01001674      -0.04204812       0.01899080      -0.00882457
C       -0.03344035      -4.85943330       2.76509277       0.00000000       0.00000000       0.04279744       0.07648203      -0.09194430      -0.06774157
C        0.43791175      -5.39931204       4.11650885       0.00000000       0.00000000       0.03335332      -0.02292633      -0.03540825      -0.06722220
C        1.48537649      -4.52088049       4.79795684       0.00000000       0.00000000       0.02065136      -0.02619991       0.04193018      -0.06634916
C        1.68027299      -4.85225653       6.28100811       0.00000000       0.00000000      -0.04417870      -0.00017459      -0.01165138      -0.06630315
C        2.62138198      -6.03454603       6.51651800       0.00000000       0.00000000      -0.04225580       0.01499094       0.00923317      -0.05961943
C        3.25914142      -6.00405835       7.90487507       0.00000000       0.00000000       0.01503446      -0.02569274       0.02057955      -0.05661770
C        2.25099456      -6.08062324       9.04345778       0.00000000       0.00000000      -0.02318232      -0.02050037       0.00670669      -0.10739471
C        3.37802740      -4.94277912       1.97446105       0.00000000       0.00000000       0.00660415      -0.05744982      -0.04163165      -0.02278818
C        4.30773149      -5.37649254       0.83398269       0.00000000       0.00000000       0.00259022       0.05731686       0.02801809      -0.07272604
C        5.68751600      -5.75925735       1.38185995       0.00000000       0.00000000       0.03329543       0.01556010       0.05621675      -0.07068868
C        6.53686344      -4.59086380       1.88913648       0.00000000       0.00000000       0.04844672       0.07844341      -0.02840811      -0.06567342
C        6.99813571      -3.63607796       0.78453381       0.00000000       0.00000000      -0.01163394       0.01810022      -0.00242104      -0.05944933
C        8.10606657      -2.68380776       1.24691876       0.00000000       0.00000000      -0.02060640      -0.01383908      -0.01789116      -0.06874752
C        7.64598989      -1.58425910       2.20290317       0.00000000       0.00000000      -0.01193776      -0.01556075       0.00168179      -0.04658409
C        8.83537499      -0.81165836       2.76169543       0.00000000       0.00000000      -0.01768356      -0.01063679      -0.02776247      -0.11095822
H       -1.88072819      -0.00511748      -4.65698271       0.00000000       0.00000000       0.03963638       0.04001641      -0.04302433       0.05009939
H       -0.94737304      -0.95544579      -3.52740540       0.00000000       0.00000000       0.03529050       0.04095413      -0.00077154       0.04328162
H       -1.86932511      -1.73623836      -4.82285931       0.00000000       0.00000000       0.05326108       0.00286025      -0.01931377       0.02621670
H       -0.16085340       0.05673009      -6.19197520       0.00000000       0.00000000       0.00721160      -0.03286036      -0.05281751       0.03966267
H        0.05293588      -1.67901886      -6.09976746       0.00000000       0.00000000       0.04504867      -0.00736058      -0.03687619       0.03384269
H        1.38088971      -1.33456021      -3.96353201       0.00000000       0.00000000      -0.04822466       0.05117245      -0.03280338       0.03434428
H        1.24772315       0.38503559      -4.21188868       0.00000000       0.00000000       0.00471911       0.02644630       0.02702052       0.04510267
H        2.27730294      -1.16889676      -6.56004517       0.00000000       0.00000000       0.00748127       0.01696533       0.03174584       0.04684670
H        3.30378557      -1.23144202      -5.14835262       0.00000000       0.00000000      -0.00944011       0.00326087       0.02580809       0.02913040
H        2.53313698       1.19909540      -6.78771834       0.00000000       0.00000000      -0.03622068       0.00777599      -0.03427029       0.04624731
H        4.11322762       0.47011947      -6.54530177       0.00000000       0.00000000       0.01496750       0.00373939      -0.04586988       0.04922175
H        2.48101068       2.12606700      -4.59395461       0.00000000       0.00000000      -0.05673269      -0.02934267       0.02871484       0.02646262
H        4.03193593       2.50622347      -5.31457717       0.00000000       0.00000000       0.03458402       0.05271487       0.00333801       0.04522877
H        5.16725422       0.86155673      -3.93344433       0.00000000       0.00000000       0.01609341      -0.00608019      -0.00963798       0.05320906
H        3.62771143       0.16025565      -3.41666994       0.00000000       0.00000000      -0.02273542      -0.00349229       0.00367446       0.06064484
H        2.99896311       2.35780299      -2.38907697       0.00000000       0.00000000      -0.00067444      -0.02323743      -0.00207182       0.06151517
H        4.65180445       2.93243312      -2.70137796       0.00000000       0.00000000      -0.01651460      -0.00038353       0.00000721       0.07472945
H        6.41466649       2.01698078      -1.68341430       0.00000000       0.00000000      -0.09022143      -0.01720072      -0.04230180       0.09028094
H        6.29412769       0.79120284      -0.43395691       0.00000000       0.00000000      -0.01305310      -0.01689506       0.02062935       0.06316120
H        6.96610909       3.11232051       0.31332863       0.00000000       0.00000000       0.02902379       0.00470084       0.03047232       0.07512789
H        5.63810260       2.42449507       1.23128552       0.00000000       0.00000000      -0.02099774      -0.02756127       0.01314622       0.03652748
H        4.00970033       3.74936881      -0.07456649       0.00000000       0.00000000      -0.02004488       0.00760118       0.02516786       0.01462196
H        5.31316174       4.39230174      -1.07737041       0.00000000       0.00000000       0.00435813       0.01143186      -0.03021595       0.04521014
H        6.36193144       5.44950044       0.84929434       0.00000000       0.00000000       0.06283241       0.05599371      -0.01926066       0.05166270
H        5.12831893       4.83102498       1.92680535       0.00000000       0.00000000      -0.02607054      -0.01514661       0.03282303       0.03106077
H        4.61134494       6.75001180      -0.39172948       0.00000000       0.00000000       0.01011582      -0.02517213      -0.05463909       0.04549232
H        4.82842074       7.21296864       1.28535925       0.00000000       0.00000000       0.01445294       0.06048111       0.05582419       0.05475097
H        2.88810838       5.59439631       1.80890498       0.00000000       0.00000000      -0.02468624      -0.03900235       0.03635007       0.01548506
H        2.50469206       5.67017282       0.09026031       0.00000000       0.00000000       0.00206184      -0.00155254      -0.04765383       0.00692290
H        2.70308424       8.06185339       1.97354584       0.00000000       0.00000000       0.01869694      -0.00308327       0.02747422       0.04314886
H        1.20163024       7.28122672       1.49397179       0.00000000       0.00000000      -0.05196832      -0.01023558      -0.00359483       0.01820255
H        3.13207986       8.72455754      -0.37776577       0.00000000       0.00000000       0.02060502       0.01129363      -0.00476347       0.04815000
H        1.57537821       9.32123119       0.17599046       0.00000000       0.00000000      -0.00360866      -0.00417347       0.01001776       0.04947105
H        1.64869392       7.92105089      -0.88816729       0.00000000       0.00000000      -0.01679863      -0.02789497      -0.02767132       0.03013062
H        3.99551915       0.86161264       1.46448716       0.00000000       0.00000000      -0.00745799       0.00501443       0.01932566       0.10952371
H        4.93191895      -0.44587000       0.69044722       0.00000000       0.00000000      -0.00415308       0.04806568       0.03191984       0.07685614
H        4.07180632      -2.43400958       1.73105290       0.00000000       0.00000000       0.04012916      -0.03849203      -0.01202683       0.08068302
H        3.68798044      -2.39512709      -0.02124190       0.00000000       0.00000000       0.01032193      -0.03558569      -0.03175300       0.07042327
H        1.18686708      -6.13868430       1.53377751       0.00000000       0.00000000       0.06776106       0.00843251      -0.00057228       0.07742668
H        0.38003208      -4.82964176       0.66100094       0.00000000       0.00000000      -0.03913445      -0.01572754       0.00057169       0.05712206
H       -0.96836636      -5.35846006       2.49876983       0.00000000       0.00000000      -0.00010079      -0.02963528       0.02515306       0.04653982
H       -0.23688952      -3.79097596       2.84839994       0.00000000       0.00000000       0.02261831       0.01153382      -0.01551886       0.04829393
H        0.81380270      -6.41607446       3.99750563       0.00000000       0.00000000       0.02691520      -0.00741763       0.00422424       0.04415117
H       -0.43455132      -5.45993350       4.76710353       0.00000000       0.00000000      -0.04156038       0.01282983       0.04488878       0.05024381
H        1.18442391      -3.47676982       4.70317615       0.00000000       0.00000000       0.00861048      -0.04155615      -0.00590464       0.02926099
H        2.44515635      -4.63219102       4.29797226       0.00000000       0.00000000       0.00785576       0.06816641       0.02988713       0.02458153
H        0.71431565      -5.06194137       6.74043690       0.00000000       0.00000000      -0.02532917       0.03548266       0.00112256       0.03926288
H        2.09541970      -3.97497694       6.77917866       0.00000000       0.00000000       0.01712858      -0.01767821      -0.03546964       0.04080417
H        3.42413518      -6.00639006       5.77676168       0.00000000       0.00000000       0.05900909      -0.00366779      -0.03537546       0.02049558
H        2.08458718      -6.97429761       6.38220988       0.00000000       0.00000000      -0.02440394      -0.01273439       0.01030555       0.03465546
H        3.85489433      -5.09423384       8.00301199       0.00000000       0.00000000      -0.00625688       0.02852660       0.01993528       0.03050439
H        3.94278889      -6.84796003       7.98510338       0.00000000       0.00000000       0.05382159      -0.07282620       0.01207339       0.03926196
H        1.60968889      -5.20252333       9.06437293       0.00000000       0.00000000      -0.00824919      -0.02049125      -0.00674847       0.03138042
H        2.76769281      -6.14343409       9.99742515       0.00000000       0.00000000       0.01079482       0.01404240      -0.00921362       0.04463223
H        1.62942180      -6.96700645       8.94118700       0.00000000       0.00000000      -0.02263632       0.01385668      -0.01187831       0.04005362
H        3.10519911      -5.83760586       2.53616616       0.00000000       0.00000000      -0.01479976       0.05676106       0.02573563       0.08853247
H        3.92878779      -4.28427677       2.64660689       0.00000000       0.00000000      -0.00066314       0.05490843       0.02536900       0.06569350
H        4.41448161      -4.58114477       0.09969630       0.00000000       0.00000000       0.01607623       0.04113245      -0.04703549       0.03424806
H        3.88372514      -6.24231849       0.32737499       0.00000000       0.00000000       0.00068438       0.00485242       0.00316322       0.06071871
H        6.24396803      -6.27223553       0.59730070       0.00000000       0.00000000      -0.01589287       0.01381673      -0.02773300       0.06022979
H        5.55544261      -6.46960522       2.19926795       0.00000000       0.00000000      -0.02360401      -0.02808367       0.00209442       0.05007750
H        7.42857767      -5.00563819       2.35866626       0.00000000       0.00000000       0.01094415      -0.07391834      -0.00502453       0.05828216
H        6.00796315      -4.03934160       2.66931279       0.00000000       0.00000000      -0.02336429       0.00677286      -0.01733870       0.02134404
H        6.15224402      -3.05452654       0.40017819       0.00000000       0.00000000       0.05290715      -0.01740834       0.00215564       0.00193958
H        7.39047826      -4.23323894      -0.04141055       0.00000000       0.00000000      -0.02500269       0.00997313       0.01503016       0.04513892
H        8.55716143      -2.21135040       0.37192643       0.00000000       0.00000000       0.00994123      -0.01487985      -0.02008906       0.03709640
H        8.88525824      -3.26879492       1.73560230       0.00000000       0.00000000       0.00964639      -0.00898266       0.00062926       0.05285362
H        7.08646726      -2.01883914       3.03246427       0.00000000       0.00000000      -0.00426133      -0.01465900       0.00217473       0.02936076
H        6.97559780      -0.89465214       1.67497696       0.00000000       0.00000000       0.00001120      -0.00109771       0.00786179      -0.00416406
H        9.47176267      -1.47534302       3.34023604       0.00000000       0.00000000      -0.00324648       0.01641939       0.00231731       0.05150080
H        8.50836453      -0.00251433       3.40968983       0.00000000       0.00000000      -0.01164230      -0.00615687       0.01045641       0.03727663
H        9.43075597      -0.38877051       1.95685870       0.00000000       0.00000000       0.00453218       0.00926569      -0.02001726       0.04143491
C       -2.09184318       6.35416304       0.76647408       0.00000000       0.00000000      -0.04725033      -0.08910703      -0.03922136      -0.09853917
C       -3.20238405       5.83269261      -0.14308841       0.00000000       0.00000000      -0.01934872       0.06186464       0.06364786      -0.06742592
C       -3.25102960       4.31018183      -0.25573325       0.00000000       0.00000000       0.00304236       0.02656393      -0.01302317      -0.06113326
C       -4.59999857       3.79036105      -0.75636703       0.00000000       0.00000000      -0.03389531       0.01124604      -0.01225131      -0.06047418
C       -5.71834915       3.86147893       0.29092337       0.00000000       0.00000000       0.02247285      -0.01229331      -0.02271405      -0.06457750
C       -5.31245291       3.32134487       1.66627141       0.00000000       0.00000000      -0.00287235       0.01685760      -0.03471218      -0.06293398
C       -4.82332512       1.87720426       1.56449642       0.00000000       0.00000000      -0.02051492      -0.02006350      -0.01705136      -0.07125670
C       -3.94076441       1.39746460       2.71846998       0.00000000       0.00000000       0.02326156      -0.08892659      -0.01929478      -0.00956074
N       -3.72412030      -0.03683626       2.52610441       0.00000000       0.00000000      -0.10453885       0.04255797      -0.00421118      -0.04938278
C       -4.80577919      -0.87337756       3.03701381       0.00000000       0.00000000       0.07746551      -0.06598569       0.01846244      -0.02395399
C       -4.56089110      -1.45374616       4.43892759       0.00000000       0.00000000      -0.01206465      -0.01031862       0.00541448      -0.07494342
C       -4.37456112      -0.42218916       5.55848273       0.00000000       0.00000000       0.01590761      -0.03317654      -0.05767713      -0.06076288
C       -4.41416819      -1.08014756       6.94614045       0.00000000       0.00000000       0.02306063      -0.00267020      -0.00831033      -0.06651107
C       -3.72197256      -0.26463939       8.04787687       0.00000000       0.00000000      -0.01838508      -0.02689714      -0.04622375      -0.06538992
C       -2.20673952      -0.46602805       8.07039447       0.00000000       0.00000000       0.03352840       0.00186038       0.05263739      -0.06050545
C       -1.52331212       0.01902159       9.35271802       0.00000000       0.00000000      -0.03835921       0.00966015       0.01893900      -0.05707424
C       -1.86288011       1.45596775       9.73175279       0.00000000       0.00000000       0.02806162      -0.07442993      -0.01701518      -0.10638506
C       -2.76166366      -0.42250545       1.70037934       0.00000000       0.00000000      -0.02120159      -0.14257227       0.00661128       0.26038495
O       -1.85954797       0.34544994       1.29855178       0.00000000       0.00000000       0.13143687       0.08333648      -0.05362694      -0.38757869
C       -2.75001020      -1.85862548       1.17767017       0.00000000       0.00000000      -0.07522448       0.03263178       0.04875673       0.05118196
O       -1.75197260      -1.91331403       0.17563679       0.00000000       0.00000000       0.03130763       0.05294430      -0.04188802      -0.21605315
C       -1.80588553      -3.11341125      -0.57122467       0.00000000       0.00000000       0.01676135       0.04244247       0.00986440       0.05108364
C       -0.77625236      -3.03008194      -1.69977891       0.00000000       0.00000000      -0.09437524       0.00927819       0.06855292       0.25929506
O        0.01320930      -2.06106850      -1.72905647       0.00000000       0.00000000       0.05226206       0.02839535       0.06684711      -0.35493993
N       -0.77972311      -4.00086633      -2.60016224       0.00000000       0.00000000      -0.00308221      -0.07620788      -0.10207136      -0.04559178
C        0.12431470      -3.91821847      -3.75052639       0.00000000       0.00000000       0.01694607       0.01760183      -0.00879762      -0.02585815
C        1.61541394      -4.04033022      -3.42830103       0.00000000       0.00000000      -0.01900938       0.03084030       0.00058897      -0.06659437
C        2.05195020      -5.46109669      -3.08578519       0.00000000       0.00000000      -0.04193851      -0.02622859      -0.00293186      -0.06949953
C        1.64435540      -5.84931122      -1.66983750       0.00000000       0.00000000      -0.03311720      -0.03304399       0.02080497      -0.06131314
C        1.91472564      -7.31817896      -1.34823908       0.00000000       0.00000000       0.00528654       0.01957876      -0.03390133      -0.06361365
C        0.88653046      -8.26415749      -1.96824384       0.00000000       0.00000000       0.02590975      -0.00185443      -0.00497125      -0.05838555
C        0.92098467      -9.64840861      -1.32239189       0.00000000       0.00000000       0.01820189      -0.05038294       0.00977740      -0.05646483
C        2.27842555     -10.33210748      -1.42860953       0.00000000       0.00000000       0.01179116      -0.01665025      -0.02096140      -0.10897466
C       -1.77718153      -5.06936511      -2.66907991       0.00000000       0.00000000       0.03590423       0.07101753      -0.00021246      -0.02565779
C       -2.98166706      -4.67472546      -3.53427480       0.00000000       0.00000000      -0.02215613       0.08322896       0.04057246      -0.06451779
C       -3.98593589      -5.81820245      -3.74063209       0.00000000       0.00000000       0.01944966      -0.00461729       0.06630390      -0.06818691
C       -4.37193904      -6.59322796      -2.48041938       0.00000000       0.00000000      -0.04813954      -0.00235473       0.14833184      -0.07028987
C       -4.97914134      -5.73399877      -1.36598040       0.00000000       0.00000000       0.00563292       0.01505624      -0.01481153      -0.06045508
C       -4.96644484      -6.42960127      -0.00183495       0.00000000       0.00000000       0.00136263       0.00709413      -0.03464757      -0.06807727
C       -3.56570898      -6.53833773       0.59664250       0.00000000       0.00000000       0.04865984      -0.01864909       0.07342174      -0.04796183
C       -3.57156081      -7.19376995       1.97300488       0.00000000       0.00000000      -0.01954314      -0.00954235       0.02725738      -0.10989544
H       -2.13063240       7.43884310       0.81195634       0.00000000       0.00000000       0.02156191      -0.00685721       0.00977538       0.05412693
H       -2.21927871       5.96841979       1.77605265       0.00000000       0.00000000       0.00073438       0.02876556       0.05106674       0.02393892
H       -1.10042515       6.06884410       0.41105932       0.00000000       0.00000000       0.00032809       0.04163299      -0.06344230       0.00583043
H       -4.15016612       6.19705649       0.25179102       0.00000000       0.00000000      -0.01297927      -0.03340023       0.01613839       0.05349777
H       -3.08644058       6.26096875      -1.13624418       0.00000000       0.00000000      -0.00909255       0.00448680      -0.04216182       0.04447026
H       -2.48109601       3.95838679      -0.94331174       0.00000000       0.00000000       0.01752542      -0.03615595      -0.04823587       0.01031399
H       -3.03045310       3.86780948       0.71341980       0.00000000       0.00000000       0.00197590      -0.03002846       0.01865677       0.03039104
H       -4.91010152       4.35670022      -1.63689107       0.00000000       0.00000000       0.02094526       0.03771237       0.04187464       0.04214285
H       -4.47200017       2.75477488      -1.08159925       0.00000000       0.00000000      -0.01408805       0.03508840      -0.02803108       0.02872925
H       -6.05302947       4.89106780       0.40618579       0.00000000       0.00000000       0.03488456       0.05163888       0.03571552       0.05111721
H       -6.57355464       3.29532827      -0.08208271       0.00000000       0.00000000       0.01246018      -0.02499005       0.01342353       0.04379673
H       -4.54278972       3.95979110       2.09882799       0.00000000       0.00000000       0.02822928      -0.00412279       0.02393583       0.03951550
H       -6.17571290       3.37838790       2.32758430       0.00000000       0.00000000      -0.02434457      -0.03824092       0.04701579       0.04900491
H       -5.69520043       1.22555561       1.49182907       0.00000000       0.00000000      -0.02624034       0.00368766      -0.04745551       0.04685608
H       -4.23868612       1.74451248       0.65242689       0.00000000       0.00000000      -0.03467023       0.00949818       0.04222748       0.05308428
H       -2.97198491       1.89489438       2.69999418       0.00000000       0.00000000       0.00764540       0.05133993       0.00903229       0.05965851
H       -4.39711323       1.55585237       3.69249671       0.00000000       0.00000000      -0.08219841       0.02802751      -0.00924009       0.08019832
H       -5.70492698      -0.25555663       3.07577331       0.00000000       0.00000000       0.02538274      -0.01365016      -0.01466364       0.08762729
H       -4.99421331      -1.69824583       2.34747401       0.00000000       0.00000000      -0.02639106       0.01569697       0.02797549       0.05308310
H       -5.43903136      -2.06003263       4.66928072       0.00000000       0.00000000       0.01532934      -0.00038355       0.02960614       0.06799288
H       -3.69766203      -2.12083270       4.41294200       0.00000000       0.00000000      -0.05656627       0.03878762       0.00758255       0.04706950
H       -3.42313569       0.09193907       5.42219659       0.00000000       0.00000000       0.05484717       0.00565801       0.00295095       0.03102335
H       -5.16297077       0.32951608       5.50920857       0.00000000       0.00000000      -0.05661411      -0.00027196      -0.01101402       0.03830992
H       -5.45563740      -1.23469128       7.22351761       0.00000000       0.00000000      -0.05843192      -0.00757217      -0.00880810       0.04509540
H       -3.94814485      -2.06615412       6.89780594       0.00000000       0.00000000       0.02472709      -0.02009327      -0.01553059       0.03722906
H       -3.95463599       0.79269937       7.92296838       0.00000000       0.00000000      -0.03491861       0.02811924      -0.01261566       0.03863930
H       -4.12660952      -0.57528674       9.00998550       0.00000000       0.00000000       0.00058830      -0.05678243       0.03246052       0.05060827
H       -1.99261496      -1.53185918       7.97738300       0.00000000       0.00000000       0.00017913      -0.06638567      -0.03230385       0.03021303
H       -1.75335041       0.03851735       7.21524850       0.00000000       0.00000000      -0.02515551       0.04014656       0.01684614       0.02199149
H       -1.79621281      -0.64011104      10.17846456       0.00000000       0.00000000      -0.04513316       0.02387943      -0.01116805       0.04086329
H       -0.44247599      -0.07183066       9.21417347       0.00000000       0.00000000      -0.00251652       0.00431127       0.00114127       0.02736940
H       -2.88906762       1.53434757      10.07311027       0.00000000       0.00000000      -0.05788332       0.01565432      -0.00818066       0.04404269
H       -1.21595315       1.78822047      10.53726572       0.00000000       0.00000000       0.01956765       0.02786117       0.03463179       0.04384243
H       -1.72700683       2.12305337       8.88445634       0.00000000       0.00000000       0.01013005       0.06483687      -0.03110359       0.02427458
H       -2.54843704      -2.58030542       1.98093336       0.00000000       0.00000000       0.03854348       0.00428567       0.01119478       0.08079937
H       -3.73260101      -2.08666668       0.73852468       0.00000000       0.00000000      -0.00254310      -0.01572316      -0.02255856       0.07120787
H       -1.58311448      -3.96632640       0.08185666       0.00000000       0.00000000       0.02170258      -0.08953523       0.03010513       0.07493678
H       -2.80663405      -3.23998237      -0.99697799       0.00000000       0.00000000      -0.11974326       0.00891929      -0.03505218       0.07561895
H       -0.15171818      -4.71367678      -4.44175033       0.00000000       0.00000000      -0.00109817       0.03982334      -0.01055939       0.08016268
H       -0.05358468      -2.95858276      -4.22705196       0.00000000       0.00000000       0.06442072      -0.00423302      -0.05083073       0.09416392
H        2.15326108      -3.70214326      -4.31512870       0.00000000       0.00000000      -0.00642205      -0.04126206      -0.02605470       0.06163530
H        1.87274830      -3.36525184      -2.60957581       0.00000000       0.00000000      -0.01911079       0.01814499       0.02495613       0.04350901
H        1.62546711      -6.15958966      -3.80485497       0.00000000       0.00000000      -0.02388693      -0.00180090      -0.01593085       0.05193709
H        3.13516376      -5.53308003      -3.17232772       0.00000000       0.00000000       0.07561930      -0.01024272      -0.00289813       0.04728638
H        2.18855240      -5.20542035      -0.97349415       0.00000000       0.00000000       0.00071318      -0.02958059      -0.02488795       0.01248685
H        0.57943104      -5.65582967      -1.53177806       0.00000000       0.00000000       0.02023643      -0.02068742       0.02771542       0.01943931
H        2.90965323      -7.58930852      -1.69922483       0.00000000       0.00000000       0.03152131       0.01161765       0.02078862       0.04688420
H        1.88994206      -7.45384000      -0.26500911       0.00000000       0.00000000      -0.01328864      -0.02689186       0.02992250       0.02632484
H       -0.11426350      -7.84616692      -1.83217417       0.00000000       0.00000000      -0.04823260       0.01536407       0.01955036       0.01646108
H        1.05981019      -8.36173641      -3.04147026       0.00000000       0.00000000       0.04110238      -0.00814627       0.03329166       0.03746915
H        0.64341671      -9.56326131      -0.26963032       0.00000000       0.00000000      -0.00249937       0.01931589       0.04209773       0.02767276
H        0.16981774     -10.27347095      -1.80334088       0.00000000       0.00000000      -0.03799825      -0.04242891      -0.05327883       0.04162878
H        3.02659661      -9.82363675      -0.82396387       0.00000000       0.00000000      -0.01364685      -0.01939420      -0.02908267       0.03168192
H        2.20447986     -11.35801356      -1.07853728       0.00000000       0.00000000       0.00779089       0.00690327      -0.00037922       0.04851278
H        2.61804302     -10.35044803      -2.46148629       0.00000000       0.00000000      -0.00273958      -0.00232851       0.00600983       0.04267425
H       -1.29895170      -5.94403968      -3.11173952       0.00000000       0.00000000       0.04600076      -0.00717046      -0.01216367       0.08788930
H       -2.10723118      -5.34628545      -1.67127287       0.00000000       0.00000000       0.00515881       0.02660006       0.07100662       0.06434382
H       -3.48759470      -3.81651711      -3.08549384       0.00000000       0.00000000       0.00598705      -0.01517208       0.00167224       0.03238262
H       -2.62745991      -4.35553427      -4.51523036       0.00000000       0.00000000       0.00977714       0.00102352      -0.01079990       0.05161151
H       -4.88404552      -5.39455213      -4.19057333       0.00000000       0.00000000      -0.00723060       0.01739231      -0.00777430       0.05751808
H       -3.57465033      -6.53355320      -4.45157357       0.00000000       0.00000000       0.05945511      -0.00804718      -0.04764700       0.05192365
H       -5.10735450      -7.34792982      -2.75803062       0.00000000       0.00000000      -0.00114175      -0.01835879      -0.04992004       0.05681527
H       -3.50440550      -7.13659678      -2.10543465       0.00000000       0.00000000       0.04401041       0.04431632      -0.01205558       0.03537741
H       -4.44127743      -4.78555837      -1.27342461       0.00000000       0.00000000      -0.00360368      -0.01548390      -0.01666299       0.00769522
H       -6.00871948      -5.49396995      -1.63459501       0.00000000       0.00000000      -0.00011540       0.01067168       0.00897892       0.04489203
H       -5.60027665      -5.86957956       0.68854996       0.00000000       0.00000000      -0.00720501       0.01117693       0.01325658       0.03600165
H       -5.39244267      -7.42648240      -0.09670466       0.00000000       0.00000000      -0.01814196      -0.04758698      -0.03536802       0.05354116
H       -2.92393348      -7.12974708      -0.05991319       0.00000000       0.00000000      -0.00667268       0.01998507      -0.00089102       0.02948079
H       -3.13355842      -5.53332116       0.67756186       0.00000000       0.00000000       0.01602461       0.00191409       0.01495334      -0.00557806
H       -4.01058653      -8.18589637       1.91431093       0.00000000       0.00000000       0.00797523       0.01824319      -0.00189824       0.05534048
H       -2.55618203      -7.29571416       2.35450274       0.00000000       0.00000000      -0.04121337      -0.00141997       0.00309897       0.03129648
H       -4.15261275      -6.60919534       2.68421767       0.00000000       0.00000000       0.00780763      -0.00821628      -0.03474663       0.03694952
C       -1.05977918      -2.00269472       5.02616430       0.00000000       0.00000000       0.03294545       0.04500795      -0.01868176      -0.11620912
C       -0.32467642      -1.07465944       4.06702194       0.00000000       0.00000000       0.06910678       0.11837837       0.04750319      -0.04991065
C        0.31682289       0.11529330       4.79572104       0.00000000       0.00000000      -0.01265250      -0.01486753      -0.03668663      -0.06563138
C       -0.57488762       1.36094032       4.84960389       0.00000000       0.00000000      -0.00985599      -0.08378864       0.04956243      -0.05458908
C       -0.17607525       2.30120339       5.99341301       0.00000000       0.00000000       0.00092428      -0.05364227      -0.03840776      -0.06772155
C       -0.50708867       3.77875750       5.76930882       0.00000000       0.00000000       0.02419040       0.01019402      -0.05169840      -0.06811834
C        0.61720712       4.61747918       5.14860452       0.00000000       0.00000000       0.02781572      -0.05359583      -0.07543925      -0.07361911
C        0.73178234       4.60806499       3.61528084       0.00000000       0.00000000      -0.01606816      -0.09133771      -0.11130693      -0.01886723
N        1.45129263       3.48237295       3.01276500       0.00000000       0.00000000      -0.02733201      -0.02219678       0.10150268      -0.05506829
C        2.86456344       3.37266827       3.37822981       0.00000000       0.00000000      -0.04879644      -0.00713006      -0.07845098      -0.00498936
C        3.23838275       2.23801450       4.32924780       0.00000000       0.00000000       0.01062026       0.02933038      -0.05707126      -0.06596520
C        4.61016386       2.50926779       4.94940637       0.00000000       0.00000000       0.04917324      -0.04071088      -0.00578891      -0.06321391
C        5.11495633       1.37104990       5.83963607       0.00000000       0.00000000      -0.00233269       0.03012989       0.01781939      -0.06555829
C        5.55334866       0.14033474       5.04988117       0.00000000       0.00000000      -0.02488157       0.01252410      -0.02103303      -0.05597063
C        6.27325787      -0.89903520       5.91027912       0.00000000       0.00000000      -0.06935576      -0.01854533       0.02444057      -0.06080899
C        5.45997151      -1.43057553       7.08958921       0.00000000       0.00000000      -0.03982254      -0.03076094       0.04948176      -0.05927112
C        4.15940669      -2.11298315       6.67970093       0.00000000       0.00000000       0.00313708      -0.02014827      -0.01502006      -0.09852780
C        0.96070973       2.70064294       2.05856236       0.00000000       0.00000000      -0.15339019      -0.04439026      -0.10506235       0.25108805
O        1.54762819       1.69732114       1.59891999       0.00000000       0.00000000       0.03334639       0.01835018       0.02802253      -0.39309371
C       -0.37457068       3.06101388       1.39018346       0.00000000       0.00000000      -0.02180129      -0.01734204       0.07034230       0.04091502
O       -0.43432019       2.47260753       0.10312516       0.00000000       0.00000000      -0.07096984      -0.07989023       0.04170406      -0.21648201
C        0.17032428       3.28487514      -0.89561119       0.00000000       0.00000000       0.08211224       0.00158263      -0.00744551       0.05200730
C       -0.20836290       2.65830783      -2.23895044       0.00000000       0.00000000       0.00024965       0.09970717      -0.10200138       0.25440310
O       -0.16582211       1.41131793      -2.28950908       0.00000000       0.00000000      -0.00491028       0.03563982       0.03778154      -0.36651193
N       -0.52067843       3.46955209      -3.24883780       0.00000000       0.00000000       0.03796526      -0.14638059       0.08005678      -0.05290273
C       -0.57756930       2.97268735      -4.62993253       0.00000000       0.00000000       0.02267973       0.05768794       0.03480142      -0.01850767
C       -1.87473323       3.19927573      -5.41984568       0.00000000       0.00000000       0.01308396       0.00435055       0.07722130      -0.07176782
C       -3.08450480       2.43405226      -4.86869740       0.00000000       0.00000000       0.07789781      -0.11827734       0.02885236      -0.06321623
C       -4.00085854       1.89014106      -5.97574773       0.00000000       0.00000000      -0.04618700       0.11992886       0.01527154      -0.06595978
C       -4.73688001       0.58490180      -5.65031140       0.00000000       0.00000000      -0.00819384       0.07915726       0.07408025      -0.06566166
C       -5.60866946       0.56731703      -4.38792150       0.00000000       0.00000000       0.03205027      -0.02941367       0.03713088      -0.06616571
C       -4.88169123       0.06439572      -3.13648401       0.00000000       0.00000000       0.00127381       0.02444288      -0.01492151      -0.05038452
C       -5.83613712      -0.12933479      -1.96203610       0.00000000       0.00000000      -0.02999701       0.03222490      -0.03010947      -0.10251593
C       -0.76449424       4.90511053      -3.11847680       0.00000000       0.00000000      -0.05044847      -0.06563392      -0.00582263      -0.03169302
C        0.44844518       5.84082768      -3.10414088       0.00000000       0.00000000      -0.00891291       0.05140580      -0.02980576      -0.06423199
C        0.07222163       7.20620305      -3.70322201       0.00000000       0.00000000      -0.02656338      -0.00231359       0.02231923      -0.07039418
C       -1.10987580       7.93226586      -3.02242128       0.00000000       0.00000000      -0.00329334      -0.03099735      -0.06966050      -0.06855246
C       -2.36761953       7.96602769      -3.90047346       0.00000000       0.00000000      -0.03031196      -0.06373559       0.00046989      -0.06181983
C       -3.47442408       8.91877101      -3.42897761       0.00000000       0.00000000       0.07156834      -0.00570431      -0.02165395      -0.06660609
C       -4.25580381       8.45212076      -2.20347280       0.00000000       0.00000000      -0.05248865       0.07382958       0.04053597      -0.05265307
C       -5.46726091       9.34050714      -1.93012049       0.00000000       0.00000000      -0.00407427       0.02013601      -0.04440597      -0.10860346
H       -1.49883261      -2.84768850       4.50257075       0.00000000       0.00000000      -0.00984552      -0.04134630      -0.02209364       0.02413759
H       -1.84458042      -1.47231664       5.54876529       0.00000000       0.00000000       0.00001057       0.02933130      -0.00126845       0.06092145
H       -0.37264176      -2.39098376       5.77151848       0.00000000       0.00000000       0.00409446      -0.01802217       0.04548736       0.05370340
H       -1.01023628      -0.69897084       3.30552688       0.00000000       0.00000000       0.01040875       0.01250522      -0.00440639       0.02232240
H        0.45840156      -1.63013569       3.54539733       0.00000000       0.00000000       0.05705736      -0.04770796      -0.02057586       0.02632781
H        1.23353667       0.39097012       4.27387254       0.00000000       0.00000000       0.02602028      -0.06056354       0.04135878       0.03056587
H        0.58240630      -0.19386756       5.80980807       0.00000000       0.00000000      -0.02883407       0.02788789      -0.05266083       0.05030987
H       -1.61749761       1.06638862       4.98949549       0.00000000       0.00000000       0.01400218      -0.00612278      -0.00463560       0.02824922
H       -0.51598533       1.86827151       3.88512144       0.00000000       0.00000000       0.03383521       0.01710645       0.05642401       0.00607211
H        0.89157320       2.21057249       6.19920467       0.00000000       0.00000000      -0.03684745      -0.01204068      -0.00246734       0.03937083
H       -0.68887673       1.95709301       6.89194931       0.00000000       0.00000000       0.03039476       0.04121672       0.02093316       0.05494007
H       -0.70724927       4.22366665       6.74336868       0.00000000       0.00000000      -0.04209521       0.00392156       0.04129809       0.06057743
H       -1.41953557       3.87894778       5.17761399       0.00000000       0.00000000       0.00081927      -0.01446631       0.00088160       0.03379872
H        1.56450523       4.34499174       5.61259403       0.00000000       0.00000000       0.00406304       0.02347355      -0.04274689       0.06557947
H        0.42097243       5.66002917       5.40702690       0.00000000       0.00000000       0.02508360      -0.01614014       0.01326289       0.06671213
H        1.25970098       5.52168086       3.31913297       0.00000000       0.00000000      -0.01787676      -0.03272456      -0.00337103       0.07005664
H       -0.27481842       4.65372728       3.20579899       0.00000000       0.00000000      -0.01523237       0.00231465       0.05254548       0.05574163
H        3.14247054       4.32297379       3.83318802       0.00000000       0.00000000       0.02291195       0.02785250       0.04051985       0.07298531
H        3.42441363       3.25875547       2.44582395       0.00000000       0.00000000       0.04652930      -0.03475459      -0.00245414       0.05410639
H        3.24217185       1.29814496       3.77717362       0.00000000       0.00000000       0.00740642      -0.04996292       0.03485685       0.04123105
H        2.49754585       2.16614881       5.12303807       0.00000000       0.00000000       0.05302469      -0.01834622       0.00180533       0.05806541
H        4.54528894       3.41883162       5.55024057       0.00000000       0.00000000       0.00135655      -0.00314788      -0.00379265       0.04209767
H        5.34298021       2.69291039       4.15816392       0.00000000       0.00000000      -0.01268342      -0.00509327       0.00660656       0.03049425
H        4.34447262       1.09948408       6.56265103       0.00000000       0.00000000      -0.03139609       0.02331489      -0.06369154       0.04380156
H        5.97180095       1.73906323       6.40353132       0.00000000       0.00000000       0.04583961       0.00977585       0.01641066       0.05171049
H        6.24063103       0.45912164       4.26394682       0.00000000       0.00000000       0.03441702       0.01945441      -0.05927029       0.02443679
H        4.69193699      -0.31865025       4.56232499       0.00000000       0.00000000      -0.06245223      -0.03996748       0.00306833       0.01795261
H        7.19654268      -0.46089701       6.28961539       0.00000000       0.00000000       0.00928774       0.01548862       0.03748680       0.04155062
H        6.55157087      -1.74388788       5.27777360       0.00000000       0.00000000       0.03126708      -0.02405552      -0.04555126       0.02966804
H        5.23958238      -0.62348190       7.78770203       0.00000000       0.00000000       0.00622504       0.02965969       0.00156835       0.03876857
H        6.07558486      -2.15571896       7.62399322       0.00000000       0.00000000       0.01963346       0.00051835       0.00187047       0.04308464
H        3.46487810      -1.41666814       6.21480730       0.00000000       0.00000000       0.00511719       0.04426706      -0.00404514       0.02292311
H        3.67380713      -2.53524576       7.55586337       0.00000000       0.00000000       0.02506022       0.03445297       0.03091513       0.03886283
H        4.35329443      -2.92323122       5.97961080       0.00000000       0.00000000       0.03697661      -0.00992080      -0.01773613       0.02766191
H       -0.50431876       4.13910635       1.28849319       0.00000000       0.00000000      -0.01750533       0.08908968       0.07624875       0.07811111
H       -1.21264390       2.62900181       1.94717025       0.00000000       0.00000000       0.05940533       0.02441094      -0.00102273       0.10394743
H        1.26725413       3.24884319      -0.79803842       0.00000000       0.00000000       0.05089972       0.01438623      -0.07585724       0.06896964
H       -0.15043853       4.32096205      -0.79282747       0.00000000       0.00000000      -0.08652787       0.06327222       0.02171603       0.07413173
H       -0.36707496       1.90634757      -4.60402082       0.00000000       0.00000000       0.01952873      -0.05546753       0.09232591       0.09020492
H        0.22952517       3.48168819      -5.16575415       0.00000000       0.00000000       0.05285973      -0.00451304      -0.03988260       0.06587324
H       -1.65358838       2.84115674      -6.42694776       0.00000000       0.00000000      -0.00255170      -0.01826922      -0.00373942       0.06520679
H       -2.10214228       4.26167931      -5.52112917       0.00000000       0.00000000      -0.01953201      -0.05103803      -0.00404542       0.05033945
H       -3.65165637       3.06530273      -4.18413528       0.00000000       0.00000000      -0.02327617       0.00929611      -0.01622094       0.03487810
H       -2.70259771       1.59566651      -4.28644070       0.00000000       0.00000000      -0.03985809       0.01086289       0.03451413       0.04049852
H       -3.40030560       1.66756218      -6.86067286       0.00000000       0.00000000       0.03209147       0.10283902      -0.00861845       0.03986177
H       -4.72312995       2.66005424      -6.26447812       0.00000000       0.00000000       0.05868701      -0.09308832       0.07921984       0.04403722
H       -4.00820494      -0.22425738      -5.58512194       0.00000000       0.00000000       0.00159220      -0.04348476      -0.01533753       0.03260206
H       -5.37203629       0.37977756      -6.51161012       0.00000000       0.00000000      -0.02989416      -0.05586952      -0.01336538       0.04803399
H       -6.45410613      -0.10041853      -4.56901894       0.00000000       0.00000000       0.00864191       0.03525167       0.03243720       0.04317526
H       -6.01169814       1.56254037      -4.20215703       0.00000000       0.00000000      -0.01992148       0.02484636       0.00537951       0.04188598
H       -4.10777008       0.77137736      -2.83619913       0.00000000       0.00000000       0.06075782       0.04606008      -0.02158140       0.02083215
H       -4.38729267      -0.88508033      -3.36793811       0.00000000       0.00000000      -0.03931274       0.02687703       0.02078406       0.01785663
H       -6.38689333       0.79027988      -1.76788555       0.00000000       0.00000000       0.03742588      -0.05930658       0.00256247       0.04211045
H       -5.28570415      -0.39860325      -1.05916376       0.00000000       0.00000000      -0.02857583      -0.00705802      -0.01726530       0.00816568
H       -6.55642442      -0.91420691      -2.17976426       0.00000000       0.00000000      -0.00279483       0.01434494       0.01894372       0.04302140
H       -1.37411183       5.09501691      -2.24003190       0.00000000       0.00000000      -0.09661172      -0.02261851       0.05467916       0.06680330
H       -1.36919055       5.17816404      -3.97887979       0.00000000       0.00000000      -0.01579790      -0.00117419      -0.06002415       0.09909378
H        1.26070011       5.41819873      -3.69727604       0.00000000       0.00000000      -0.00924109      -0.03708410      -0.02966051       0.04118631
H        0.82417655       5.98068394      -2.08778282       0.00000000       0.00000000      -0.00508900      -0.02386864       0.00112234       0.02803756
H       -0.16259001       7.06535189      -4.75906570       0.00000000       0.00000000       0.00882121      -0.00737014      -0.01753383       0.04809416
H        0.95619372       7.84184790      -3.66352782       0.00000000       0.00000000       0.03437071      -0.00327002       0.03720643       0.05218899
H       -0.81866177       8.96081765      -2.82017549       0.00000000       0.00000000       0.01556956       0.06987187       0.01434391       0.05084181
H       -1.33521390       7.46897002      -2.06296519       0.00000000       0.00000000       0.01260294       0.01232991       0.04556020       0.03013315
H       -2.78398683       6.95715250      -3.98717978       0.00000000       0.00000000      -0.02492295       0.03371522      -0.01780683       0.01781041
H       -2.07265866       8.28877017      -4.90154281       0.00000000       0.00000000       0.02143167      -0.01859224       0.02097208       0.03997942
H       -4.17731557       9.03885472      -4.25479086       0.00000000       0.00000000      -0.02516089      -0.00335435      -0.01237312       0.04505730
H       -3.04457764       9.90008684      -3.22670990       0.00000000       0.00000000       0.03124791       0.02199704      -0.00046703       0.04248759
H       -3.61187454       8.46843338      -1.32310318       0.00000000       0.00000000       0.05351603       0.00564710       0.00406454       0.02511834
H       -4.60062633       7.42648681      -2.35785553       0.00000000       0.00000000      -0.01310926      -0.00381721      -0.04113344       0.02168004
H       -5.16179136      10.37044645      -1.76075964       0.00000000       0.00000000       0.03146637      -0.02745293      -0.02019890       0.04319174
H       -6.00129029       8.99826361      -1.04557690       0.00000000       0.00000000       0.01381462      -0.01043419      -0.03521388       0.03538211
H       -6.15614730       9.32752197      -2.77352626       0.00000000       0.00000000       0.05421617      -0.01934732       0.04591443       0.04214013
