64
Properties=species:S:1:pos:R:3:initial_charges:R:1:initial_magmoms:R:1:forces:R:3:charge:R:1 energy=-2585.732300684087 free_energy=-2585.732300684087 dipole="-1.0331599829188474 0.9391143169640862 0.04611831291058434" pbc="F F F"
La      -0.01197892      -0.17427120      -0.20000636       3.00000000       0.00000000       0.04387131      -0.05663523       0.03950744       0.77812666
C        2.90206958      -1.49825324       0.94075252       0.00000000       0.00000000      -0.11518177      -0.02833808       0.06554550      -0.01384128
O        1.67484172      -1.04130335       1.54989834       0.00000000       0.00000000       0.08078012       0.02533964       0.10817544      -0.23326554
C        1.33035959      -1.90291598       2.65745505       0.00000000       0.00000000       0.01390620      -0.03985980      -0.06023609       0.04676345
C        0.33371897      -1.28579796       3.63771331       0.00000000       0.00000000      -0.00094297       0.00458056       0.06842709      -0.03034561
N       -0.94107849      -0.74262684       3.14944044       0.00000000       0.00000000      -0.00005914       0.01711457       0.02844914      -0.02439167
C       -1.36910835       0.50224718       3.78243765       0.00000000       0.00000000       0.00629326      -0.02825003      -0.01175592      -0.04606243
C       -1.17504534       1.66235740       2.77715047       0.00000000       0.00000000       0.03268021       0.04651061      -0.06459539       0.03665456
O       -0.02804608       1.45900487       1.93064802       0.00000000       0.00000000      -0.01045021       0.04030071       0.03937769      -0.25293273
C        1.14966461       2.05576833       2.50459895       0.00000000       0.00000000      -0.01089025      -0.03012561      -0.00034135       0.00320964
C       -1.52088002      -1.18623851       2.04261265       0.00000000       0.00000000      -0.05515015       0.07931972       0.01776044       0.26644198
O       -0.92920055      -1.88094705       1.18948204       0.00000000       0.00000000       0.08409864      -0.14232191      -0.01282717      -0.37847875
C       -2.91829004      -0.74531252       1.59867102       0.00000000       0.00000000       0.02252118       0.02382681       0.01454687       0.02923335
O       -2.63276834      -0.05320258       0.37323652       0.00000000       0.00000000       0.03513372       0.13061846       0.00507486      -0.25047892
C       -3.22381023      -0.51448203      -0.85142657       0.00000000       0.00000000      -0.01749834      -0.00120594       0.08993992       0.03546920
C       -2.21122421      -0.04248993      -1.89664450       0.00000000       0.00000000       0.03216847       0.16061108      -0.10357445       0.26676034
O       -1.18623558      -0.75533643      -2.02085706       0.00000000       0.00000000      -0.04557330      -0.00528673      -0.08861155      -0.37808175
N       -2.34899524       1.11416098      -2.52612966       0.00000000       0.00000000      -0.01999092      -0.08007348       0.08061791      -0.00012059
C       -3.31951326       2.11140943      -2.10235151       0.00000000       0.00000000      -0.01858657       0.09140932       0.03957116      -0.04510773
C       -3.04821964       2.57959635      -0.64733640       0.00000000       0.00000000       0.04787894       0.03470929       0.06390435       0.04426833
O       -1.67606549       2.39735583      -0.26788750       0.00000000       0.00000000       0.00816269       0.09294470      -0.02604974      -0.27605721
C       -0.99840952       3.65228246      -0.10705309       0.00000000       0.00000000      -0.02846712       0.01238707      -0.00794520       0.00508024
C       -1.42714528       1.50109619      -3.59499755       0.00000000       0.00000000      -0.01366805       0.05026229       0.00128255      -0.03366278
C        0.08242519       1.34303992      -3.33834581       0.00000000       0.00000000       0.07033360      -0.01560994       0.04654971       0.04298002
O        0.47426656       1.61878797      -1.97587916       0.00000000       0.00000000       0.03758958       0.08022349      -0.02504133      -0.23464952
C        1.61980522       2.49177648      -1.92145537       0.00000000       0.00000000      -0.02705309      -0.02048312      -0.01739124      -0.00231936
H        3.59266120      -1.87781612       1.69581569       0.00000000       0.00000000       0.02927172       0.04258782       0.04872375       0.10308632
H        3.36640170      -0.63909534       0.45889220       0.00000000       0.00000000       0.01843416       0.03321666      -0.05903158       0.09932261
H        2.70007626      -2.30116548       0.22398069       0.00000000       0.00000000       0.02956521       0.00817234       0.01618624       0.10627313
H        2.23496072      -2.07880898       3.25535998       0.00000000       0.00000000       0.00187030      -0.01266254      -0.02803575       0.10241370
H        0.98498792      -2.86913048       2.28147913       0.00000000       0.00000000      -0.08885576      -0.05239616      -0.06812129       0.09955162
H        0.83974766      -0.47965212       4.16738159       0.00000000       0.00000000       0.04121230       0.01445962       0.02379583       0.10501347
H        0.09892007      -2.06784688       4.37103341       0.00000000       0.00000000       0.01282560       0.02508633      -0.00921869       0.12165638
H       -0.75783852       0.66187502       4.66914343       0.00000000       0.00000000      -0.00008026      -0.02235965       0.04670719       0.11667267
H       -2.40297701       0.46775519       4.12524252       0.00000000       0.00000000      -0.05023089      -0.05940417      -0.03725086       0.11006744
H       -1.07292918       2.60357622       3.32794936       0.00000000       0.00000000      -0.02871364      -0.02531766      -0.02576342       0.10624260
H       -2.02671865       1.74580181       2.09866989       0.00000000       0.00000000      -0.00010168      -0.02089734       0.03049009       0.09905482
H        1.40274276       1.59582802       3.46019714       0.00000000       0.00000000       0.03018112      -0.00300861       0.03301694       0.08502887
H        0.99868819       3.12684182       2.66546198       0.00000000       0.00000000       0.01673843      -0.00890575      -0.04566190       0.09119118
H        1.97384642       1.90235006       1.81081505       0.00000000       0.00000000       0.03641313      -0.01113686      -0.03667735       0.08421186
H       -3.45707053      -0.08392088       2.28218739       0.00000000       0.00000000      -0.01299955      -0.06532205      -0.04485474       0.10407574
H       -3.51151910      -1.64621839       1.41893781       0.00000000       0.00000000      -0.03106613      -0.04249247       0.02564191       0.12579637
H       -4.23904278      -0.12645131      -0.97919355       0.00000000       0.00000000       0.01664420      -0.00264438       0.01048928       0.10417355
H       -3.23479064      -1.61230994      -0.89214952       0.00000000       0.00000000      -0.04721476       0.02737155      -0.00065901       0.11511688
H       -4.33902447       1.73300214      -2.18039325       0.00000000       0.00000000      -0.04255656       0.00078627      -0.03787748       0.10719466
H       -3.23539359       2.96463969      -2.77586702       0.00000000       0.00000000      -0.07236772      -0.04642050      -0.00834734       0.11476756
H       -3.66467729       2.02616504       0.06631972       0.00000000       0.00000000       0.00097269      -0.01827242      -0.06133479       0.07705345
H       -3.32612992       3.63444137      -0.56741556       0.00000000       0.00000000       0.00445534      -0.03329944       0.00084513       0.09965787
H       -1.02579307       4.23797043      -1.02950245       0.00000000       0.00000000       0.04716016      -0.04443391       0.00938462       0.07623942
H        0.02938959       3.42124445       0.16237102       0.00000000       0.00000000      -0.00626269       0.04644721      -0.03083724       0.08375610
H       -1.45224049       4.24787107       0.69196228       0.00000000       0.00000000      -0.03354065      -0.07876921      -0.03289931       0.07584009
H       -1.63839965       2.54493719      -3.82791390       0.00000000       0.00000000       0.02090561      -0.03725242      -0.03239912       0.11328511
H       -1.65986531       0.89839960      -4.47819284       0.00000000       0.00000000      -0.02324250       0.03751586      -0.05219547       0.12004807
H        0.58078276       2.04699300      -4.01099139       0.00000000       0.00000000      -0.00483278      -0.00725197      -0.01408502       0.10680760
H        0.41434497       0.33065424      -3.59443054       0.00000000       0.00000000      -0.05467609      -0.04733599       0.01960135       0.10189191
H        2.40087850       2.16606775      -2.61497711       0.00000000       0.00000000      -0.04171948       0.01722997       0.01437351       0.08622991
H        2.01385864       2.45840049      -0.90322657       0.00000000       0.00000000      -0.02780075       0.05990639      -0.03202010       0.08409416
H        1.34005841       3.51998815      -2.17496231       0.00000000       0.00000000       0.00488350      -0.07224540       0.02146328       0.09930998
O        0.42900440      -2.70603093      -0.97210041       0.00000000       0.00000000       0.08470345      -0.01475519       0.05574268      -0.49625749
H        0.07127209      -3.00995856      -1.81807932       0.00000000       0.00000000      -0.01064815       0.04162584      -0.11656493       0.35057555
H        0.16030243      -3.40019100      -0.34912336       0.00000000       0.00000000       0.05782718       0.05958012       0.03499572       0.35650877
O        2.09177712      -0.54119080      -1.78154657       0.00000000       0.00000000       0.03066176      -0.07622146      -0.04399897      -0.50073195
H        2.88109651      -0.04478085      -2.05009868       0.00000000       0.00000000      -0.03905843      -0.05767503       0.04644162       0.34704069
H        2.14859503      -1.37358045      -2.28021238       0.00000000       0.00000000      -0.02066342       0.00452617       0.08957455       0.36254741
