340
Properties=species:S:1:pos:R:3:initial_charges:R:1:initial_magmoms:R:1:forces:R:3:charge:R:1 energy=-10778.12609319683 free_energy=-10778.12609319683 dipole="-1.4479707928599355 0.4452760298707625 -0.8775835024520032" pbc="F F F"
La       0.07930532      -0.15178486      -0.08536502       3.00000000       0.00000000       0.03168275       0.03221323       0.04495082       0.80952236
C      -10.86847797      -1.49864198      -3.01327094       0.00000000       0.00000000      -0.01797711      -0.04473959      -0.03461453      -0.10582180
C      -11.26205076      -0.09776212      -2.56467480       0.00000000       0.00000000       0.00685678      -0.06783499      -0.00888642      -0.05851875
C      -10.11121135       0.61314203      -1.84781963       0.00000000       0.00000000      -0.04047763       0.02690030       0.00291612      -0.05981950
C       -9.11297813       1.30119712      -2.78320297       0.00000000       0.00000000       0.00716590       0.03919092       0.00744973      -0.06463979
C       -8.04556377       2.01827687      -1.95667269       0.00000000       0.00000000      -0.02141433       0.07639571       0.09492473      -0.06087809
C       -6.84040537       2.55573576      -2.73975007       0.00000000       0.00000000       0.03432246       0.03901772       0.03736906      -0.06894072
C       -5.62216079       1.61579991      -2.76763160       0.00000000       0.00000000      -0.00310602       0.00108034       0.06485583      -0.06767353
C       -4.34394010       2.45163586      -2.93197095       0.00000000       0.00000000       0.07471446       0.00011335       0.01400335      -0.02471843
N       -3.06724018       1.73008645      -2.97504004       0.00000000       0.00000000      -0.01024734       0.02804154      -0.05798258      -0.04567391
C       -2.39516981       1.69256598      -4.27380764       0.00000000       0.00000000      -0.00709026      -0.02707124      -0.01330535      -0.01440155
C       -3.04620118       0.74038708      -5.27038814       0.00000000       0.00000000      -0.00427364       0.05055374       0.00199465      -0.07144898
C       -2.91902054      -0.73245625      -4.88853806       0.00000000       0.00000000      -0.02248308       0.06818349      -0.04152272      -0.05334576
C       -3.49702508      -1.59020325      -6.01664237       0.00000000       0.00000000      -0.02805473      -0.02333921       0.01142022      -0.06524027
C       -3.91853640      -2.99413976      -5.58667081       0.00000000       0.00000000      -0.00564072      -0.01415769      -0.01136593      -0.06636927
C       -2.73673991      -3.93259411      -5.37914755       0.00000000       0.00000000      -0.00145955       0.01817818      -0.01316086      -0.05877445
C       -3.14683616      -5.35829456      -5.01337561       0.00000000       0.00000000      -0.00151310       0.00474586      -0.01013708      -0.06116132
C       -3.82060534      -5.46098645      -3.65136329       0.00000000       0.00000000      -0.02199139      -0.00991153       0.01993061      -0.09930583
C       -2.41561808       1.27560255      -1.91647020       0.00000000       0.00000000       0.02105088       0.00503442       0.07138876       0.26014382
O       -1.30093399       0.70826660      -1.98684357       0.00000000       0.00000000      -0.00831923      -0.03200022       0.06389255      -0.38100282
C       -2.98090187       1.52746106      -0.52143438       0.00000000       0.00000000      -0.00214745       0.05101244      -0.04463293       0.04819726
O       -2.68310141       0.39444043       0.28914860       0.00000000       0.00000000       0.04347873      -0.02871896       0.02535867      -0.23708161
C       -3.08607024       0.59420224       1.63711193       0.00000000       0.00000000       0.00878340       0.03615700       0.05057609       0.04891967
C       -1.92927900       1.19285609       2.45864131       0.00000000       0.00000000      -0.00749037      -0.03311904      -0.09580955       0.24963870
O       -0.77376368       1.04128378       2.00397848       0.00000000       0.00000000      -0.05453200      -0.03841780       0.01016285      -0.36752094
N       -2.19157329       1.82655072       3.59319289       0.00000000       0.00000000      -0.01574020      -0.06240629      -0.05259128      -0.04192481
C       -1.08863797       2.41541389       4.34355948       0.00000000       0.00000000       0.01194055      -0.07097165      -0.01239741      -0.01488855
C       -1.04732363       3.93940248       4.22972831       0.00000000       0.00000000       0.05495999       0.00077549      -0.04176314      -0.06668174
C        0.31554628       4.47048503       4.67425921       0.00000000       0.00000000       0.03864413       0.00756144       0.02122566      -0.06790359
C        1.38841925       4.28690891       3.60099303       0.00000000       0.00000000      -0.02425043      -0.01828046      -0.00692052      -0.05761766
C        2.80367340       4.54354262       4.12557564       0.00000000       0.00000000      -0.04460080      -0.00066588      -0.04923974      -0.06296482
C        3.27872881       3.57816612       5.21571604       0.00000000       0.00000000      -0.00823037       0.06288745      -0.02651817      -0.06744979
C        3.22444277       2.10223966       4.82934529       0.00000000       0.00000000       0.00042990      -0.00142819       0.00864056      -0.04991867
C        3.82340982       1.23543609       5.92904143       0.00000000       0.00000000       0.01312552      -0.02258612       0.03898127      -0.11149976
C       -3.50641300       2.03405530       4.18858101       0.00000000       0.00000000      -0.03734344      -0.00871756      -0.03231575      -0.02204525
C       -3.75144621       1.18739645       5.44192298       0.00000000       0.00000000      -0.01559796       0.00164651       0.02492994      -0.07609080
C       -3.93210189      -0.30929472       5.15223611       0.00000000       0.00000000       0.01412886      -0.03999428      -0.02565847      -0.06520601
C       -3.03518598      -1.19380468       6.02005820       0.00000000       0.00000000      -0.02052560       0.00663588       0.02041129      -0.06805264
C       -1.55552611      -1.04435439       5.67026273       0.00000000       0.00000000      -0.04782608       0.04742475      -0.03897185      -0.06124324
C       -0.63109494      -1.85005623       6.57769649       0.00000000       0.00000000      -0.01033295       0.00161239       0.06102096      -0.05981406
C       -0.52050648      -1.27868083       7.99123637       0.00000000       0.00000000       0.01491063       0.04741370       0.08449736      -0.05995092
C       -0.06205332       0.17715665       8.02781136       0.00000000       0.00000000       0.03127512       0.00283262       0.01966161      -0.10256975
H      -11.64166705      -1.95199510      -3.62767825       0.00000000       0.00000000      -0.03632099       0.05910244       0.02269729       0.04329800
H      -10.71079786      -2.13838931      -2.14772777       0.00000000       0.00000000       0.03964599      -0.02133789       0.00084440       0.03072975
H       -9.95194056      -1.46623136      -3.59254957       0.00000000       0.00000000       0.00757980      -0.02520826      -0.05809892       0.03152549
H      -12.11094319      -0.18236843      -1.88362492       0.00000000       0.00000000       0.01103017       0.05481925      -0.02951497       0.04104345
H      -11.58235050       0.49220164      -3.42442467       0.00000000       0.00000000       0.01330310       0.01547626       0.02210420       0.04061877
H       -9.57703083      -0.11585871      -1.22888081       0.00000000       0.00000000      -0.06640079       0.04388699       0.01569303       0.02453170
H      -10.52967181       1.37011359      -1.18114841       0.00000000       0.00000000       0.04409659       0.02058751       0.00156667       0.03397914
H       -9.63970497       2.04167538      -3.38853650       0.00000000       0.00000000       0.01221088      -0.06735820      -0.02494598       0.04217717
H       -8.65193170       0.58429918      -3.46219502       0.00000000       0.00000000      -0.05053700      -0.03507788      -0.00978715       0.03750739
H       -7.69154781       1.35710280      -1.16020973       0.00000000       0.00000000      -0.03398647      -0.00311555       0.00328823       0.02137036
H       -8.54181412       2.86175187      -1.47341953       0.00000000       0.00000000       0.05484308      -0.00357296       0.07454818       0.04417182
H       -6.52514879       3.48469169      -2.25926743       0.00000000       0.00000000      -0.02963153       0.03690466      -0.06994532       0.03548249
H       -7.15911594       2.79331373      -3.75390288       0.00000000       0.00000000       0.07480431       0.03703120      -0.00828517       0.05505754
H       -5.72857234       0.88701465      -3.57026708       0.00000000       0.00000000       0.07021598       0.07037309      -0.00683097       0.06091088
H       -5.58075391       1.06495892      -1.82636101       0.00000000       0.00000000       0.01611468       0.02138244      -0.06067919       0.03772824
H       -4.29973408       3.18341221      -2.12073105       0.00000000       0.00000000       0.00116801       0.06024538      -0.03319211       0.05563562
H       -4.42949564       3.00133309      -3.86914365       0.00000000       0.00000000       0.05522515       0.02192815      -0.02166744       0.08767610
H       -1.35916140       1.39449097      -4.09721214       0.00000000       0.00000000      -0.02438212       0.01053193       0.00792385       0.07671516
H       -2.41093350       2.70764832      -4.68178606       0.00000000       0.00000000       0.02788082      -0.05958899      -0.00456699       0.07390563
H       -2.56792349       0.90182344      -6.23898510       0.00000000       0.00000000      -0.02777116      -0.00680441       0.03354520       0.06801843
H       -4.10255151       0.99315375      -5.38069862       0.00000000       0.00000000       0.03575703       0.01255855      -0.02613011       0.05481855
H       -3.47049132      -0.91601374      -3.96301829       0.00000000       0.00000000       0.03132736      -0.01027800       0.00670448       0.02340482
H       -1.86805571      -0.97418410      -4.70554482       0.00000000       0.00000000      -0.06264300      -0.01238085       0.00620628       0.02569284
H       -2.76617592      -1.65181181      -6.82483291       0.00000000       0.00000000      -0.06837087      -0.02300648      -0.04305760       0.04197350
H       -4.37812965      -1.07845805      -6.40919644       0.00000000       0.00000000       0.00553020      -0.03894623      -0.02074867       0.04308006
H       -4.56678163      -3.41306970      -6.35683680       0.00000000       0.00000000       0.00695067      -0.02063393      -0.01468568       0.04873701
H       -4.49832012      -2.92232395      -4.66700262       0.00000000       0.00000000       0.01588066       0.01571795      -0.00839850       0.03975130
H       -2.09377254      -3.52317753      -4.59497681       0.00000000       0.00000000      -0.00264173       0.00488738       0.00453494       0.00793726
H       -2.15799429      -3.96123187      -6.30264085       0.00000000       0.00000000      -0.00787455      -0.01717326      -0.02655334       0.03971244
H       -2.26043907      -5.99777583      -5.01908096       0.00000000       0.00000000      -0.00520772       0.00377183      -0.00777580       0.03062741
H       -3.82741837      -5.73490820      -5.77609903       0.00000000       0.00000000      -0.00718686      -0.02804772      -0.00861277       0.05214306
H       -3.17475227      -5.05648644      -2.87113576       0.00000000       0.00000000       0.00884502       0.00997001       0.02594873       0.00164889
H       -4.03155317      -6.49857439      -3.41272798       0.00000000       0.00000000       0.00766832      -0.04429841      -0.00130688       0.04852481
H       -4.76226392      -4.92012245      -3.63972822       0.00000000       0.00000000      -0.01009309       0.01327349       0.00735688       0.03926286
H       -4.05918543       1.70817015      -0.50096697       0.00000000       0.00000000       0.00232013      -0.01162253      -0.06517092       0.07670755
H       -2.44578338       2.41772862      -0.15488567       0.00000000       0.00000000      -0.04519379       0.02827555       0.08570790       0.08704447
H       -3.32645062      -0.39124948       2.05120859       0.00000000       0.00000000       0.05494162      -0.01351936      -0.08199364       0.09156623
H       -3.98875947       1.21314022       1.66463611       0.00000000       0.00000000       0.03187126       0.00266211      -0.02592727       0.06944796
H       -0.17100994       1.98038960       3.94912636       0.00000000       0.00000000       0.02588266       0.00716594      -0.02691207       0.08200070
H       -1.18391996       2.13108562       5.39116097       0.00000000       0.00000000       0.02148213       0.04330196       0.01588881       0.07400126
H       -1.82360093       4.38507355       4.85180942       0.00000000       0.00000000      -0.00394001      -0.00406826      -0.01109559       0.05038730
H       -1.23137470       4.22434516       3.19336853       0.00000000       0.00000000      -0.00576983       0.02364368      -0.00257164       0.04252401
H        0.60794319       3.95293536       5.58721318       0.00000000       0.00000000       0.00280458      -0.00589343       0.00739249       0.05254664
H        0.23415256       5.53045865       4.91679768       0.00000000       0.00000000      -0.00850307      -0.00222049      -0.02642699       0.05410030
H        1.18054142       4.98317598       2.78182610       0.00000000       0.00000000       0.04547867      -0.02267487       0.03581964       0.02511055
H        1.33106604       3.27788589       3.18385605       0.00000000       0.00000000       0.00929983       0.00901848      -0.01130879       0.02172889
H        2.84578574       5.55837168       4.52666556       0.00000000       0.00000000       0.03377669      -0.03167759      -0.02469100       0.04835917
H        3.49745396       4.49236337       3.28062576       0.00000000       0.00000000       0.01077726       0.00923518       0.02576555       0.02164792
H        2.69754891       3.72623494       6.12567431       0.00000000       0.00000000      -0.01607772       0.01928981       0.00134561       0.04466996
H        4.31118289       3.83600629       5.45565202       0.00000000       0.00000000       0.02046939      -0.00033113       0.01584810       0.04774386
H        3.77384663       1.94687446       3.89757197       0.00000000       0.00000000       0.00234592       0.01425063      -0.02659174       0.00707224
H        2.19134750       1.79338543       4.66143895       0.00000000       0.00000000      -0.04390170      -0.00536985      -0.00656509       0.01994075
H        4.87509214       1.46969163       6.06989161       0.00000000       0.00000000       0.01473226      -0.01892162      -0.00268120       0.04420111
H        3.72663234       0.17754366       5.69574402       0.00000000       0.00000000       0.01725209       0.00284496      -0.00716400       0.02910372
H        3.31489158       1.41889440       6.87150688       0.00000000       0.00000000      -0.01110971       0.01112434       0.02144341       0.04890520
H       -4.29196790       1.82410706       3.46576636       0.00000000       0.00000000      -0.01192510       0.02499347       0.01605511       0.05480167
H       -3.57376667       3.09066680       4.45699624       0.00000000       0.00000000       0.01827286       0.00485013       0.01729761       0.08111995
H       -4.64404088       1.57444432       5.93187618       0.00000000       0.00000000      -0.01300225       0.04390263      -0.03171595       0.06912615
H       -2.93051356       1.32979494       6.14145629       0.00000000       0.00000000      -0.02950993       0.00609521       0.03305784       0.06580348
H       -3.70268041      -0.50607414       4.10402959       0.00000000       0.00000000       0.01103685      -0.01989033      -0.01992906       0.01140446
H       -4.97404914      -0.58749769       5.31874588       0.00000000       0.00000000       0.03453416      -0.01074991      -0.00612776       0.04810265
H       -3.32997294      -2.23741022       5.89008955       0.00000000       0.00000000       0.01482740       0.01624367       0.03634863       0.03607044
H       -3.20569481      -0.93350457       7.06455610       0.00000000       0.00000000       0.06024934      -0.02696373       0.00071742       0.05695404
H       -1.26354180       0.00053770       5.73413094       0.00000000       0.00000000       0.00924893       0.00798784      -0.00152023       0.03662974
H       -1.39399562      -1.34518875       4.63231233       0.00000000       0.00000000      -0.01015463      -0.03617403      -0.03252353       0.01024941
H        0.36537341      -1.86854061       6.13183326       0.00000000       0.00000000       0.03838059       0.00662092      -0.02284638       0.02882330
H       -0.98289968      -2.88082723       6.64243995       0.00000000       0.00000000      -0.00763298      -0.02084742      -0.02040455       0.03382362
H        0.19529379      -1.88777386       8.54483851       0.00000000       0.00000000      -0.00709037      -0.00187225       0.00269755       0.04406369
H       -1.47929607      -1.35816964       8.50419765       0.00000000       0.00000000       0.00259515      -0.04261681       0.00774104       0.04049797
H        0.79165630       0.33360769       7.37098992       0.00000000       0.00000000       0.01548928      -0.02258314      -0.01225108       0.03032805
H        0.23677050       0.44563441       9.03722161       0.00000000       0.00000000      -0.02355256       0.00099139       0.00250491       0.04806061
H       -0.86191049       0.85376040       7.73077592       0.00000000       0.00000000       0.03105766      -0.00775768       0.03517080       0.02223532
C        8.40551176       1.08278670      -4.72211686       0.00000000       0.00000000       0.05066674      -0.02413478       0.01738295      -0.10502996
C        9.22368250       0.28032988      -3.71132039       0.00000000       0.00000000      -0.03244371      -0.05510867       0.02054074      -0.05427737
C        9.63636367       1.11587218      -2.49879731       0.00000000       0.00000000      -0.08878062       0.01835598       0.08274199      -0.06706607
C        8.47761929       1.36180205      -1.50584735       0.00000000       0.00000000       0.05688581       0.07417263       0.03241311      -0.06143506
C        8.60218259       0.51939240      -0.22643424       0.00000000       0.00000000       0.01385570      -0.02504633      -0.03544339      -0.06702373
C        7.68486525       0.96660170       0.93160212       0.00000000       0.00000000      -0.05957745      -0.05459805      -0.00440748      -0.06483800
C        6.51055057       0.00410810       1.13513417       0.00000000       0.00000000      -0.05404179      -0.06852992      -0.01244904      -0.07178061
C        5.45566287       0.53924232       2.10859763       0.00000000       0.00000000      -0.18158799       0.02544505       0.04797075      -0.02322263
N        4.19622189      -0.21367012       2.09533886       0.00000000       0.00000000      -0.05428131      -0.00605548       0.00852387      -0.04451778
C        4.04951772      -1.30020010       3.07074663       0.00000000       0.00000000      -0.01251911       0.10096263      -0.08827727      -0.01523033
C        4.16163026      -2.70911747       2.46648924       0.00000000       0.00000000       0.02848603       0.02911147      -0.02303037      -0.07133006
C        2.81524901      -3.44890790       2.39324764       0.00000000       0.00000000       0.01466570       0.04592685       0.00230517      -0.06163652
C        2.86251689      -4.84782097       3.01349214       0.00000000       0.00000000       0.03208782       0.06218751      -0.01694854      -0.06542995
C        3.48841679      -5.90395618       2.10109875       0.00000000       0.00000000       0.01404218       0.04191627       0.02453307      -0.06514144
C        2.53967855      -6.35868713       0.98728447       0.00000000       0.00000000      -0.02058802       0.03145058       0.04593380      -0.05503725
C        2.85632922      -7.76114686       0.46582863       0.00000000       0.00000000      -0.01236631       0.00620876       0.01441679      -0.05830491
C        4.05511118      -7.78015142      -0.47053644       0.00000000       0.00000000       0.00497257       0.05669042      -0.00198942      -0.10631728
C        3.16750312       0.07440062       1.31048498       0.00000000       0.00000000       0.00468162       0.12373018       0.00059060       0.26254507
O        2.09439834      -0.56874821       1.30456101       0.00000000       0.00000000       0.05242286       0.01020784      -0.02793620      -0.34605789
C        3.24629775       1.33324644       0.43896991       0.00000000       0.00000000       0.03037368      -0.05796514       0.09037206       0.04599580
O        2.37575906       1.17448142      -0.67893178       0.00000000       0.00000000       0.06818247       0.00089519       0.05064209      -0.20575823
C        2.27681664       2.38829075      -1.41087785       0.00000000       0.00000000       0.05133662      -0.05101646      -0.03541252       0.04173411
C        1.15091392       3.24166298      -0.82241362       0.00000000       0.00000000      -0.04357211      -0.03525675      -0.14853033       0.24548113
O        0.24060488       2.60431056      -0.24757339       0.00000000       0.00000000      -0.04398488      -0.02834584      -0.01188613      -0.40539294
N        1.14930407       4.56144810      -0.97268947       0.00000000       0.00000000      -0.01808039      -0.04735674      -0.00195747      -0.05174681
C       -0.04004643       5.28630303      -0.51855917       0.00000000       0.00000000      -0.03293472       0.00355995      -0.00138472      -0.00778989
C        0.20237511       6.69420360       0.02439836       0.00000000       0.00000000      -0.01005246      -0.00104978      -0.00378908      -0.06940146
C       -1.11944310       7.32642786       0.48073452       0.00000000       0.00000000      -0.01508891      -0.01124442      -0.01951382      -0.06637291
C       -1.64956343       6.71082504       1.77287497       0.00000000       0.00000000       0.05767124      -0.02319271      -0.01092849      -0.06093750
C       -3.03425998       7.21579389       2.17890981       0.00000000       0.00000000       0.05715098      -0.00645516       0.01945316      -0.06593174
C       -4.18759349       6.71580466       1.30693110       0.00000000       0.00000000       0.01868558       0.03398796       0.00717078      -0.06561709
C       -4.32248893       5.19398500       1.25758199       0.00000000       0.00000000      -0.02217844      -0.00101408      -0.02613048      -0.04949855
C       -5.58719122       4.78856290       0.51099389       0.00000000       0.00000000      -0.03551260      -0.01934956      -0.01470454      -0.10669187
C        2.11709507       5.32663392      -1.75220209       0.00000000       0.00000000       0.03908923      -0.01223043       0.00059983      -0.02229534
C        1.53303745       5.85426152      -3.06939507       0.00000000       0.00000000      -0.03727653       0.00863705      -0.00816416      -0.07603207
C        1.05135212       4.74471751      -4.00718933       0.00000000       0.00000000       0.03064286      -0.03457879       0.01294274      -0.06084635
C       -0.03470954       5.20850552      -4.98248157       0.00000000       0.00000000       0.07822469      -0.00696334       0.00641383      -0.06584140
C       -1.37244169       5.44552337      -4.28323217       0.00000000       0.00000000       0.05130983      -0.02084843      -0.00158674      -0.05722282
C       -2.48067130       5.85804024      -5.25625629       0.00000000       0.00000000      -0.01655742       0.03328232       0.00608569      -0.06185019
C       -2.56540481       7.37589749      -5.42969998       0.00000000       0.00000000      -0.00284357       0.00775843      -0.01981213      -0.05940195
C       -3.16610707       8.07314771      -4.21428534       0.00000000       0.00000000      -0.01166981       0.01834620      -0.02779099      -0.10475839
H        7.91364748       0.41882219      -5.43143388       0.00000000       0.00000000       0.02393892       0.04398452       0.00661547       0.03207295
H        9.04859312       1.75808594      -5.28058907       0.00000000       0.00000000       0.01652189      -0.01447042       0.02253152       0.04450775
H        7.65228286       1.68945102      -4.22128521       0.00000000       0.00000000       0.01706253      -0.02533845      -0.03683493       0.02739804
H       10.11990037      -0.09923168      -4.20629593       0.00000000       0.00000000      -0.05929344       0.00689857       0.02190603       0.04234395
H        8.65156890      -0.58769088      -3.36378845       0.00000000       0.00000000       0.04784331       0.05303344      -0.05823601       0.02241426
H       10.03650141       2.06903934      -2.85230381       0.00000000       0.00000000      -0.07566329      -0.04827083       0.02038705       0.04445887
H       10.44810629       0.60605060      -1.98039902       0.00000000       0.00000000       0.00797848      -0.01040358       0.02386261       0.04158195
H        7.52611656       1.14577710      -2.00473538       0.00000000       0.00000000       0.09348267       0.07363632       0.15540560       0.02856410
H        8.47640719       2.41890778      -1.22312084       0.00000000       0.00000000      -0.02404183      -0.08279509      -0.00151235       0.02982446
H        9.63476391       0.56899213       0.11561695       0.00000000       0.00000000       0.03019969       0.06675259      -0.01506289       0.05194375
H        8.40076800      -0.52780601      -0.46329176       0.00000000       0.00000000       0.02734034       0.01883024      -0.00412762       0.03891798
H        7.29871321       1.96956156       0.73787361       0.00000000       0.00000000       0.04074572       0.02119669      -0.05178502       0.03203747
H        8.26273743       1.01733299       1.85611759       0.00000000       0.00000000      -0.04619210       0.00473514      -0.04245412       0.04812613
H        6.89412697      -0.94664305       1.50063258       0.00000000       0.00000000       0.00884736      -0.07348284       0.04789805       0.05744863
H        6.03797712      -0.18328892       0.17277523       0.00000000       0.00000000       0.00127691       0.05093203      -0.03183701       0.04837108
H        5.24979176       1.58785072       1.89070966       0.00000000       0.00000000       0.03488942       0.04413334       0.03278673       0.05205605
H        5.84276230       0.49778006       3.12481363       0.00000000       0.00000000       0.07024609      -0.00210764       0.06829630       0.08622449
H        3.06686733      -1.17702577       3.53754889       0.00000000       0.00000000       0.05051585      -0.00857615      -0.01604326       0.07497810
H        4.81368634      -1.14614950       3.83214380       0.00000000       0.00000000      -0.01342333      -0.03749316      -0.04785282       0.07805986
H        4.86294445      -3.28710221       3.06880893       0.00000000       0.00000000      -0.06051542      -0.01732987       0.03950928       0.06643660
H        4.59826173      -2.62677180       1.47287517       0.00000000       0.00000000       0.01482395       0.01473693      -0.02981252       0.05205825
H        2.49232665      -3.51783188       1.35499279       0.00000000       0.00000000      -0.07274509      -0.01164144      -0.03661191       0.03951312
H        2.06153782      -2.86185914       2.92039717       0.00000000       0.00000000      -0.04779804      -0.01540375       0.00144878       0.03568099
H        1.84559488      -5.16373110       3.25653302       0.00000000       0.00000000       0.03520246      -0.00473223       0.03967297       0.03590811
H        3.41936071      -4.79622883       3.95313613       0.00000000       0.00000000      -0.03838098      -0.01837846      -0.06131873       0.04169196
H        3.75246755      -6.76385458       2.71737066       0.00000000       0.00000000      -0.02933357      -0.04552250      -0.03708205       0.04813830
H        4.41058045      -5.51342774       1.67098363       0.00000000       0.00000000       0.05168838      -0.02044382       0.01307313       0.03410125
H        2.56338978      -5.64638675       0.15763359       0.00000000       0.00000000      -0.00275387      -0.00579687      -0.00422310       0.01381224
H        1.52153763      -6.35701053       1.38271362       0.00000000       0.00000000      -0.00572979      -0.01837340       0.04195831       0.02286681
H        1.98691021      -8.15519585      -0.06451155       0.00000000       0.00000000      -0.01196372       0.00628117      -0.02356645       0.03095053
H        3.04146718      -8.41828777       1.31759380       0.00000000       0.00000000       0.00473618      -0.00559917      -0.04311199       0.04247069
H        3.84427416      -7.20221332      -1.36806908       0.00000000       0.00000000       0.01245195       0.00142333      -0.04006221       0.02316729
H        4.29030429      -8.79610935      -0.76799774       0.00000000       0.00000000       0.01682415      -0.04344693      -0.00568945       0.04769868
H        4.92683575      -7.35129641       0.01215662       0.00000000       0.00000000       0.07447934      -0.02080371       0.03749793       0.04016338
H        4.26484992       1.53434447       0.08547102       0.00000000       0.00000000      -0.11721264      -0.02030592      -0.06176866       0.08451523
H        2.90358718       2.16738313       1.07440080       0.00000000       0.00000000       0.02860532       0.03968129      -0.01812012       0.07984479
H        1.99160374       2.11560675      -2.43230801       0.00000000       0.00000000       0.00006844      -0.04178150      -0.04277534       0.10946502
H        3.25011831       2.88312923      -1.43886436       0.00000000       0.00000000       0.00644520       0.01460321       0.04798654       0.07492771
H       -0.49023381       4.67034501       0.26095693       0.00000000       0.00000000       0.01483424      -0.03329336       0.01039817       0.07078466
H       -0.74360508       5.33441453      -1.35571994       0.00000000       0.00000000      -0.02865254       0.03831858      -0.01499845       0.06233017
H        0.63569826       7.33559119      -0.74446969       0.00000000       0.00000000      -0.03494801      -0.04394333       0.04494800       0.05493612
H        0.89501517       6.65283195       0.86755724       0.00000000       0.00000000       0.00189176       0.01843125      -0.01696680       0.04814167
H       -1.85991695       7.22136660      -0.31317521       0.00000000       0.00000000      -0.00858999      -0.02181319      -0.02844053       0.04086539
H       -0.96495515       8.39431671       0.63765218       0.00000000       0.00000000       0.02379361      -0.01539683       0.01368147       0.05821265
H       -0.94110992       6.93516755       2.57321743       0.00000000       0.00000000      -0.04259236       0.02013534       0.02461846       0.03890081
H       -1.69123772       5.62572722       1.66913718       0.00000000       0.00000000       0.00537995      -0.00096173       0.02157064       0.01870780
H       -3.03069735       8.30682022       2.16666465       0.00000000       0.00000000      -0.02266671      -0.02819680       0.00232423       0.05097119
H       -3.21946774       6.89884102       3.20665275       0.00000000       0.00000000      -0.01966151       0.01344765       0.04244242       0.03776833
H       -4.09182955       7.10196890       0.29091800       0.00000000       0.00000000       0.03442824      -0.00983403      -0.00341417       0.03776219
H       -5.11014937       7.12619596       1.71916470       0.00000000       0.00000000      -0.02078906       0.01278305      -0.01894894       0.05024567
H       -4.35634847       4.79574926       2.27429709       0.00000000       0.00000000       0.00012683       0.02446205       0.03154365       0.02391869
H       -3.45674526       4.75440911       0.75459230       0.00000000       0.00000000       0.04302623      -0.01298110      -0.02068042       0.00565208
H       -6.46261106       5.20003393       1.00634883       0.00000000       0.00000000       0.00387113      -0.02353687      -0.02064574       0.05445470
H       -5.69720770       3.70481615       0.47080995       0.00000000       0.00000000      -0.00456769       0.00999522       0.00322099       0.01491112
H       -5.56550958       5.17497010      -0.50636833       0.00000000       0.00000000      -0.01293670      -0.00570757       0.01385923       0.03593550
H        2.99522557       4.72178790      -1.96424037       0.00000000       0.00000000      -0.03327478      -0.03709154      -0.04073801       0.05621075
H        2.44893042       6.17639133      -1.15027944       0.00000000       0.00000000      -0.05091672      -0.04799929       0.04634849       0.08300223
H        2.30163423       6.45106876      -3.56295283       0.00000000       0.00000000       0.00014538      -0.06423003       0.01830072       0.06859443
H        0.70997196       6.52960182      -2.85017520       0.00000000       0.00000000      -0.04783144       0.01675964       0.01922438       0.06474521
H        0.63615293       3.91879391      -3.41957710       0.00000000       0.00000000       0.02084701      -0.01520163       0.01846363       0.01117546
H        1.90393235       4.35878079      -4.56961099       0.00000000       0.00000000      -0.03758433      -0.02135633       0.00487289       0.04022416
H       -0.15901438       4.43174532      -5.74077250       0.00000000       0.00000000      -0.03559664       0.03484650      -0.00662879       0.03853740
H        0.28356290       6.11798763      -5.49188965       0.00000000       0.00000000       0.01099067      -0.00952133       0.02614499       0.05529571
H       -1.25922115       6.23021221      -3.53545393       0.00000000       0.00000000      -0.01825643       0.01075312      -0.00089011       0.03793779
H       -1.64989727       4.53192101      -3.74869508       0.00000000       0.00000000      -0.03627833      -0.05393604       0.00614774       0.00178576
H       -3.44724369       5.50004009      -4.89387616       0.00000000       0.00000000      -0.02052999       0.00288355       0.02415543       0.02607744
H       -2.30176349       5.39229368      -6.22727539       0.00000000       0.00000000       0.00375873      -0.00649930       0.00879159       0.03537776
H       -3.18437696       7.59795522      -6.29976257       0.00000000       0.00000000       0.00612197      -0.00519034       0.00924029       0.04592724
H       -1.57013376       7.77917020      -5.62342188       0.00000000       0.00000000       0.00172072      -0.02066586      -0.02010045       0.03946378
H       -4.18463881       7.73362446      -4.03828149       0.00000000       0.00000000       0.01037682      -0.02462829       0.00077326       0.03532834
H       -3.19413984       9.14444659      -4.38207212       0.00000000       0.00000000      -0.00637620       0.05341225       0.00493115       0.04963874
H       -2.57958045       7.89131450      -3.31534552       0.00000000       0.00000000      -0.01804870       0.00884262       0.00244536       0.02249478
C        3.87206711       0.64757342      -4.50743750       0.00000000       0.00000000       0.02896435       0.00220341       0.02822380      -0.10431256
C        4.84457212       0.73781524      -3.33949900       0.00000000       0.00000000       0.00136193       0.06381096      -0.00415790      -0.06191485
C        4.68744953      -0.37534507      -2.29585188       0.00000000       0.00000000       0.13682974       0.10672948      -0.04462154      -0.06295100
C        5.62771132      -1.54464114      -2.59148597       0.00000000       0.00000000      -0.09035105      -0.02939541       0.03508268      -0.06749584
C        5.63826939      -2.63319889      -1.51456761       0.00000000       0.00000000      -0.03043468      -0.07393669      -0.00744727      -0.06604070
C        4.32072338      -3.37932730      -1.28543307       0.00000000       0.00000000      -0.01141482       0.00011026       0.04559935      -0.06353611
C        3.85845270      -4.15468892      -2.51783608       0.00000000       0.00000000      -0.02971262       0.09493140       0.04890438      -0.06714616
C        3.07321247      -3.27273540      -3.49417136       0.00000000       0.00000000      -0.05338512      -0.03426843      -0.08902213      -0.02722170
N        1.63142663      -3.44022116      -3.32465975       0.00000000       0.00000000      -0.03799258       0.01257004       0.13580962      -0.04614499
C        1.05768948      -4.43438227      -4.22518144       0.00000000       0.00000000       0.02675218       0.02032936      -0.03514174      -0.02436135
C        0.67528869      -3.80156220      -5.57274166       0.00000000       0.00000000      -0.01628104       0.04065566      -0.10484205      -0.07155619
C        1.82617732      -3.43617965      -6.51248137       0.00000000       0.00000000       0.00597392      -0.00641411      -0.06028579      -0.06618387
C        1.33593815      -2.84820875      -7.84387134       0.00000000       0.00000000      -0.00490777       0.00455054       0.01898930      -0.06639521
C        0.60553528      -1.50462673      -7.72565107       0.00000000       0.00000000       0.01587527      -0.00906802       0.02228615      -0.06186566
C        1.44463959      -0.41081301      -7.06451302       0.00000000       0.00000000       0.00122956       0.01348310      -0.00767484      -0.06276127
C        0.66154025       0.87002584      -6.76570983       0.00000000       0.00000000      -0.00720749      -0.00520132      -0.02244779      -0.05163704
C        0.14601160       1.59051284      -8.00644224       0.00000000       0.00000000       0.01498105      -0.00634240      -0.00060144      -0.10864507
C        0.94317949      -2.73129537      -2.43765142       0.00000000       0.00000000       0.00429498       0.00919541       0.06456177       0.25667865
O        1.38198757      -1.74461977      -1.80312767       0.00000000       0.00000000      -0.01751864       0.01125121      -0.05352264      -0.37568930
C       -0.45612428      -3.23412418      -2.07466441       0.00000000       0.00000000       0.03504184      -0.03741659      -0.03513734       0.04986051
O       -1.17492954      -2.20906444      -1.40019567       0.00000000       0.00000000       0.05367975      -0.00701559       0.00899577      -0.22479555
C       -2.34568320      -2.70908913      -0.76526721       0.00000000       0.00000000       0.01319698      -0.01890039      -0.08837806       0.04412018
C       -2.17285910      -2.62052745       0.75388069       0.00000000       0.00000000      -0.04636440       0.05216406       0.00837223       0.24999976
O       -1.20896213      -1.95042526       1.18575390       0.00000000       0.00000000       0.09384761       0.08687309      -0.02632416      -0.37451893
N       -3.05455457      -3.21927423       1.54201561       0.00000000       0.00000000      -0.04909732      -0.00680558       0.08760293      -0.05061566
C       -2.79399361      -3.27994611       2.97845282       0.00000000       0.00000000      -0.01893051      -0.01992828       0.00563353      -0.01485872
C       -2.48984567      -4.69453952       3.47704204       0.00000000       0.00000000       0.03546074      -0.12323347      -0.03210998      -0.07166051
C       -1.25652645      -5.30538992       2.81833897       0.00000000       0.00000000       0.04408119      -0.07542397      -0.01421932      -0.05448127
C       -1.02703367      -6.76399993       3.23634730       0.00000000       0.00000000      -0.00459198       0.00078726       0.00450206      -0.06412632
C       -2.03805319      -7.79590651       2.71684763       0.00000000       0.00000000       0.01698702       0.03311516      -0.04827073      -0.06533819
C       -2.32000412      -7.76117114       1.21282372       0.00000000       0.00000000       0.00434245       0.02998009      -0.02714803      -0.05591413
C       -1.08854258      -7.95660880       0.32994277       0.00000000       0.00000000      -0.00376084       0.02706233       0.03005102      -0.05670820
C       -1.45025149      -7.89911269      -1.15019728       0.00000000       0.00000000       0.00760301      -0.00529933       0.01224437      -0.10280669
C       -4.19057614      -3.99872220       1.05041798       0.00000000       0.00000000       0.06316966      -0.04375444      -0.07412443      -0.02198565
C       -5.49622868      -3.88814366       1.84660929       0.00000000       0.00000000      -0.00918241       0.00159293       0.00149287      -0.07278233
C       -6.21786933      -2.54330017       1.71270451       0.00000000       0.00000000       0.01121997      -0.06278877       0.00241254      -0.06530866
C       -6.77097590      -2.32306447       0.29709377       0.00000000       0.00000000       0.09945168       0.03796290      -0.03095181      -0.07203978
C       -5.85566982      -1.43661368      -0.56130936       0.00000000       0.00000000      -0.02051871       0.05833121       0.02175927      -0.05902331
C       -5.75885707      -1.86913576      -2.02612903       0.00000000       0.00000000      -0.01668066      -0.06372869       0.03597498      -0.05525312
C       -7.13889200      -1.83775170      -2.68077716       0.00000000       0.00000000      -0.00046593      -0.00689106       0.03961557      -0.06505760
C       -7.11352188      -1.98640601      -4.19448119       0.00000000       0.00000000       0.04954306      -0.06694532       0.03658673      -0.10488103
H        3.99813440       1.51634532      -5.14923285       0.00000000       0.00000000      -0.01659113      -0.04846057      -0.05806383       0.04162185
H        4.05875199      -0.24126029      -5.10414791       0.00000000       0.00000000      -0.01045004       0.00610346       0.03051844       0.04303282
H        2.84227845       0.62988259      -4.15388787       0.00000000       0.00000000      -0.05624138      -0.06513810       0.00184895       0.01853546
H        5.85863319       0.70590510      -3.73652016       0.00000000       0.00000000      -0.02667104       0.01155087       0.00743915       0.05813065
H        4.71816249       1.71612523      -2.86837934       0.00000000       0.00000000      -0.00334908      -0.00622037       0.05225479       0.00954477
H        4.96199896       0.01735745      -1.31898998       0.00000000       0.00000000       0.03799251       0.06544662       0.02985391       0.01711274
H        3.64094572      -0.67775671      -2.21760924       0.00000000       0.00000000       0.01146246      -0.00074795      -0.03259995       0.04053245
H        5.39614721      -1.96788361      -3.56826717       0.00000000       0.00000000       0.06909482      -0.07380997       0.01329394       0.03805166
H        6.64011535      -1.13965348      -2.65499538       0.00000000       0.00000000       0.00258605      -0.04997952       0.01109564       0.04902164
H        6.39720663      -3.36762355      -1.78430985       0.00000000       0.00000000       0.05961474      -0.03454390      -0.03898591       0.04694411
H        5.95268087      -2.19296672      -0.56544379       0.00000000       0.00000000      -0.02194482      -0.00345860      -0.04471317       0.02982891
H        4.46766744      -4.08544168      -0.46524436       0.00000000       0.00000000       0.06892293       0.01712118      -0.02090868       0.04433803
H        3.53887420      -2.68042808      -0.98385429       0.00000000       0.00000000      -0.04308443       0.02361454       0.05510486       0.03737557
H        4.72815333      -4.57986833      -3.01902863       0.00000000       0.00000000       0.01385284       0.03588639      -0.01680750       0.06357338
H        3.22082772      -4.99116535      -2.22860745       0.00000000       0.00000000      -0.00509474      -0.02916513       0.08812213       0.04078684
H        3.31053455      -2.22737381      -3.35686604       0.00000000       0.00000000      -0.01555359       0.11341365       0.04028903       0.09502724
H        3.32459637      -3.56922596      -4.50772919       0.00000000       0.00000000      -0.03256589       0.03970098      -0.01829540       0.08049373
H        1.78745678      -5.23416242      -4.36459548       0.00000000       0.00000000       0.06524606       0.07805112      -0.04076802       0.08423963
H        0.17287678      -4.89281372      -3.79351678       0.00000000       0.00000000      -0.02077215      -0.07235108       0.07309485       0.05392420
H        0.02991715      -4.51008147      -6.09314683       0.00000000       0.00000000       0.02290721      -0.00845897      -0.00056526       0.06537177
H        0.09480125      -2.90081846      -5.36965901       0.00000000       0.00000000      -0.02689748      -0.00628594       0.01390167       0.04630337
H        2.48168857      -2.70091266      -6.04842829       0.00000000       0.00000000      -0.02430491      -0.00250681      -0.03496476       0.03912420
H        2.41903018      -4.32810249      -6.72665060       0.00000000       0.00000000      -0.04290464      -0.00879190      -0.01586148       0.04261814
H        2.20242481      -2.71143531      -8.49420705       0.00000000       0.00000000       0.00157120      -0.00863499       0.05031008       0.04990560
H        0.67448391      -3.56298415      -8.33921519       0.00000000       0.00000000       0.01024916       0.01170079       0.05858631       0.04307732
H        0.34001736      -1.18979633      -8.73578276       0.00000000       0.00000000      -0.03484593      -0.00205498       0.05032752       0.04819344
H       -0.32220672      -1.63221815      -7.16247886       0.00000000       0.00000000      -0.01178232      -0.01471034      -0.01591764       0.02426437
H        1.83231841      -0.77667113      -6.11145654       0.00000000       0.00000000      -0.01641164       0.01087339      -0.00900163       0.02279685
H        2.29911747      -0.17790853      -7.70030814       0.00000000       0.00000000      -0.00111688       0.02013352      -0.02564718       0.04209675
H       -0.18215526       0.61522383      -6.11625872       0.00000000       0.00000000       0.03439414       0.04820545      -0.00170576       0.01515098
H        1.31908294       1.54975363      -6.21317394       0.00000000       0.00000000      -0.05797490      -0.03258766      -0.01493020       0.02029106
H       -0.59209386       0.99123525      -8.53200051       0.00000000       0.00000000       0.00366912      -0.00465575       0.00357898       0.04156187
H       -0.31638996       2.53794113      -7.73344395       0.00000000       0.00000000      -0.00734912      -0.03394952       0.00879135       0.02837600
H        0.96248306       1.80354951      -8.69078573       0.00000000       0.00000000       0.01531873      -0.02305416       0.00464791       0.04937098
H       -1.03569511      -3.56360356      -2.94446065       0.00000000       0.00000000      -0.00157192       0.11822551      -0.01775725       0.07796867
H       -0.28655653      -4.09419032      -1.40870088       0.00000000       0.00000000      -0.04589153      -0.03516735       0.03352845       0.07357444
H       -3.18174688      -2.08098505      -1.08966675       0.00000000       0.00000000      -0.01382287       0.02872308      -0.00070065       0.10093373
H       -2.53015897      -3.73942628      -1.07958259       0.00000000       0.00000000      -0.05079081      -0.02851985       0.02421189       0.07688508
H       -1.93890333      -2.63010360       3.17835312       0.00000000       0.00000000      -0.03692954      -0.06080263      -0.04694677       0.07809828
H       -3.67257751      -2.89737313       3.49658834       0.00000000       0.00000000      -0.00660028       0.06966732       0.06905093       0.06980566
H       -2.31686921      -4.64309989       4.55292427       0.00000000       0.00000000      -0.05021358       0.06278019      -0.00318496       0.06158598
H       -3.34580417      -5.34991471       3.31768691       0.00000000       0.00000000      -0.01984732       0.04174459      -0.01298084       0.05923334
H       -1.34496483      -5.23793518       1.73117757       0.00000000       0.00000000       0.02131019      -0.03879442       0.01126979       0.02018866
H       -0.37528678      -4.72446057       3.10642870       0.00000000       0.00000000      -0.05517529       0.02819364      -0.02098355       0.03145608
H       -0.02864765      -7.06433773       2.91004183       0.00000000       0.00000000      -0.04331203       0.02367739       0.00431149       0.04218620
H       -1.03823152      -6.81832786       4.32800643       0.00000000       0.00000000       0.05582189       0.02420475      -0.04664688       0.04327652
H       -1.64128984      -8.77977358       2.97265956       0.00000000       0.00000000      -0.05463466      -0.00413422      -0.00194259       0.05036135
H       -2.99041576      -7.68732956       3.24211817       0.00000000       0.00000000       0.05054304       0.02937625       0.00389430       0.03472131
H       -3.04549912      -8.54605972       0.98529534       0.00000000       0.00000000       0.04210295       0.02135631       0.01187426       0.04271714
H       -2.78982527      -6.80826462       0.94701057       0.00000000       0.00000000      -0.02608176      -0.01098066       0.00468111       0.00858902
H       -0.35609945      -7.17550428       0.54223304       0.00000000       0.00000000       0.01122453      -0.00197928       0.02619690       0.02406435
H       -0.62445810      -8.91712942       0.55728221       0.00000000       0.00000000      -0.03415996       0.01466601      -0.00465246       0.04542379
H       -1.91653286      -6.94436948      -1.39533298       0.00000000       0.00000000      -0.01749107      -0.00060779      -0.00796151       0.01103831
H       -0.56400250      -8.01494533      -1.76997203       0.00000000       0.00000000      -0.00202702      -0.03009150       0.00853132       0.03425576
H       -2.14958285      -8.69122775      -1.40107123       0.00000000       0.00000000      -0.00132769      -0.00798454      -0.01942894       0.04812415
H       -4.41032333      -3.69505533       0.03129033       0.00000000       0.00000000      -0.00645215      -0.02506158      -0.04483347       0.06642088
H       -3.88985821      -5.04994957       1.04006010       0.00000000       0.00000000      -0.01575311      -0.08496010      -0.00980365       0.07409674
H       -6.15608971      -4.65535842       1.43186313       0.00000000       0.00000000       0.03583248       0.00667413       0.07809532       0.07094985
H       -5.35288614      -4.14078106       2.89733526       0.00000000       0.00000000       0.06506301       0.07059717      -0.04730290       0.05984658
H       -7.03774168      -2.53716301       2.43042006       0.00000000       0.00000000      -0.01967323      -0.02816452      -0.01668521       0.05759943
H       -5.55142381      -1.71869091       1.97936141       0.00000000       0.00000000       0.00353662      -0.03152122       0.04965082       0.02198572
H       -6.90255791      -3.28933512      -0.18893307       0.00000000       0.00000000       0.01561699      -0.03656040       0.02123488       0.05095978
H       -7.75992296      -1.86633237       0.34935917       0.00000000       0.00000000       0.06582742      -0.01463992       0.03973261       0.05201893
H       -6.25007392      -0.41763230      -0.53556916       0.00000000       0.00000000       0.03535926      -0.00466202       0.03015696       0.02731609
H       -4.85411313      -1.39869472      -0.12167379       0.00000000       0.00000000      -0.01915351       0.01063702       0.01198113       0.00464769
H       -5.07776800      -1.18356693      -2.54477736       0.00000000       0.00000000      -0.10070666      -0.05986821      -0.01778995       0.01520300
H       -5.32787981      -2.87321654      -2.10693727       0.00000000       0.00000000      -0.07819788       0.00724464       0.05544301       0.01647810
H       -7.75886338      -2.62754545      -2.25482483       0.00000000       0.00000000       0.01967581       0.00453273      -0.03575573       0.04331335
H       -7.60212301      -0.88694573      -2.42510210       0.00000000       0.00000000      -0.03065620      -0.01119456      -0.01626916       0.05223686
H       -6.70360236      -2.94721949      -4.49546846       0.00000000       0.00000000      -0.02992953      -0.00254296       0.03206541       0.03768958
H       -8.12407714      -1.92364737      -4.58564871       0.00000000       0.00000000       0.00664983       0.00565274      -0.05880084       0.04948314
H       -6.51852066      -1.19944696      -4.64927060       0.00000000       0.00000000       0.03029442       0.03556617      -0.06831164       0.02769051
