340
Properties=species:S:1:pos:R:3:initial_charges:R:1:initial_magmoms:R:1:forces:R:3:charge:R:1 energy=-10778.311236607819 free_energy=-10778.311236607819 dipole="0.1492346830785609 0.2537819815890473 1.6477211147007276" pbc="F F F"
La       0.02639445      -0.07372429      -0.01073736       3.00000000       0.00000000       0.00126083       0.07150173      -0.00336810       0.81032993
C        3.89004131       1.42236029      -1.00397758       0.00000000       0.00000000       0.00732054       0.02419949       0.02021534      -0.11880684
C        4.59612094       0.09602669      -0.73692974       0.00000000       0.00000000      -0.08779115       0.02607213       0.07530428      -0.06613957
C        3.69165381      -0.99702337      -0.14494260       0.00000000       0.00000000      -0.10947694      -0.04692033       0.05446843      -0.06304697
C        3.99660470      -1.50857874       1.27186203       0.00000000       0.00000000      -0.00778174       0.01165055      -0.01751010      -0.06206832
C        3.47362519      -2.95267235       1.42089316       0.00000000       0.00000000       0.04571340       0.05044346      -0.04738873      -0.06877953
C        2.99088373      -3.34355173       2.81396582       0.00000000       0.00000000       0.06291202       0.00833462      -0.03160554      -0.01426802
N        1.93868642      -2.52741262       3.41552180       0.00000000       0.00000000      -0.04433614       0.15834311      -0.04757279      -0.04316579
C        1.95025360      -2.50982706       4.87679608       0.00000000       0.00000000       0.03632737      -0.00084635       0.04406349      -0.02879754
C        2.46695061      -1.17591720       5.45544745       0.00000000       0.00000000      -0.03268741      -0.02125235      -0.02957158      -0.07462029
C        3.87585944      -1.22122846       6.07500507       0.00000000       0.00000000      -0.00482271       0.02438599       0.01664822      -0.02043939
C        3.99065392      -0.09957026       7.10936586       0.00000000       0.00000000       0.00558614      -0.00885775       0.00296244      -0.11777062
C        4.97426368      -1.11505159       5.00193195       0.00000000       0.00000000       0.05182663       0.01305233       0.05990368      -0.06196402
C        6.36162770      -0.82389708       5.57949611       0.00000000       0.00000000      -0.00633345       0.00517059       0.02987499      -0.06732616
C        7.47571996      -0.81266667       4.52941072       0.00000000       0.00000000      -0.01570132      -0.00572329       0.03607732      -0.06756988
C        8.02941310      -2.17012552       4.07638515       0.00000000       0.00000000       0.03742944      -0.03004618      -0.01802855      -0.00697017
C        8.41930479      -3.06934495       5.24850555       0.00000000       0.00000000      -0.00410313       0.00655514      -0.01804558      -0.11148120
C        9.25971812      -1.90831930       3.20295643       0.00000000       0.00000000      -0.00729583      -0.01239793       0.00110929      -0.11361131
C        1.06483500      -1.82684162       2.71267884       0.00000000       0.00000000       0.00791883      -0.07971886       0.15183952       0.26203747
O        0.98607558      -1.83185623       1.46961645       0.00000000       0.00000000      -0.01747128       0.04113702      -0.12459836      -0.38366042
C        0.07426213      -0.90723030       3.43116338       0.00000000       0.00000000      -0.08334672       0.06530006       0.01358823       0.04852554
O        0.28664856       0.34662852       2.78532074       0.00000000       0.00000000       0.05255111      -0.00238584      -0.01007488      -0.24291908
C       -0.36972368       1.45191971       3.37913315       0.00000000       0.00000000       0.02501833      -0.10771350      -0.03564491       0.05180088
C       -1.53343353       1.89596388       2.49039514       0.00000000       0.00000000       0.01596977      -0.00469089      -0.06612017       0.24926624
O       -1.63338777       1.41366351       1.34529533       0.00000000       0.00000000       0.01434182       0.07581723       0.12252045      -0.37594645
N       -2.35518519       2.81238906       2.99716238       0.00000000       0.00000000      -0.00086701      -0.02619110      -0.05319421      -0.06463018
C       -2.11011707       3.36943336       4.33309272       0.00000000       0.00000000      -0.02162585      -0.07176958      -0.05134600      -0.01491276
C       -3.14136153       4.34934096       4.88016209       0.00000000       0.00000000       0.05049846       0.00272366       0.04521257      -0.06995653
C       -2.83088075       4.64664587       6.35236838       0.00000000       0.00000000       0.01363129       0.05956187       0.01173271      -0.06170769
C       -3.94555269       5.43508446       7.04646623       0.00000000       0.00000000       0.02947820       0.00176805      -0.01211845      -0.06756707
C       -5.18640854       4.58886031       7.37016313       0.00000000       0.00000000       0.04213084       0.00410694      -0.00676661      -0.05908328
C       -6.29991217       4.67823134       6.32993698       0.00000000       0.00000000       0.00974667       0.00057516       0.02011374      -0.10599714
C       -3.55875710       3.14820279       2.24920828       0.00000000       0.00000000      -0.06755752       0.02698039      -0.03157733      -0.00640344
C       -4.65292191       2.06444334       2.29502323       0.00000000       0.00000000       0.03504506       0.02316283      -0.02696775      -0.07766673
C       -4.86939786       1.34363751       3.64221806       0.00000000       0.00000000       0.01887994       0.02105426      -0.04591315      -0.01794292
C       -6.33281133       0.91762742       3.74482837       0.00000000       0.00000000      -0.01280387       0.00127863       0.00646231      -0.11601414
C       -3.95700885       0.11467497       3.73254652       0.00000000       0.00000000       0.00211843      -0.01584407       0.00561992      -0.06526177
C       -4.00127011      -0.67423687       5.04176697       0.00000000       0.00000000       0.03110128       0.00598155      -0.00022217      -0.06432528
C       -3.29948559       0.04378322       6.19218200       0.00000000       0.00000000      -0.00086668      -0.01729624       0.00362125      -0.05684487
C       -3.03438232      -0.85665758       7.40477452       0.00000000       0.00000000       0.01502281      -0.00442827       0.01308687      -0.01428743
C       -2.57706427      -0.01072157       8.59136357       0.00000000       0.00000000       0.01040729       0.00110773      -0.00470572      -0.11169014
C       -1.97900266      -1.91656047       7.08622469       0.00000000       0.00000000       0.00777525       0.02115114       0.00516027      -0.10614156
H        4.51548975       2.06419400      -1.62314022       0.00000000       0.00000000      -0.03822543      -0.06751696      -0.06814845       0.04311687
H        3.71134513       1.94251035      -0.07613072       0.00000000       0.00000000      -0.02801605       0.00556753      -0.00873594       0.05450435
H        2.92375534       1.27411918      -1.49296489       0.00000000       0.00000000       0.08785403       0.02592382       0.01917835       0.04434974
H        5.43797299       0.27112673      -0.07514859       0.00000000       0.00000000       0.06872521       0.03953243       0.03411739       0.06135749
H        5.00683777      -0.26267637      -1.67958207       0.00000000       0.00000000       0.01803121      -0.01047912       0.02391588       0.04345345
H        3.76368585      -1.86147625      -0.80252343       0.00000000       0.00000000      -0.04322471      -0.01312610      -0.02920768       0.03723336
H        2.64036054      -0.65481388      -0.14967359       0.00000000       0.00000000       0.01165096       0.01972346       0.03317565       0.07580805
H        3.51086163      -0.86147186       2.00340781       0.00000000       0.00000000       0.03708700       0.02085813       0.02495575       0.03622118
H        5.07193815      -1.47823075       1.45305568       0.00000000       0.00000000      -0.03596143      -0.08510201       0.04256867       0.06157931
H        4.27864795      -3.65258532       1.18948948       0.00000000       0.00000000       0.01454858       0.00298493      -0.06534837       0.06226928
H        2.66783376      -3.12356573       0.70655784       0.00000000       0.00000000       0.01618706       0.03724946       0.00579429       0.05298508
H        3.83991807      -3.28289149       3.49501022       0.00000000       0.00000000       0.04018942      -0.04570237       0.00519202       0.08782713
H        2.64281693      -4.38224691       2.79266262       0.00000000       0.00000000       0.01621116      -0.01165666      -0.00862131       0.06710533
H        2.59322884      -3.32718047       5.20600380       0.00000000       0.00000000      -0.05123970       0.02574429       0.02145410       0.08998914
H        0.94418283      -2.73093571       5.24569373       0.00000000       0.00000000       0.05344416      -0.00075862      -0.03570245       0.06089345
H        1.77084667      -0.84730209       6.23117664       0.00000000       0.00000000       0.06686215      -0.02207924       0.00099471       0.05134604
H        2.46293392      -0.42617167       4.66125645       0.00000000       0.00000000       0.02073980       0.06664060       0.03669476       0.04083780
H        3.98272485      -2.17261155       6.60445818       0.00000000       0.00000000       0.06677004       0.00880443       0.02778298       0.04242525
H        3.94824172       0.87822514       6.63191644       0.00000000       0.00000000      -0.01919515      -0.03264382       0.01282788       0.03680358
H        4.92765533      -0.18272938       7.64850320       0.00000000       0.00000000      -0.03300267       0.03567947       0.04216975       0.06383702
H        3.18758705      -0.16839834       7.83989659       0.00000000       0.00000000      -0.00398042       0.00544961      -0.03150994       0.04286176
H        4.71286710      -0.32132725       4.29454398       0.00000000       0.00000000       0.01277713      -0.00525101       0.02561034       0.02055060
H        5.03500402      -2.05066030       4.44425453       0.00000000       0.00000000      -0.01972449       0.01220415      -0.00144743       0.02782566
H        6.58794067      -1.55600934       6.35427555       0.00000000       0.00000000       0.01235733       0.05353239      -0.01144677       0.04897538
H        6.35443804       0.16168925       6.04625705       0.00000000       0.00000000      -0.02156966      -0.02126144      -0.01915624       0.04053300
H        8.31254400      -0.24899230       4.94334220       0.00000000       0.00000000       0.02116034       0.01264254       0.02347107       0.04624338
H        7.12061267      -0.26855870       3.64931484       0.00000000       0.00000000       0.03169055       0.02091519      -0.00549211       0.02196946
H        7.27501310      -2.69196177       3.47323643       0.00000000       0.00000000      -0.03614126       0.01472294       0.01021147       0.00850765
H        9.10444352      -2.54706481       5.91312658       0.00000000       0.00000000      -0.02752242      -0.02393835      -0.02389500       0.04654713
H        8.91556285      -3.96624870       4.88305077       0.00000000       0.00000000      -0.00106805       0.05207991      -0.00210158       0.04420341
H        7.54952973      -3.38385192       5.82160595       0.00000000       0.00000000       0.02680169      -0.00778877      -0.01778985       0.03073561
H       10.07141580      -1.52074394       3.81558911       0.00000000       0.00000000      -0.03163164      -0.02650279      -0.03034432       0.04771761
H        9.03951936      -1.17287010       2.43007057       0.00000000       0.00000000       0.00542119      -0.05125854       0.00496582       0.03046810
H        9.60331586      -2.82341240       2.72449993       0.00000000       0.00000000      -0.01323441       0.03654073       0.04143172       0.04094125
H        0.22929411      -0.80463934       4.50554608       0.00000000       0.00000000       0.00447186      -0.03256265      -0.01399610       0.07387652
H       -0.94152468      -1.28630220       3.24292609       0.00000000       0.00000000      -0.04294718       0.04070165      -0.03265060       0.07354208
H        0.35613176       2.27498837       3.45713364       0.00000000       0.00000000      -0.04788414      -0.09329452       0.01798134       0.07236674
H       -0.71918828       1.19757897       4.38504324       0.00000000       0.00000000       0.06292008       0.01480235      -0.02212508       0.07104663
H       -1.12867720       3.86065807       4.32057106       0.00000000       0.00000000      -0.05501893      -0.02929258       0.02720657       0.04617328
H       -2.06847568       2.54086069       5.04615681       0.00000000       0.00000000       0.02282357      -0.00548341       0.03018453       0.06256016
H       -4.13728381       3.92193181       4.83131931       0.00000000       0.00000000      -0.02334787      -0.03183930      -0.02273730       0.07172205
H       -3.13420685       5.27818165       4.31187055       0.00000000       0.00000000       0.00609130       0.08570379       0.02812961       0.04870032
H       -1.89698221       5.20979616       6.41593434       0.00000000       0.00000000      -0.00836781      -0.00039851      -0.00712201       0.03564690
H       -2.68799779       3.70902432       6.90066909       0.00000000       0.00000000       0.02002049       0.05880113      -0.09409846       0.03740790
H       -4.22950318       6.29361324       6.43771032       0.00000000       0.00000000      -0.01029065      -0.00520190      -0.04900900       0.04645110
H       -3.53536995       5.83495779       7.97421228       0.00000000       0.00000000      -0.00005961      -0.06230378       0.03221582       0.04911045
H       -5.58822561       4.91420701       8.32957786       0.00000000       0.00000000      -0.02841205       0.04401679      -0.03092660       0.04819478
H       -4.88421226       3.54573353       7.48983603       0.00000000       0.00000000      -0.04155628      -0.01587050       0.04727707       0.02893707
H       -6.50046820       5.71523634       6.07447138       0.00000000       0.00000000      -0.01471243       0.00572124       0.01268840       0.04331913
H       -7.21502371       4.24792202       6.72733807       0.00000000       0.00000000      -0.00445971      -0.02186121      -0.00095451       0.04598495
H       -6.04895477       4.14092323       5.41740229       0.00000000       0.00000000      -0.05096101       0.02847887      -0.01071799       0.02087679
H       -3.27497898       3.30217004       1.20240308       0.00000000       0.00000000       0.04406190      -0.04606571       0.03558354       0.05152174
H       -3.94131638       4.09256284       2.62916757       0.00000000       0.00000000       0.00415066      -0.04236362       0.04033503       0.07691315
H       -4.44054655       1.31776953       1.52400976       0.00000000       0.00000000       0.02107793       0.00155345       0.10256243       0.04781027
H       -5.58259700       2.56234512       2.01627580       0.00000000       0.00000000       0.03645185      -0.02210143       0.00447663       0.07049819
H       -4.64523833       2.01906662       4.46954467       0.00000000       0.00000000      -0.03410039      -0.00174636      -0.01946245       0.04088193
H       -6.57747087       0.22026089       2.94737250       0.00000000       0.00000000      -0.03551110       0.01562781      -0.00812666       0.03926617
H       -6.99771239       1.77279691       3.67171166       0.00000000       0.00000000       0.01495900       0.04957828      -0.03042883       0.04790289
H       -6.53557539       0.43520696       4.69374723       0.00000000       0.00000000      -0.00534858      -0.01769833       0.06202919       0.05338555
H       -2.91836906       0.40406426       3.55941181       0.00000000       0.00000000      -0.03351519       0.02089844      -0.04164314       0.00605645
H       -4.23773669      -0.54832720       2.91770368       0.00000000       0.00000000       0.00356275       0.02392328       0.01444232       0.03721769
H       -3.50525462      -1.62996541       4.85910641       0.00000000       0.00000000       0.00103975      -0.02222613       0.01919511       0.02279174
H       -5.02867024      -0.89816045       5.32617019       0.00000000       0.00000000       0.04563180       0.01218083      -0.00662803       0.04989798
H       -3.90857134       0.89240719       6.50571159       0.00000000       0.00000000       0.00054952       0.00820976       0.02486261       0.03976378
H       -2.33578750       0.43585337       5.84431031       0.00000000       0.00000000      -0.00407535      -0.00000394      -0.00384786       0.00023811
H       -3.96626912      -1.36075947       7.67463612       0.00000000       0.00000000      -0.00038716      -0.00924597      -0.00481057       0.04352339
H       -1.64644240       0.50399928       8.35486977       0.00000000       0.00000000      -0.00115010       0.00847713       0.02549557       0.02813873
H       -2.40868307      -0.63719753       9.46296321       0.00000000       0.00000000      -0.00122013       0.01276434      -0.01284079       0.05173951
H       -3.32573083       0.73386728       8.85065671       0.00000000       0.00000000      -0.00003390      -0.01880013      -0.00274150       0.04347832
H       -1.04251979      -1.44118945       6.78919800       0.00000000       0.00000000      -0.00155470      -0.00219389       0.03836278       0.01078857
H       -2.30421110      -2.57520630       6.28434193       0.00000000       0.00000000       0.02803475       0.01408970       0.03842234       0.03015009
H       -1.78574011      -2.52936073       7.96256496       0.00000000       0.00000000      -0.00661395       0.03539037      -0.01149256       0.05072541
C       -8.60383286      -3.29285046      -0.53063461       0.00000000       0.00000000       0.01046250      -0.01616834      -0.00250760      -0.10963082
C       -7.54450291      -2.44451241      -1.22306591       0.00000000       0.00000000       0.00990239      -0.00680223      -0.00046673      -0.05683711
C       -6.46504261      -1.93766070      -0.26708920       0.00000000       0.00000000       0.02930479      -0.02874774      -0.00029569      -0.05990410
C       -5.44714842      -2.99557814       0.17456096       0.00000000       0.00000000      -0.00463086      -0.01233486      -0.00516150      -0.06253440
C       -4.47361883      -2.34168631       1.15347661       0.00000000       0.00000000      -0.01767889       0.00143246      -0.03780689      -0.06839604
C       -3.38333536      -3.20009441       1.80077084       0.00000000       0.00000000      -0.00050290      -0.07664082      -0.01472733      -0.00588225
N       -2.41936527      -3.78753015       0.87187430       0.00000000       0.00000000       0.04885409       0.00794478      -0.13576486      -0.05418934
C       -2.31386248      -5.24434822       0.87013414       0.00000000       0.00000000      -0.02543758      -0.03264737       0.04672864      -0.02226688
C       -3.62645863      -5.94193572       0.49381669       0.00000000       0.00000000       0.04411585       0.04491925       0.02279174      -0.07982742
C       -3.74168524      -7.37297412       1.05657986       0.00000000       0.00000000      -0.00597898       0.03527769      -0.04164142      -0.01797725
C       -4.58851011      -8.20984021       0.09681780       0.00000000       0.00000000      -0.00821681      -0.00050552       0.00386228      -0.11757576
C       -4.39436633      -7.39476037       2.44881301       0.00000000       0.00000000       0.01233986      -0.00780103      -0.00634324      -0.07446380
C       -3.54428372      -6.89903335       3.62020700       0.00000000       0.00000000       0.00664354      -0.00856927      -0.01373921      -0.05640393
C       -4.29560054      -7.09782243       4.93901913       0.00000000       0.00000000       0.03071513       0.01828757       0.00277173      -0.06855067
C       -3.48771592      -6.75537007       6.19661076       0.00000000       0.00000000       0.01130890       0.01302197       0.03212540      -0.01149714
C       -3.00132977      -5.30541198       6.18542212       0.00000000       0.00000000      -0.01113426      -0.01860708      -0.00203073      -0.10328337
C       -4.34647389      -7.01056879       7.43518982       0.00000000       0.00000000       0.00774091       0.00384316      -0.01208686      -0.11330744
C       -1.59291649      -2.96407428       0.24260889       0.00000000       0.00000000      -0.04754672      -0.07990401       0.08676824       0.26119628
O       -1.63077150      -1.72972133       0.42411980       0.00000000       0.00000000       0.04416022      -0.05971240       0.01870007      -0.36412583
C       -0.54820215      -3.55351715      -0.70852174       0.00000000       0.00000000       0.00267301       0.02408842      -0.00171215       0.05004541
O        0.18112142      -2.46242598      -1.22565650       0.00000000       0.00000000       0.01421775       0.00079004       0.04502867      -0.21476292
C        1.17284519      -2.84595879      -2.15768714       0.00000000       0.00000000      -0.06574199      -0.02068870       0.01303681       0.04777781
C        1.84243743      -1.54634760      -2.59310799       0.00000000       0.00000000       0.06130400      -0.01816940      -0.04364897       0.26197382
O        1.38342707      -0.47018342      -2.15206859       0.00000000       0.00000000       0.03160775      -0.03606322       0.00097661      -0.38378203
N        2.86518523      -1.61936760      -3.43396036       0.00000000       0.00000000      -0.00871193       0.07076200       0.02286618      -0.04343983
C        3.41796941      -2.86820794      -3.95307410       0.00000000       0.00000000      -0.04289552       0.05824357      -0.04070478      -0.02749084
C        4.37057130      -3.61911518      -3.00094428       0.00000000       0.00000000       0.02753393      -0.00436630       0.02711522      -0.07308205
C        5.86666666      -3.46511096      -3.34047159       0.00000000       0.00000000       0.02818090      -0.04313926      -0.08699346      -0.06960680
C        6.66910938      -2.63471958      -2.33537235       0.00000000       0.00000000      -0.01645231      -0.05452713      -0.12842543      -0.06740904
C        6.82583053      -3.27831704      -0.96163690       0.00000000       0.00000000       0.00603010      -0.00238839       0.00007728      -0.05637863
C        7.61130825      -2.37634176      -0.01874852       0.00000000       0.00000000      -0.00093095       0.01645621       0.02043212      -0.10968184
C        3.38851501      -0.36374537      -3.96218520       0.00000000       0.00000000       0.07907506       0.09816130      -0.05598017      -0.02238758
C        2.52810142       0.26971201      -5.06109706       0.00000000       0.00000000       0.00090295       0.01283201       0.03273664      -0.07336373
C        2.27399446      -0.63317833      -6.27704084       0.00000000       0.00000000       0.00756782      -0.00378424       0.04213623      -0.01883401
C        2.04716211       0.21594684      -7.52460261       0.00000000       0.00000000       0.00913446      -0.01383295      -0.02545348      -0.11675350
C        1.07740507      -1.55158530      -5.99681347       0.00000000       0.00000000      -0.00523341      -0.01871420      -0.03771124      -0.06743722
C        0.97692791      -2.78727982      -6.88756569       0.00000000       0.00000000      -0.00263566       0.00764179      -0.00553888      -0.06521092
C       -0.03500831      -3.76639063      -6.29195237       0.00000000       0.00000000       0.01521808       0.01153687      -0.01444113      -0.05570829
C       -0.29329844      -5.01047364      -7.14556812       0.00000000       0.00000000      -0.00622078      -0.00894879      -0.00212124      -0.01329154
C       -1.42577083      -5.83235771      -6.52959300       0.00000000       0.00000000       0.01522465      -0.00491005      -0.00511861      -0.10951541
C        0.96940486      -5.85912488      -7.27790853       0.00000000       0.00000000      -0.02467436      -0.00456153      -0.00842010      -0.11095042
H       -9.41956337      -3.50309280      -1.21636163       0.00000000       0.00000000       0.01438751      -0.03007038      -0.00352818       0.04927708
H       -9.01425158      -2.76651659       0.32846686       0.00000000       0.00000000       0.00492497      -0.00135148      -0.01211500       0.04120477
H       -8.19369053      -4.24081961      -0.19342944       0.00000000       0.00000000       0.00291526      -0.01296864       0.01564307       0.03609239
H       -8.03325336      -1.57645753      -1.66815045       0.00000000       0.00000000      -0.01298761       0.01340545      -0.00992772       0.03839636
H       -7.08580657      -3.01428579      -2.03245757       0.00000000       0.00000000       0.01571192      -0.01793420      -0.01812459       0.03344744
H       -6.96190771      -1.53718224       0.62024134       0.00000000       0.00000000       0.02480811      -0.00556152      -0.00775499       0.03849979
H       -5.92597481      -1.11412692      -0.74386297       0.00000000       0.00000000       0.02122994      -0.02994362      -0.01792328       0.02181186
H       -4.91610801      -3.39034060      -0.69434555       0.00000000       0.00000000      -0.03071684       0.01981877       0.00239502       0.03111228
H       -5.97900445      -3.81580971       0.65827024       0.00000000       0.00000000       0.01691503       0.02175713      -0.00013365       0.04837509
H       -5.07631905      -1.96016556       1.97915125       0.00000000       0.00000000      -0.01803764       0.01656044      -0.00067498       0.05870863
H       -3.98981677      -1.49766610       0.65584345       0.00000000       0.00000000      -0.01187191       0.02123942       0.00264150       0.05128466
H       -3.82538299      -4.00822806       2.37921908       0.00000000       0.00000000      -0.04013902      -0.02851224      -0.00375736       0.08274704
H       -2.82315236      -2.55209578       2.48506640       0.00000000       0.00000000      -0.00396449       0.00048209       0.00953941       0.04970281
H       -2.02493361      -5.54422484       1.88295464       0.00000000       0.00000000      -0.01330484      -0.00503668      -0.02970144       0.07530211
H       -1.52241295      -5.56507548       0.19312216       0.00000000       0.00000000      -0.09984569       0.02980644       0.05001850       0.05217870
H       -3.71959489      -5.95710855      -0.59442200       0.00000000       0.00000000       0.02574396      -0.04100194       0.06062733       0.05008632
H       -4.46369589      -5.36654429       0.88018109       0.00000000       0.00000000      -0.03195298      -0.02691172      -0.04479049       0.06689272
H       -2.74618418      -7.82538145       1.11265502       0.00000000       0.00000000       0.00860311       0.03316623       0.04218319       0.03448158
H       -5.58683483      -7.78868795       0.01134981       0.00000000       0.00000000      -0.01733481      -0.00433289      -0.01389947       0.04732986
H       -4.68121542      -9.22967799       0.45672415       0.00000000       0.00000000       0.00992018      -0.01041159       0.00667268       0.05731529
H       -4.13886152      -8.24102347      -0.89311239       0.00000000       0.00000000      -0.00442261      -0.00422551       0.01725078       0.04167342
H       -4.68205317      -8.42266508       2.66980576       0.00000000       0.00000000       0.01411685      -0.03596247      -0.03057660       0.05620114
H       -5.31576857      -6.80855943       2.41387580       0.00000000       0.00000000      -0.02832238      -0.03054941      -0.01653934       0.03734207
H       -3.31722744      -5.83680518       3.50102654       0.00000000       0.00000000      -0.01024164      -0.02752106       0.02225361       0.01128265
H       -2.59966955      -7.44847659       3.65435004       0.00000000       0.00000000      -0.02701950      -0.01040719      -0.01285877       0.02765165
H       -4.60735795      -8.14074490       5.00740945       0.00000000       0.00000000      -0.00071147      -0.00411535       0.00461943       0.04551805
H       -5.20079855      -6.48630240       4.92696585       0.00000000       0.00000000      -0.01580353       0.00404148      -0.00626709       0.03576916
H       -2.61167944      -7.41164394       6.24702019       0.00000000       0.00000000      -0.00677901       0.00142687      -0.04501613       0.03102650
H       -3.83997192      -4.62879739       6.02565272       0.00000000       0.00000000       0.00730598      -0.01218286       0.01366343       0.03149208
H       -2.26214601      -5.14603870       5.40005078       0.00000000       0.00000000      -0.01338854       0.01186493       0.02184351       0.00944748
H       -2.53861314      -5.05879620       7.13873773       0.00000000       0.00000000      -0.02487627      -0.03143231      -0.02719010       0.04059603
H       -5.22348792      -6.36696574       7.43285560       0.00000000       0.00000000       0.00625455       0.00983394      -0.01021547       0.03996813
H       -3.78319911      -6.81687229       8.34524169       0.00000000       0.00000000       0.00745097      -0.00560927      -0.03336880       0.04251312
H       -4.68386382      -8.04333675       7.45814798       0.00000000       0.00000000       0.01018685       0.00577696       0.00329315       0.04595391
H       -1.03274866      -4.10396042      -1.52757545       0.00000000       0.00000000      -0.06616374      -0.01265657       0.03700230       0.07977098
H        0.12586517      -4.23261975      -0.16158784       0.00000000       0.00000000      -0.03280141       0.04324253      -0.01755237       0.07094768
H        0.71486050      -3.31899104      -3.04146866       0.00000000       0.00000000      -0.06009729      -0.02549496       0.02610128       0.07733896
H        1.87962366      -3.56137354      -1.71301508       0.00000000       0.00000000       0.00731688       0.08717933      -0.01229556       0.07202974
H        3.97138444      -2.61125366      -4.85620056       0.00000000       0.00000000      -0.08107661      -0.02318876      -0.02244750       0.09392225
H        2.60004215      -3.52456540      -4.25808708       0.00000000       0.00000000       0.00707401       0.00166251       0.04076471       0.06139931
H        4.10893643      -4.67757362      -3.02808124       0.00000000       0.00000000       0.01886206       0.03396812      -0.01972311       0.05158611
H        4.21692924      -3.27762848      -1.97967215       0.00000000       0.00000000      -0.06558175      -0.00285060       0.03593123       0.04352021
H        5.96753766      -2.99748618      -4.32279061       0.00000000       0.00000000       0.03856129      -0.05799028       0.02703199       0.04317988
H        6.32174385      -4.45444933      -3.41635221       0.00000000       0.00000000      -0.01524998       0.05229761       0.03700054       0.05615669
H        6.20280630      -1.65670747      -2.22481758       0.00000000       0.00000000      -0.01490110       0.04286616       0.01166415       0.03029689
H        7.66227867      -2.46826586      -2.75117222       0.00000000       0.00000000       0.04999318      -0.02049386      -0.02188024       0.05166818
H        7.35065941      -4.22958684      -1.05625767       0.00000000       0.00000000      -0.04574491      -0.01695078      -0.04991779       0.04399209
H        5.84289265      -3.48003823      -0.52860179       0.00000000       0.00000000       0.01601967      -0.02735723      -0.00413862       0.01562022
H        8.63131633      -2.24655323      -0.36950900       0.00000000       0.00000000      -0.01515135      -0.00827662      -0.02730441       0.04859704
H        7.65073268      -2.80963069       0.97570124       0.00000000       0.00000000       0.01119399      -0.02052998       0.01859487       0.04400243
H        7.14887697      -1.39331684       0.04748954       0.00000000       0.00000000       0.01419341       0.00055390       0.00013406       0.02589855
H        4.39890474      -0.53575251      -4.32991759       0.00000000       0.00000000      -0.00251511      -0.08366774      -0.03067662       0.07360491
H        3.43149381       0.34761875      -3.14241350       0.00000000       0.00000000       0.04036990      -0.01635679      -0.02523420       0.08545418
H        3.05623104       1.17397459      -5.37199145       0.00000000       0.00000000      -0.00170974      -0.04984277      -0.04900373       0.05930306
H        1.57409739       0.58560116      -4.63117848       0.00000000       0.00000000       0.01818479      -0.05333004       0.00814845       0.04467500
H        3.16541385      -1.24492353      -6.44952164       0.00000000       0.00000000      -0.01299596      -0.00489600      -0.02588563       0.03420685
H        1.18561053       0.86563105      -7.40256414       0.00000000       0.00000000       0.00363700       0.01669986      -0.02145960       0.04446630
H        1.87828154      -0.41705175      -8.38817199       0.00000000       0.00000000      -0.01814958      -0.04128052      -0.05347810       0.05472001
H        2.91574806       0.83664045      -7.72880067       0.00000000       0.00000000       0.01457592      -0.01079071      -0.00261321       0.04487612
H        0.15978146      -0.97582888      -6.10069620       0.00000000       0.00000000       0.00696537       0.03426852      -0.02405326       0.04029066
H        1.10717503      -1.88735800      -4.96025243       0.00000000       0.00000000       0.01672320       0.03240122      -0.02048077       0.00598042
H        1.95506347      -3.26399166      -6.97021189       0.00000000       0.00000000      -0.03245537       0.01249878       0.00242009       0.03681145
H        0.65573528      -2.49851929      -7.88893089       0.00000000       0.00000000       0.03466817      -0.05085473       0.00400043       0.04550478
H       -0.97961435      -3.23921529      -6.13553725       0.00000000       0.00000000      -0.03962337       0.00310317      -0.03218193       0.02565780
H        0.31841744      -4.09035527      -5.30612998       0.00000000       0.00000000       0.01919057      -0.02546761       0.02712559       0.00191686
H       -0.60654155      -4.68648426      -8.14243703       0.00000000       0.00000000       0.01282623      -0.00878924      -0.00634170       0.04019994
H       -1.15050156      -6.17834014      -5.53366188       0.00000000       0.00000000       0.00051234      -0.00048418      -0.01556017       0.02596582
H       -1.63662606      -6.70297055      -7.14384333       0.00000000       0.00000000      -0.00073791       0.00579873       0.00419769       0.05127403
H       -2.33798688      -5.24290737      -6.45201307       0.00000000       0.00000000       0.02951604      -0.00877269      -0.00769466       0.03177080
H        1.36286466      -6.11678594      -6.29451479       0.00000000       0.00000000      -0.00906795      -0.00770776      -0.03529228       0.02700367
H        1.73756996      -5.33068101      -7.83617075       0.00000000       0.00000000      -0.00079254      -0.02979607       0.01360807       0.03968450
H        0.74781161      -6.78104692      -7.80758790       0.00000000       0.00000000      -0.00251627       0.00007391      -0.00078088       0.05086411
C        8.42486473       3.48865194       0.14540954       0.00000000       0.00000000      -0.01314712       0.01093459      -0.00852220      -0.11107780
C        7.55120406       2.24208715       0.15125827       0.00000000       0.00000000      -0.00094688       0.00232531       0.01096516      -0.05630808
C        6.75899168       2.08434571       1.45106149       0.00000000       0.00000000      -0.00824837       0.03746928       0.05120094      -0.06192727
C        5.56976296       3.05553955       1.55377230       0.00000000       0.00000000       0.00645316       0.01871485       0.02790889      -0.06599826
C        4.39999957       2.40932924       2.30212643       0.00000000       0.00000000       0.02396897      -0.02310449      -0.02400273      -0.06826075
C        3.11186800       3.22464261       2.50265766       0.00000000       0.00000000      -0.00978004       0.04757291      -0.01007989      -0.00873293
N        2.36017731       3.73002306       1.34018094       0.00000000       0.00000000      -0.02750940       0.04021914      -0.09309827      -0.06205842
C        2.31265603       5.18717100       1.17522841       0.00000000       0.00000000       0.00577267       0.01711778       0.06397517      -0.02292763
C        3.67853057       5.82391450       0.89827364       0.00000000       0.00000000      -0.05817483      -0.05389195       0.04815861      -0.08181274
C        3.72986224       7.31970138       1.28068942       0.00000000       0.00000000      -0.00207059      -0.05441813      -0.02235179      -0.01772937
C        4.56968251       8.07982899       0.25467934       0.00000000       0.00000000       0.00922500      -0.01766833       0.02456518      -0.11751512
C        4.32845196       7.50051430       2.68496126       0.00000000       0.00000000      -0.01263673       0.01579337      -0.00332516      -0.07368767
C        3.45334174       7.00273826       3.83627229       0.00000000       0.00000000       0.00228778       0.01055393      -0.00073196      -0.05830750
C        4.20092521       7.06221301       5.16828656       0.00000000       0.00000000      -0.02911782      -0.01887077       0.01656763      -0.06872382
C        3.39675034       6.54697892       6.37036029       0.00000000       0.00000000      -0.01742695      -0.01596043       0.02295378      -0.01161951
C        2.99369920       5.07778304       6.20547742       0.00000000       0.00000000       0.01463768       0.01931964      -0.00332630      -0.10341241
C        4.22361486       6.72025987       7.64422620       0.00000000       0.00000000      -0.00850475      -0.01208695      -0.02446562      -0.11380702
C        1.54736733       2.91439767       0.67559132       0.00000000       0.00000000       0.04363334       0.02185921       0.07226141       0.25690723
O        1.52489670       1.68107548       0.85782454       0.00000000       0.00000000      -0.00122689       0.06739520       0.01923090      -0.36788570
C        0.57488657       3.51615735      -0.34863252       0.00000000       0.00000000       0.07368210      -0.02952883       0.01592269       0.04905982
O       -0.15199108       2.43612565      -0.89565635       0.00000000       0.00000000       0.01914461      -0.04006692       0.08371280      -0.21935061
C       -1.26134135       2.84502971      -1.67177942       0.00000000       0.00000000       0.05709992      -0.00843337       0.05250720       0.05300096
C       -1.94343662       1.55713701      -2.13615050       0.00000000       0.00000000       0.01166367       0.11094415      -0.04534771       0.26238107
O       -1.57032376       0.47139994      -1.64851448       0.00000000       0.00000000       0.01700369       0.00319572      -0.04939118      -0.36156152
N       -2.88575714       1.64235164      -3.06090295       0.00000000       0.00000000      -0.03018523      -0.09818972       0.00987706      -0.03866951
C       -3.38049975       2.90072841      -3.60761606       0.00000000       0.00000000       0.04924449      -0.08107401      -0.00212982      -0.02516255
C       -4.52394046       3.52610966      -2.80324036       0.00000000       0.00000000      -0.03713176      -0.01070984       0.02947022      -0.07158609
C       -5.88368314       2.88137581      -3.10697509       0.00000000       0.00000000      -0.03707094       0.02451591      -0.03466595      -0.07045841
C       -6.35505790       1.88820292      -2.04552256       0.00000000       0.00000000       0.01506090       0.03232695      -0.06974574      -0.06375383
C       -6.85676226       2.59591531      -0.78962342       0.00000000       0.00000000       0.00173125      -0.00977639      -0.00979710      -0.05752314
C       -7.54447002       1.62520767       0.15788906       0.00000000       0.00000000      -0.00577492      -0.00408012       0.02631454      -0.11133377
C       -3.44370615       0.38237778      -3.55132320       0.00000000       0.00000000      -0.05117988      -0.03751547      -0.02750588      -0.01506663
C       -2.64664231      -0.25550618      -4.69944404       0.00000000       0.00000000      -0.00464586       0.01437852       0.02744594      -0.07248617
C       -2.47659099       0.64572626      -5.93716089       0.00000000       0.00000000      -0.01630045      -0.01194477       0.04883874      -0.01915158
C       -2.38923392      -0.19520478      -7.21066889       0.00000000       0.00000000      -0.00857391       0.01045536       0.00986779      -0.11639127
C       -1.24227553       1.54229122      -5.75987749       0.00000000       0.00000000      -0.00695565       0.03149914      -0.02534341      -0.06800092
C       -1.19365463       2.78669540      -6.64705838       0.00000000       0.00000000      -0.00611881      -0.00937754      -0.01248141      -0.06444394
C       -0.10323920       3.73856426      -6.14988448       0.00000000       0.00000000      -0.02337367      -0.01993546      -0.01530165      -0.05793774
C        0.16189395       4.93762724      -7.06641053       0.00000000       0.00000000       0.00612879       0.00772477      -0.00226685      -0.01302592
C        1.33207661       5.75642695      -6.51958666       0.00000000       0.00000000      -0.01438545      -0.00047139      -0.00165374      -0.10968512
C       -1.08269531       5.81068724      -7.20884240       0.00000000       0.00000000       0.02114633      -0.00250482      -0.00456877      -0.11133755
H        8.97729687       3.55564780      -0.78798911       0.00000000       0.00000000       0.00317269       0.00764185       0.01271035       0.04618904
H        9.14080780       3.45135958       0.96215774       0.00000000       0.00000000      -0.00379984       0.02881793      -0.00413675       0.04682820
H        7.82166003       4.38663288       0.24927556       0.00000000       0.00000000       0.00263801       0.02555854       0.01684848       0.03552124
H        8.19002761       1.36797214       0.01296868       0.00000000       0.00000000       0.01019157      -0.01621651       0.03761161       0.03770717
H        6.85975412       2.28041033      -0.69368578       0.00000000       0.00000000       0.01272651      -0.02577616      -0.01622216       0.02657096
H        7.43462601       2.24086106       2.29152624       0.00000000       0.00000000       0.00281510      -0.02502367       0.04135810       0.04888222
H        6.39021522       1.05849490       1.52720164       0.00000000       0.00000000       0.01589060       0.00468550      -0.00240688       0.02192582
H        5.26465756       3.34312414       0.54641971       0.00000000       0.00000000      -0.02072883       0.00931478       0.05764770       0.04300077
H        5.90076812       3.95254853       2.07916877       0.00000000       0.00000000      -0.05073511      -0.01826762      -0.00016547       0.04491729
H        4.74510832       2.17284944       3.31279131       0.00000000       0.00000000      -0.02089402      -0.00666517       0.00099514       0.05615672
H        4.14416996       1.46387133       1.82415357       0.00000000       0.00000000      -0.01526908      -0.01392172      -0.00553793       0.05278319
H        3.33822632       4.08634662       3.12829253       0.00000000       0.00000000       0.01528287       0.04839474      -0.01942590       0.08266604
H        2.43054392       2.56708043       3.05246487       0.00000000       0.00000000      -0.02468823       0.00834036       0.00388335       0.04971984
H        1.89867371       5.61063627       2.09571071       0.00000000       0.00000000       0.00382665      -0.02269956      -0.01287067       0.07130700
H        1.63642108       5.44942186       0.36440812       0.00000000       0.00000000       0.07339016      -0.00603099       0.07471529       0.05211109
H        3.92481440       5.69091072      -0.15755624       0.00000000       0.00000000      -0.03127175       0.04158392       0.06029317       0.04929055
H        4.43661502       5.30965259       1.47917862       0.00000000       0.00000000       0.04070551      -0.00493875      -0.01514512       0.07176946
H        2.71854465       7.73858116       1.26165617       0.00000000       0.00000000      -0.01974193      -0.02551956       0.04228077       0.03277841
H        5.57841703       7.67765376       0.22080570       0.00000000       0.00000000       0.02968855       0.00386219      -0.01323925       0.04785991
H        4.63333402       9.13094407       0.51775350       0.00000000       0.00000000      -0.01016126       0.01283265       0.00433542       0.05798201
H        4.13008212       8.00565996      -0.73812221       0.00000000       0.00000000       0.01701725      -0.00182582       0.03141302       0.04057379
H        4.53393418       8.55738886       2.84906179       0.00000000       0.00000000      -0.00737476       0.04544903      -0.02367311       0.05484510
H        5.28748472       6.97851073       2.72067684       0.00000000       0.00000000       0.02636508       0.03452338      -0.00739418       0.03990230
H        3.15996215       5.96893978       3.65511573       0.00000000       0.00000000       0.02459890       0.01422564       0.02982953       0.01429898
H        2.54338205       7.60437383       3.89779681       0.00000000       0.00000000       0.01426077       0.01023548      -0.00258084       0.02882418
H        4.49275455       8.09517664       5.35959771       0.00000000       0.00000000      -0.00003315       0.00022573       0.01773900       0.04707001
H        5.11727687       6.47258207       5.08708498       0.00000000       0.00000000       0.01995592       0.00231247      -0.00433245       0.03542227
H        2.48412869       7.14448928       6.47050381       0.00000000       0.00000000      -0.00002820       0.01062215      -0.03445488       0.03081434
H        3.86380416       4.47365225       5.95206923       0.00000000       0.00000000      -0.00215844       0.00525792       0.01175055       0.03049900
H        2.24152166       4.95742770       5.42518862       0.00000000       0.00000000       0.01456089      -0.00196999       0.02744760       0.00720196
H        2.57476481       4.69393041       7.13400968       0.00000000       0.00000000       0.01740421       0.05242759      -0.02816175       0.03961888
H        5.13613929       6.13118594       7.58792934       0.00000000       0.00000000       0.00327925      -0.00958439       0.00274610       0.04071669
H        3.66107509       6.39899384       8.51815465       0.00000000       0.00000000       0.00566001       0.01658069      -0.03116575       0.04243151
H        4.50033233       7.76231122       7.78056826       0.00000000       0.00000000      -0.01638000      -0.01414612       0.00308480       0.04724925
H        1.12572067       4.03859254      -1.14267295       0.00000000       0.00000000       0.00630823       0.01515085      -0.03763075       0.08096086
H       -0.10643778       4.22366175       0.15144358       0.00000000       0.00000000       0.02035143      -0.07525399      -0.02041560       0.06787692
H       -0.91710213       3.44144617      -2.52940444       0.00000000       0.00000000       0.00195360      -0.03285390       0.00729079       0.07324346
H       -1.95692576       3.45425132      -1.07148237       0.00000000       0.00000000       0.05147187      -0.05570663      -0.06068458       0.07245214
H       -3.74402877       2.70724180      -4.61600425       0.00000000       0.00000000       0.05686899      -0.03387455      -0.00147743       0.09651653
H       -2.55723833       3.61073118      -3.69501857       0.00000000       0.00000000      -0.00312638      -0.01148187       0.01590273       0.05637868
H       -4.56058512       4.58482104      -3.06140070       0.00000000       0.00000000       0.00256418      -0.02150562      -0.03422219       0.06208445
H       -4.31390657       3.45988048      -1.73590095       0.00000000       0.00000000       0.01685835      -0.01459726       0.02448592       0.03893738
H       -5.83201159       2.38848832      -4.07980166       0.00000000       0.00000000      -0.07447657       0.01925108       0.01524959       0.04097446
H       -6.64116177       3.66074785      -3.19230692       0.00000000       0.00000000       0.00049619       0.00540276      -0.00722262       0.05943566
H       -5.54977028       1.19585119      -1.78850677       0.00000000       0.00000000       0.00576960       0.00953003       0.04875530       0.02109853
H       -7.17363017       1.30016732      -2.46229279       0.00000000       0.00000000      -0.02649144       0.00221316       0.00080326       0.04760998
H       -7.56364957       3.37427065      -1.07973113       0.00000000       0.00000000      -0.01463933      -0.01131602       0.00410297       0.04559876
H       -6.02067676       3.08278276      -0.28094764       0.00000000       0.00000000      -0.02090407       0.01969132       0.01301080       0.01671659
H       -8.37671606       1.14043936      -0.34548698       0.00000000       0.00000000      -0.00773445       0.00195596       0.03913170       0.04853645
H       -7.92889038       2.14694147       1.02918241       0.00000000       0.00000000      -0.04743860       0.00807198       0.01201857       0.04121814
H       -6.85041327       0.85882772       0.49213160       0.00000000       0.00000000      -0.00622548      -0.01008554      -0.01020133       0.03232496
H       -4.47004827       0.55828815      -3.86620269       0.00000000       0.00000000       0.00103433       0.06424651      -0.05359721       0.08255924
H       -3.45035410      -0.31492224      -2.70743269       0.00000000       0.00000000      -0.02756773       0.01967411      -0.03386119       0.07306048
H       -3.19219889      -1.15912880      -4.98297262       0.00000000       0.00000000       0.02937782       0.04673029       0.01267546       0.06102544
H       -1.66367335      -0.56266367      -4.33063076       0.00000000       0.00000000      -0.04109518       0.03354333       0.00018496       0.04381264
H       -3.37170452       1.26814039      -6.03159868       0.00000000       0.00000000       0.01540229       0.03172084      -0.04158590       0.03395579
H       -1.56879453      -0.90517322      -7.16399767       0.00000000       0.00000000      -0.00641659       0.00174441      -0.00168174       0.04404706
H       -2.23786654       0.44231905      -8.07587311       0.00000000       0.00000000      -0.00382755       0.02249026      -0.01021647       0.05537249
H       -3.30973355      -0.75395381      -7.36161542       0.00000000       0.00000000      -0.00758552       0.01988424      -0.00157892       0.04483326
H       -0.35049125       0.94876896      -5.95485776       0.00000000       0.00000000      -0.01517757      -0.01268042       0.00165702       0.04169442
H       -1.17476217       1.86630668      -4.71962101       0.00000000       0.00000000      -0.01738787      -0.02135752       0.00135770       0.00836660
H       -2.16203988       3.29058324      -6.63482736       0.00000000       0.00000000       0.04261171      -0.01802901       0.00270233       0.03493389
H       -0.97694497       2.50222304      -7.67770276       0.00000000       0.00000000      -0.03565062       0.02438386       0.01529468       0.04471053
H        0.82517236       3.17372823      -6.03337480       0.00000000       0.00000000       0.02994655      -0.00800119      -0.02458435       0.02668734
H       -0.38020760       4.11301843      -5.15853505       0.00000000       0.00000000      -0.01445530       0.01442244       0.02752259       0.00590285
H        0.44276091       4.56397295      -8.05581434       0.00000000       0.00000000      -0.02347816      -0.01314603      -0.00201848       0.03899085
H        1.09365858       6.16101451      -5.53674101       0.00000000       0.00000000      -0.01147252      -0.00256666      -0.01066772       0.02721553
H        1.55476935       6.58810978      -7.18211495       0.00000000       0.00000000      -0.01373558      -0.01272095       0.00226587       0.05094230
H        2.22826893       5.14417398      -6.43311143       0.00000000       0.00000000      -0.02470966       0.00350575      -0.00484295       0.03078212
H       -1.45223442       6.11360474      -6.22955947       0.00000000       0.00000000       0.00833206       0.01313133      -0.02897617       0.02809108
H       -1.87166114       5.27719527      -7.73198506       0.00000000       0.00000000      -0.00680747       0.03024466       0.00987925       0.03947296
H       -0.85191941       6.70641126      -7.77864270       0.00000000       0.00000000       0.00785827      -0.00888314       0.00853272       0.05061439
