50
Properties=species:S:1:pos:R:3:initial_charges:R:1:initial_magmoms:R:1:forces:R:3:charge:R:1 energy=-2258.3692221086103 free_energy=-2258.3692221086103 dipole="0.6710893080238952 0.05325009333474105 -1.0229932958141712" pbc="F F F"
La      -0.04117685       0.04917841       0.17064897       2.00000000       0.00000000       0.00615117      -0.03000930      -0.05044153       0.77100965
C        3.38798712      -0.61015414       0.30705540       0.00000000       0.00000000       0.00587592       0.06627962      -0.04777459       0.04444934
C        3.14291988       0.59688024      -0.59639572       0.00000000       0.00000000      -0.02860835      -0.01918917      -0.10887393       0.04169679
O        1.90632468       0.37384775      -1.30305973       0.00000000       0.00000000      -0.00306206      -0.01541888      -0.02256679      -0.23301555
C        1.68605600       1.32223120      -2.35060435       0.00000000       0.00000000       0.00098851      -0.03594334       0.08824321       0.04379813
C        1.23173379       2.67770830      -1.78676636       0.00000000       0.00000000      -0.01393287      -0.01626879      -0.01620022       0.03556906
O        0.21556704       2.47641823      -0.79293117       0.00000000       0.00000000      -0.02817831       0.02332372      -0.09346161      -0.22639433
C       -1.06774202       3.02638437      -1.12062352       0.00000000       0.00000000       0.00259398      -0.03332459      -0.03612716       0.03413807
C       -1.81806798       2.08675386      -2.06786736       0.00000000       0.00000000      -0.01747976      -0.01520255       0.04595482       0.04207548
O       -1.94252443       0.81281070      -1.42038839       0.00000000       0.00000000      -0.00460439      -0.05500428       0.03377690      -0.23083127
C       -3.29007240       0.37222033      -1.19350604       0.00000000       0.00000000      -0.01292759      -0.03175572       0.05579675       0.05076808
C       -3.31511616      -0.61240736      -0.01013803       0.00000000       0.00000000      -0.06463457       0.02732333      -0.07042176       0.05191516
O       -2.09918253      -1.35381074      -0.06788739       0.00000000       0.00000000       0.09938214       0.07874393      -0.02017503      -0.22177920
C       -2.05407368      -2.52946335       0.74081549       0.00000000       0.00000000       0.01082246      -0.09563648      -0.01665703       0.04676754
C       -0.91560325      -3.38868458       0.17315419       0.00000000       0.00000000      -0.04837250       0.03700291       0.04482156       0.04870189
O        0.18104234      -2.53036595      -0.18149588       0.00000000       0.00000000      -0.03436288       0.00390211       0.01942674      -0.23295038
C        1.48766547      -3.05329029       0.08474895       0.00000000       0.00000000      -0.01278891       0.01881382       0.06431527       0.04169998
C        2.06363079      -2.31936081       1.30098627       0.00000000       0.00000000      -0.00127871       0.00495485      -0.03611253       0.03298917
O        2.17500292      -0.92163115       1.00429216       0.00000000       0.00000000       0.07731109      -0.03452750      -0.02243567      -0.22022833
H        4.18271372      -0.37319259       1.02573109       0.00000000       0.00000000      -0.01099814      -0.04070583       0.00932533       0.09859929
H        3.70474110      -1.45810504      -0.30721804       0.00000000       0.00000000      -0.01631572      -0.01222486       0.00952137       0.08979670
H        3.96385295       0.68017714      -1.31522451       0.00000000       0.00000000       0.06866799       0.02744545      -0.02362658       0.09418067
H        3.07650884       1.51640796      -0.00886630       0.00000000       0.00000000      -0.00184316       0.04002479       0.08403143       0.10458609
H        0.90156722       0.88105970      -2.97822617       0.00000000       0.00000000       0.07581761       0.01647262       0.01669621       0.09599923
H        2.60046061       1.44464229      -2.94035126       0.00000000       0.00000000      -0.01838488       0.03012782      -0.07624579       0.09498765
H        0.87924360       3.30325615      -2.60982989       0.00000000       0.00000000      -0.03733705       0.04474541       0.03118167       0.09345990
H        2.06730364       3.19511138      -1.30052368       0.00000000       0.00000000      -0.00818826      -0.03127154       0.00547523       0.09689445
H       -0.97372938       4.02549842      -1.55872787       0.00000000       0.00000000       0.06458634      -0.02199278       0.03213433       0.09422572
H       -1.61023397       3.08959802      -0.16957739       0.00000000       0.00000000       0.05926291       0.01611628      -0.02009123       0.13078288
H       -1.25216908       1.94300280      -2.99804222       0.00000000       0.00000000      -0.05724773      -0.01925081       0.02601337       0.08469636
H       -2.79213111       2.50766250      -2.31896078       0.00000000       0.00000000      -0.06019907      -0.00557699       0.00633731       0.09776705
H       -3.65476676      -0.13342167      -2.09737314       0.00000000       0.00000000       0.06023685       0.05402619      -0.01804169       0.09400975
H       -3.94206987       1.21691947      -0.95202911       0.00000000       0.00000000      -0.00890275       0.00963810      -0.06804741       0.09454338
H       -4.17823709      -1.28018854      -0.12305874       0.00000000       0.00000000       0.00967573       0.00105134       0.02915056       0.09434184
H       -3.40374350      -0.07886892       0.94807027       0.00000000       0.00000000       0.02433637      -0.00013096      -0.03626650       0.09008370
H       -2.99398308      -3.08736130       0.67305036       0.00000000       0.00000000      -0.04296727       0.01464698      -0.00029745       0.09526652
H       -1.86071934      -2.27002831       1.79261615       0.00000000       0.00000000      -0.02029871       0.00341203      -0.02517551       0.09872691
H       -1.26350528      -3.90640907      -0.73188655       0.00000000       0.00000000       0.10391720       0.05436543       0.02014499       0.09820697
H       -0.62388280      -4.12321173       0.92884943       0.00000000       0.00000000       0.03934813      -0.02137269      -0.06895772       0.09380394
H        2.09173842      -2.85860081      -0.81209733       0.00000000       0.00000000      -0.05599661      -0.00970946       0.05685505       0.09541636
H        1.47147569      -4.13004959       0.26037879       0.00000000       0.00000000      -0.06996436      -0.03342048      -0.00641216       0.09666179
H        3.03627763      -2.73186116       1.58490828       0.00000000       0.00000000      -0.01925174       0.00769401       0.06028479       0.09692555
H        1.36358487      -2.38778050       2.14331551       0.00000000       0.00000000       0.06894355       0.00458319      -0.02498978       0.12769130
N       -1.00261600       0.57537800       2.42315753       0.00000000       0.00000000      -0.10824902      -0.00546579       0.02751355       0.79142760
O       -1.29299737       0.91987455       3.50933205       0.00000000       0.00000000       0.02224913       0.08437175       0.13776008      -0.34939742
O       -1.32452326       1.22760019       1.41135039       0.00000000       0.00000000      -0.01115395       0.00870082      -0.00147432      -0.43988155
O       -0.37599972      -0.48008262       2.20796028       0.00000000       0.00000000       0.06312031      -0.06234092      -0.00898417      -0.44436629
O        1.36269738       1.72940306       1.73733781       0.00000000       0.00000000      -0.06035444       0.18195960       0.00478562      -0.52028078
H        1.19671432       2.68289913       1.83917138       0.00000000       0.00000000      -0.03857435      -0.11730821      -0.05704007       0.34574935
H        1.84261685       1.48348604       2.54093616       0.00000000       0.00000000       0.05317074      -0.09667420       0.06735215       0.34471582
