148
Properties=species:S:1:pos:R:3:initial_charges:R:1:initial_magmoms:R:1:forces:R:3:charge:R:1 energy=-5895.95800634555 free_energy=-5895.95800634555 dipole="-0.4200616909012427 -1.1912647561450234 -0.7614653449573977" pbc="F F F"
Ce      -0.10254317      -0.05319162      -0.00923465       3.00000000       0.00000000       0.04784722      -0.00807543       0.00146282       0.78284879
C       -1.98569021       3.26138917       3.97059623       0.00000000       0.00000000       0.01352309      -0.00076297       0.02734339      -0.12141493
C       -0.90074082       2.59718795       4.81135120       0.00000000       0.00000000       0.08805880      -0.12057560       0.01602914      -0.02298292
N        0.12891965       2.02445772       3.93566859       0.00000000       0.00000000       0.01231275       0.06550496      -0.10000861      -0.04237966
C       -0.18262663       1.17213344       2.94972311       0.00000000       0.00000000      -0.07728182       0.03881736       0.04574007       0.26493654
O        0.51589600       1.09771008       1.91001380       0.00000000       0.00000000      -0.11078203       0.00253661      -0.07222912      -0.38714513
C       -1.38454806       0.24688897       3.06582509       0.00000000       0.00000000       0.04178648      -0.00342197      -0.07694668       0.08204888
C       -1.96015212      -0.20989953       4.25210949       0.00000000       0.00000000       0.10393875      -0.01516946      -0.04992537      -0.02656445
C       -3.06257502      -1.04415359       4.18203341       0.00000000       0.00000000       0.06205236      -0.01277237       0.10767003      -0.00073739
C       -3.51148282      -1.50018945       2.95893424       0.00000000       0.00000000       0.07406780      -0.06646857       0.10837091      -0.02816359
C       -2.79595131      -1.12641915       1.82508608       0.00000000       0.00000000       0.03677534       0.07638147       0.01293882       0.09487767
C       -3.10311075      -1.70613795       0.49900591       0.00000000       0.00000000       0.00623521       0.11758126      -0.06504191       0.10259138
C       -4.36295746      -2.23340073       0.21399924       0.00000000       0.00000000      -0.03939554       0.09539006      -0.03930403      -0.02804161
C       -4.64384849      -2.62234276      -1.07957542       0.00000000       0.00000000      -0.07962592      -0.01728938      -0.05316765       0.00194613
C       -3.67163423      -2.50183891      -2.05971348       0.00000000       0.00000000       0.00711347       0.04515855       0.01520693      -0.03383136
C       -2.40236920      -2.07603141      -1.68007804       0.00000000       0.00000000       0.04105682      -0.01201249      -0.00713067       0.06799969
C       -1.27606092      -1.81197855      -2.64570779       0.00000000       0.00000000       0.02327062      -0.01782806       0.00515241       0.24774213
O       -0.52815906      -0.84965090      -2.33902235       0.00000000       0.00000000      -0.05266943      -0.15405306       0.02717554      -0.41544421
N       -1.11519380      -2.51408593      -3.77149334       0.00000000       0.00000000      -0.00709213       0.04339174      -0.09684985      -0.04437753
C       -1.78649048      -3.78230736      -4.05952451       0.00000000       0.00000000       0.07373793       0.09963671       0.09688071      -0.02089432
C       -2.71866317      -3.70781938      -5.26587137       0.00000000       0.00000000       0.03622107      -0.00576176       0.06133580      -0.12101518
C       -0.32123268      -1.94998490      -4.83305121       0.00000000       0.00000000      -0.04620717       0.09963400      -0.00554542       0.04223271
C       -0.54900804      -0.59878423      -5.11049863       0.00000000       0.00000000      -0.01449336      -0.03360473       0.00746130      -0.04107079
C        0.09620418       0.05881833      -6.13615924       0.00000000       0.00000000      -0.02422443      -0.01828514      -0.00027949      -0.04729784
C        0.98149211      -0.63283579      -6.95168122       0.00000000       0.00000000      -0.04225702      -0.05321579       0.02579071       0.02698913
C        1.67558702       0.01147445      -8.10256083       0.00000000       0.00000000      -0.01900427      -0.02217920       0.03893574      -0.12403101
C        1.19044001      -1.97602846      -6.67688298       0.00000000       0.00000000       0.03064628      -0.03417014       0.00544078      -0.05176292
C        0.57558402      -2.66974717      -5.63917339       0.00000000       0.00000000       0.01643886       0.08098943       0.03466747       0.01085101
C        0.93526986      -4.12426038      -5.50205915       0.00000000       0.00000000      -0.04156831       0.11832038       0.03825898      -0.12043845
N       -2.13603528      -1.66835445      -0.42681834       0.00000000       0.00000000       0.07484424       0.09618849      -0.05479734      -0.16523398
N       -1.80383845      -0.23331271       1.88670129       0.00000000       0.00000000       0.04250544       0.09224192      -0.08472635      -0.11157592
C        1.35839242       2.76837890       3.88650783       0.00000000       0.00000000      -0.03232523       0.09301748       0.05528051       0.04145302
C        1.28977440       4.15640244       4.05292522       0.00000000       0.00000000       0.00377948      -0.05120580      -0.05378530      -0.04918085
C        2.42295161       4.93635347       4.10153740       0.00000000       0.00000000       0.01280765       0.02101928      -0.02587299      -0.03872594
C        3.67679567       4.36478692       3.93974354       0.00000000       0.00000000      -0.00571159      -0.05234893       0.00330958       0.03318178
C        4.91066717       5.19997871       3.93534727       0.00000000       0.00000000      -0.00450788      -0.02805464       0.00188270      -0.12285728
C        3.73812622       2.98639383       3.78437818       0.00000000       0.00000000       0.01325085      -0.00809657      -0.00569801      -0.04779817
C        2.61898192       2.16046649       3.77599683       0.00000000       0.00000000      -0.00908515       0.06688749      -0.00120323       0.01378290
C        2.84079704       0.67531766       3.72132002       0.00000000       0.00000000      -0.06674875       0.11823247       0.00148547      -0.10820641
H       -2.72918349       3.72661314       4.60839603       0.00000000       0.00000000      -0.02039450       0.01168387       0.04370961       0.07942318
H       -2.46844733       2.51286781       3.34690259       0.00000000       0.00000000      -0.13969762       0.01592673       0.00665076       0.03913832
H       -1.56872807       4.01786474       3.31201676       0.00000000       0.00000000       0.01716618       0.07092594       0.02776252       0.05783710
H       -1.34773546       1.84708631       5.45459308       0.00000000       0.00000000      -0.01313105      -0.10309077      -0.00019859       0.07006558
H       -0.39137949       3.29312679       5.47723018       0.00000000       0.00000000      -0.11117444       0.10404965      -0.04445944       0.09485130
H       -1.54791632       0.01068780       5.21924653       0.00000000       0.00000000      -0.01718712       0.09247906      -0.01819038       0.08897141
H       -3.54689062      -1.35917325       5.08804967       0.00000000       0.00000000      -0.07506090      -0.05000563       0.11236666       0.09105881
H       -4.34929165      -2.17156046       2.91606821       0.00000000       0.00000000      -0.03647247      -0.07186221      -0.02733300       0.08588092
H       -5.13999936      -2.26081209       0.95511393       0.00000000       0.00000000      -0.03855731      -0.04540837       0.08708900       0.09189460
H       -5.62139787      -2.99122034      -1.33191383       0.00000000       0.00000000      -0.14882350      -0.02427418      -0.06037236       0.09938737
H       -3.92733845      -2.68454052      -3.08876953       0.00000000       0.00000000       0.01295319      -0.05540370       0.00882384       0.09411660
H       -2.31303677      -4.10294055      -3.16205745       0.00000000       0.00000000      -0.04126767      -0.02629064      -0.00921732       0.05669801
H       -1.01485156      -4.52516477      -4.25876732       0.00000000       0.00000000      -0.06022861      -0.00400918       0.02221604       0.09139598
H       -3.47201428      -2.93080486      -5.16173116       0.00000000       0.00000000       0.01310982       0.00605064       0.01775340       0.05206079
H       -3.21917153      -4.66578150      -5.36927902       0.00000000       0.00000000      -0.04165483      -0.00242783      -0.04345583       0.07808844
H       -2.16621783      -3.51161513      -6.18100694       0.00000000       0.00000000       0.02612214       0.01505779       0.03684518       0.06883747
H       -1.27315428      -0.05286913      -4.52309195       0.00000000       0.00000000       0.00571911      -0.10129439       0.01277084       0.03478074
H       -0.11822934       1.09910613      -6.33327649       0.00000000       0.00000000      -0.04321590      -0.03015483       0.02630350       0.04655771
H        1.39493115       1.05781844      -8.18983262       0.00000000       0.00000000       0.06608176      -0.03138436      -0.05830519       0.05923559
H        1.41067382      -0.50627891      -9.02367331       0.00000000       0.00000000       0.00247684       0.07652127      -0.00660851       0.08262418
H        2.75577075      -0.07310550      -7.98954195       0.00000000       0.00000000      -0.01092069       0.06431870      -0.04087056       0.06562366
H        1.86219054      -2.51468628      -7.32519070       0.00000000       0.00000000       0.05891650      -0.08513040      -0.01223888       0.06721025
H        1.82828709      -4.33181587      -6.09122820       0.00000000       0.00000000      -0.05449391       0.01232027       0.12522453       0.07194972
H        0.14164844      -4.75681443      -5.90453465       0.00000000       0.00000000       0.10311548       0.01610943       0.00067010       0.07291222
H        1.12757704      -4.40006659      -4.46510754       0.00000000       0.00000000       0.00991125      -0.00528945      -0.04789442       0.04170788
H        0.34425835       4.66635135       4.14173109       0.00000000       0.00000000       0.00441598      -0.06671287      -0.04996082       0.05557660
H        2.33197824       5.99606461       4.27830015       0.00000000       0.00000000      -0.02327796       0.03088125      -0.08213850       0.06327905
H        4.65958314       6.24738902       4.08297601       0.00000000       0.00000000       0.09568344      -0.03804467       0.00505467       0.06524409
H        5.43248218       5.08816398       2.98523150       0.00000000       0.00000000       0.01430578       0.03512877       0.02911662       0.06608201
H        5.59177589       4.87911813       4.72192538       0.00000000       0.00000000      -0.00765148       0.03977801      -0.00130914       0.07514853
H        4.71509417       2.53754289       3.69752853       0.00000000       0.00000000       0.03472753      -0.08330307      -0.02151241       0.05656436
H        3.91073085       0.46884661       3.68531340       0.00000000       0.00000000      -0.13092401      -0.01127192       0.00356135       0.05682373
H        2.36580710       0.23246507       2.83988790       0.00000000       0.00000000       0.02005428       0.02281167       0.04809629       0.05004045
H        2.43255619       0.21000315       4.61973277       0.00000000       0.00000000      -0.00984526       0.02197768      -0.07209979       0.05160144
C        2.74006229       4.26511231      -3.30267252       0.00000000       0.00000000      -0.03310150       0.01529055      -0.03786716      -0.12356719
C        1.34541087       4.10033838      -3.88868225       0.00000000       0.00000000      -0.13152234      -0.10057649       0.04296777      -0.01585410
N        0.41933214       3.44425708      -2.95770919       0.00000000       0.00000000      -0.04923394       0.03663642       0.08463445      -0.04517962
C        0.62559252       2.30772837      -2.28640101       0.00000000       0.00000000       0.03126304       0.00201500      -0.01963332       0.26150002
O       -0.09053798       2.01602211      -1.29765967       0.00000000       0.00000000       0.10562971       0.00566624       0.01162411      -0.39910459
C        1.64260110       1.26914755      -2.70670666       0.00000000       0.00000000      -0.07411544      -0.04225385       0.01281832       0.08087711
C        2.21532402       1.17644330      -3.97218228       0.00000000       0.00000000      -0.13878562      -0.04269392      -0.01571407      -0.02790411
C        3.05347761       0.11500615      -4.26077230       0.00000000       0.00000000      -0.07073927       0.03038284      -0.11016704       0.00107471
C        3.25477729      -0.86385379      -3.31394474       0.00000000       0.00000000      -0.08014802      -0.01311626      -0.14276887      -0.02824586
C        2.61057993      -0.74177824      -2.08339757       0.00000000       0.00000000      -0.03918539       0.06864480      -0.01186932       0.09678851
C        2.76240519      -1.81327697      -1.07699757       0.00000000       0.00000000       0.01338515       0.02760791       0.05376963       0.09796714
C        3.86388471      -2.66900309      -1.13163856       0.00000000       0.00000000       0.05353175       0.04984483       0.08877936      -0.02970263
C        4.05696800      -3.57047102      -0.10721579       0.00000000       0.00000000       0.05292918      -0.05873050       0.04377683       0.00298358
C        3.14543736      -3.62224724       0.93545412       0.00000000       0.00000000      -0.03946288       0.00972213       0.03584375      -0.03022786
C        2.00533133      -2.82798033       0.86226677       0.00000000       0.00000000      -0.06601647      -0.01609595      -0.02666390       0.07098327
C        0.94011355      -2.72726082       1.92386260       0.00000000       0.00000000      -0.01513504      -0.12432191      -0.00982033       0.25104459
O        0.30870133      -1.64976388       1.93144092       0.00000000       0.00000000       0.00690720      -0.04019155      -0.04325079      -0.40444815
N        0.68822703      -3.68088226       2.82905603       0.00000000       0.00000000       0.01532142       0.04335661       0.07243212      -0.04991978
C        1.08190747      -5.08162366       2.72021277       0.00000000       0.00000000      -0.05640958       0.13087108      -0.05818010      -0.01766292
C        2.02200514      -5.51633536       3.83893575       0.00000000       0.00000000      -0.02593602       0.01236997      -0.06109339      -0.12096347
C        0.04203373      -3.28185875       4.05398548       0.00000000       0.00000000       0.07189698       0.05883895       0.02988586       0.04407717
C        0.60204114      -2.17669452       4.70065345       0.00000000       0.00000000       0.00491363      -0.05076935      -0.01698199      -0.04239752
C        0.12368380      -1.71717818       5.91071820       0.00000000       0.00000000       0.01554990      -0.02972345      -0.01615607      -0.04591068
C       -0.93771993      -2.36709013       6.52802132       0.00000000       0.00000000       0.04065200      -0.06065879      -0.03932808       0.02546566
C       -1.50187116      -1.91390389       7.83227081       0.00000000       0.00000000       0.02545237      -0.01857278      -0.03935159      -0.12380763
C       -1.47436495      -3.47101840       5.88349189       0.00000000       0.00000000      -0.03242067      -0.03491363      -0.00979410      -0.05324058
C       -1.02593402      -3.95803401       4.65956444       0.00000000       0.00000000       0.00715146       0.07990448       0.00315860       0.00934312
C       -1.73174068      -5.16819669       4.11596623       0.00000000       0.00000000       0.07106729       0.09677163      -0.00246650      -0.11937562
N        1.83481762      -1.92244580      -0.12137264       0.00000000       0.00000000      -0.06963817       0.02011051       0.05545692      -0.15436318
N        1.84969674       0.31650626      -1.78056420       0.00000000       0.00000000      -0.06775085      -0.02090203       0.06783342      -0.12164357
C       -0.70160140       4.28307171      -2.60586216       0.00000000       0.00000000       0.01125302       0.08881022      -0.01094576       0.03920364
C       -0.41988869       5.58896016      -2.19754574       0.00000000       0.00000000       0.00606046      -0.03416064       0.00233206      -0.04519229
C       -1.42087953       6.51526017      -2.00213254       0.00000000       0.00000000       0.00439284      -0.00505034       0.02932088      -0.03734503
C       -2.75527760       6.16179782      -2.17790019       0.00000000       0.00000000       0.03876113      -0.05481904       0.01245708       0.03382083
C       -3.85805812       7.14655980      -1.97653682       0.00000000       0.00000000       0.03284940      -0.04903721      -0.00729031      -0.12459731
C       -3.02443842       4.85483117      -2.56163158       0.00000000       0.00000000       0.00169438      -0.01896843       0.01023289      -0.05362055
C       -2.03178878       3.90587064      -2.80192870       0.00000000       0.00000000       0.00664529       0.05644815      -0.00882922       0.00149988
C       -2.47390639       2.57172011      -3.34178911       0.00000000       0.00000000       0.03918321       0.08546223       0.02452600      -0.11187587
H        3.37484931       4.75911335      -4.02987735       0.00000000       0.00000000       0.05437160       0.02511021      -0.03616614       0.08138883
H        3.18387317       3.30887517      -3.04214054       0.00000000       0.00000000       0.06042683       0.02394493      -0.02139908       0.04410773
H        2.70794488       4.88071234      -2.40805528       0.00000000       0.00000000       0.00245133       0.00665046       0.01517822       0.06317810
H        1.36000497       3.56616704      -4.83990968       0.00000000       0.00000000       0.03526582       0.00116101      -0.01210847       0.06458653
H        0.91261197       5.07919563      -4.10630335       0.00000000       0.00000000       0.09111601      -0.02081910       0.00402782       0.09321644
H        1.97704829       1.85833270      -4.76410057       0.00000000       0.00000000       0.06837832       0.08599016       0.02870867       0.09099976
H        3.50898801       0.04570003      -5.23158644       0.00000000       0.00000000       0.06809973      -0.03758539      -0.11315424       0.09082189
H        3.83840312      -1.72816959      -3.57110533       0.00000000       0.00000000       0.06597195      -0.04756506       0.02709565       0.08439157
H        4.59543510      -2.58830667      -1.91325121       0.00000000       0.00000000       0.07960212      -0.01305765      -0.04245875       0.08870079
H        4.91888294      -4.21328299      -0.11336210       0.00000000       0.00000000       0.12225122      -0.07077565       0.07063330       0.09846279
H        3.35423284      -4.24179935       1.78883020       0.00000000       0.00000000      -0.01825891      -0.04439636       0.01807692       0.09570604
H        1.51241255      -5.24045002       1.73253178       0.00000000       0.00000000       0.04239494      -0.04975501       0.00871210       0.05468073
H        0.17002700      -5.67754631       2.77255220       0.00000000       0.00000000       0.07415734      -0.03989454      -0.02460396       0.08777016
H        2.92048605      -4.90565406       3.87683099       0.00000000       0.00000000       0.01140930      -0.00090476      -0.00764306       0.05281684
H        2.30501823      -6.55068879       3.67240795       0.00000000       0.00000000       0.05345032      -0.02933316       0.03643572       0.07676171
H        1.52977679      -5.44700281       4.80556145       0.00000000       0.00000000       0.00212804       0.01272926      -0.02009839       0.06762471
H        1.44513555      -1.67516058       4.24909158       0.00000000       0.00000000      -0.03579647      -0.11123806      -0.03632067       0.04136802
H        0.58602083      -0.86743936       6.39348341       0.00000000       0.00000000       0.04601847      -0.03975937      -0.04834434       0.04822759
H       -0.97420814      -1.03832604       8.20170175       0.00000000       0.00000000      -0.06074174      -0.03387923       0.05016053       0.05934918
H       -1.42124566      -2.71344089       8.56730388       0.00000000       0.00000000       0.02435326       0.05901639       0.02412463       0.08203596
H       -2.56223397      -1.68503229       7.72577465       0.00000000       0.00000000       0.03692737       0.04053959       0.05419871       0.06267673
H       -2.28066810      -3.99010097       6.37480176       0.00000000       0.00000000      -0.09195584      -0.06797808       0.00323485       0.06458977
H       -2.66180916      -5.31648807       4.66346681       0.00000000       0.00000000       0.04452839       0.01284927      -0.12993483       0.06959454
H       -1.12693798      -6.06290445       4.27351478       0.00000000       0.00000000      -0.09972516       0.01430439       0.00472761       0.07245131
H       -1.95728099      -5.06620283       3.05433142       0.00000000       0.00000000       0.00299030      -0.01423185       0.04033506       0.03961902
H        0.60417355       5.89836200      -2.05581523       0.00000000       0.00000000      -0.00892655      -0.04749442       0.05874886       0.05591237
H       -1.15677314       7.52688021      -1.73862317       0.00000000       0.00000000      -0.02446353      -0.00023340       0.07133886       0.06786151
H       -3.45956339       8.12405706      -1.71662101       0.00000000       0.00000000      -0.06366180      -0.04139438      -0.01490737       0.06798522
H       -4.52284509       6.81009897      -1.18090399       0.00000000       0.00000000       0.01881154       0.03987983      -0.01339152       0.06859265
H       -4.45725162       7.23672491      -2.88191517       0.00000000       0.00000000       0.03370280       0.01848992       0.02416141       0.07650536
H       -4.05423176       4.57261844      -2.72383851       0.00000000       0.00000000      -0.01311895      -0.04682750      -0.01373855       0.05810541
H       -2.96812477       2.73247437      -4.30219435       0.00000000       0.00000000       0.11203335      -0.06331252       0.01066175       0.07604614
H       -3.22618475       2.13239942      -2.68044275       0.00000000       0.00000000       0.00081881      -0.01659408      -0.15357155       0.03899133
H       -1.64563815       1.87746722      -3.47720085       0.00000000       0.00000000      -0.06246589       0.03063393       0.04949269       0.03843850
O       -2.37720617       1.47775946      -0.18556129       0.00000000       0.00000000       0.05659672      -0.02185579       0.00942671      -0.50757150
H       -2.62571645       1.56712091      -1.11847472       0.00000000       0.00000000      -0.00345301      -0.02366988       0.04926481       0.33660673
H       -2.08001849       2.36722174       0.05778219       0.00000000       0.00000000      -0.04264816      -0.02818236       0.07226034       0.34194236
