340
Properties=species:S:1:pos:R:3:initial_charges:R:1:initial_magmoms:R:1:forces:R:3:charge:R:1 energy=-10775.345191408744 free_energy=-10775.345191408744 dipole="0.7875047432297342 0.3612067612120359 -1.269674510016667" pbc="F F F"
Ce      -0.25185643       0.11873835       0.30476578       3.00000000       0.00000000       0.02533304      -0.04315893       0.04306611       0.87632384
C        4.58470197      -0.04650282      -4.54687216       0.00000000       0.00000000      -0.00015594       0.02975051       0.01037844      -0.10212758
C        4.98789794       1.40188864      -4.80255816       0.00000000       0.00000000      -0.00115766      -0.02654770      -0.00862732      -0.05745554
C        4.07771347       2.09672595      -5.81635866       0.00000000       0.00000000      -0.00310475      -0.01411784       0.00214900      -0.06778473
C        2.67484687       2.46041532      -5.31946549       0.00000000       0.00000000      -0.00232155       0.01294422       0.02273496      -0.06178398
C        2.58754665       3.42791263      -4.13031124       0.00000000       0.00000000      -0.01420042       0.04026524       0.00122833      -0.02146724
C        3.29194476       4.77307868      -4.39181960       0.00000000       0.00000000      -0.02743873       0.03982580       0.02163324      -0.06489313
C        4.80626154       4.78930910      -4.18179740       0.00000000       0.00000000      -0.01547254       0.02126245       0.00085497      -0.11299302
C        1.10456352       3.76375923      -3.81556809       0.00000000       0.00000000       0.02174690       0.02127023      -0.02837588      -0.03174925
N        0.27985612       2.62441076      -3.44034682       0.00000000       0.00000000       0.04114415      -0.01709350      -0.14303485      -0.05226001
C       -0.47992191       1.94626539      -4.49337246       0.00000000       0.00000000       0.01463104      -0.01009557      -0.02550980      -0.01744132
C       -1.93948826       2.44048774      -4.58480176       0.00000000       0.00000000       0.04991945       0.04704454       0.01102988      -0.02346625
C       -2.02892371       3.96907847      -4.72980329       0.00000000       0.00000000      -0.03532887       0.01285344       0.02269921      -0.06265379
C       -3.46594162       4.48427659      -4.79840937       0.00000000       0.00000000       0.00618775       0.00857189       0.01166124      -0.11036417
C       -2.64908842       1.77100412      -5.77066653       0.00000000       0.00000000       0.03466453      -0.01296631       0.06271790      -0.07507845
C       -2.57133603       0.24475811      -5.79818870       0.00000000       0.00000000      -0.06393776      -0.01203715      -0.05048271      -0.05875014
C       -3.63764302      -0.35156490      -6.72629813       0.00000000       0.00000000      -0.00333328      -0.00486855      -0.04544024      -0.05937319
C       -3.35173302      -0.11167586      -8.20684086       0.00000000       0.00000000       0.00428616       0.00220093       0.04697457      -0.11123781
C        0.19021116       2.17225213      -2.19467398       0.00000000       0.00000000      -0.16327084      -0.06704148       0.00566459       0.26095033
O       -0.29532245       1.05619474      -1.91070152       0.00000000       0.00000000      -0.01746953       0.07174790      -0.02857143      -0.40045096
C        0.63271776       3.08376326      -1.03621323       0.00000000       0.00000000      -0.00459123       0.00520493      -0.00443015       0.05109207
O        0.10286527       2.49402077       0.13810016       0.00000000       0.00000000       0.04045284      -0.11228224      -0.04971826      -0.21994662
C        0.08561149       3.31706573       1.29814071       0.00000000       0.00000000       0.00962278      -0.13621486       0.10847892       0.04360261
C       -0.52457682       2.44674150       2.42720960       0.00000000       0.00000000      -0.03397409       0.05097421      -0.01973894       0.26554796
O       -0.86184433       1.28235236       2.15315936       0.00000000       0.00000000       0.03832934       0.12866386       0.01323786      -0.36009180
N       -0.76030968       2.98421880       3.62437656       0.00000000       0.00000000      -0.05784316       0.05267361       0.03673513      -0.06114797
C       -1.59721621       2.19255743       4.53512605       0.00000000       0.00000000      -0.04072484       0.03830022      -0.04232778      -0.01308302
C       -3.10275089       2.30026929       4.22446075       0.00000000       0.00000000       0.03613078      -0.00224911      -0.03431171      -0.02051691
C       -3.59209126       3.73358468       4.49806169       0.00000000       0.00000000       0.05874444      -0.05812637       0.01353482      -0.06072133
C       -5.09704627       3.96565997       4.45493081       0.00000000       0.00000000       0.06977253       0.01015076       0.00997878      -0.11272161
C       -3.85742518       1.15731792       4.93373035       0.00000000       0.00000000       0.01684340       0.03190259      -0.02723096      -0.06608849
C       -3.51124599       0.86030046       6.39706498       0.00000000       0.00000000       0.00174774       0.04443040       0.00262616      -0.06418634
C       -3.81550130       1.98757217       7.38067361       0.00000000       0.00000000       0.00693215       0.00294365       0.01720674      -0.05503347
C       -3.58787533       1.55346576       8.82546421       0.00000000       0.00000000      -0.02222572       0.00947970      -0.03250297      -0.10966503
C        0.06670181       4.03514597       4.21744710       0.00000000       0.00000000       0.01396139      -0.01080397      -0.02647430      -0.02921339
C       -0.46783997       5.46282840       4.43889147       0.00000000       0.00000000      -0.02564043      -0.07767839       0.02075851      -0.03502034
C        0.27946824       6.06459327       5.64188224       0.00000000       0.00000000      -0.00089955      -0.01679970       0.01688276      -0.06223746
C       -0.28053431       7.40437848       6.10165504       0.00000000       0.00000000      -0.00965065       0.04596030       0.00307850      -0.11222919
C       -0.26882227       6.32633362       3.18707166       0.00000000       0.00000000      -0.02659118      -0.03485368       0.01838820      -0.07476583
C       -1.51521206       6.40209632       2.31007901       0.00000000       0.00000000      -0.02431297       0.00293317      -0.02397427      -0.05825738
C       -2.58816767       7.29643896       2.92909008       0.00000000       0.00000000      -0.00952819       0.03843418      -0.01054412      -0.05878883
C       -3.66146216       7.68258474       1.92148512       0.00000000       0.00000000      -0.01504450       0.00466465       0.01348990      -0.10954330
H        5.23273000      -0.50713624      -3.80233355       0.00000000       0.00000000       0.01394959       0.02477263      -0.03860879       0.02442194
H        3.55754038      -0.10511540      -4.18891443       0.00000000       0.00000000       0.00834544       0.01735118      -0.02172663       0.00785618
H        4.66313151      -0.61856106      -5.46819513       0.00000000       0.00000000       0.00008101       0.01611663       0.05010473       0.05393747
H        5.00504551       1.95847268      -3.86389834       0.00000000       0.00000000      -0.01048319      -0.02910350      -0.01615426       0.02357577
H        6.00248962       1.40628488      -5.20051018       0.00000000       0.00000000       0.02421948       0.01577346       0.01563229       0.04938805
H        4.56094322       2.99839794      -6.18437720       0.00000000       0.00000000       0.02171876      -0.02640647       0.00202518       0.05479863
H        3.96040625       1.43377217      -6.67553836       0.00000000       0.00000000      -0.02102343      -0.01184253      -0.00785857       0.05215993
H        2.15683395       2.91345674      -6.16743329       0.00000000       0.00000000      -0.05051315      -0.00551970       0.01880811       0.04252029
H        2.14472546       1.54397075      -5.05241107       0.00000000       0.00000000       0.02931232      -0.02727593       0.01929857       0.02166401
H        3.02815244       2.95419586      -3.24467625       0.00000000       0.00000000      -0.00570944       0.01806620      -0.01788156       0.02195601
H        3.05845475       5.10836182      -5.40271898       0.00000000       0.00000000       0.02860728      -0.03583179      -0.00819832       0.05469404
H        2.85428207       5.50805065      -3.71302155       0.00000000       0.00000000       0.02663482       0.05087314       0.03997034       0.03226293
H        5.35320166       4.43964473      -5.04841061       0.00000000       0.00000000      -0.00718005      -0.00777380      -0.03052180       0.05571840
H        5.13568166       5.80439410      -3.98429141       0.00000000       0.00000000      -0.00781025       0.05929546      -0.00346840       0.05414994
H        5.09362053       4.17320229      -3.33606224       0.00000000       0.00000000       0.03109162       0.02203732       0.01161161       0.03682187
H        1.07087477       4.50117236      -3.01149985       0.00000000       0.00000000       0.04855973       0.02757822      -0.06710882       0.05222262
H        0.67557360       4.22753937      -4.70358288       0.00000000       0.00000000      -0.03818022      -0.06650110      -0.00921157       0.09004829
H        0.01495486       2.10274995      -5.44999512       0.00000000       0.00000000       0.00430501       0.06504761       0.02902139       0.08148238
H       -0.49045045       0.87651627      -4.26909684       0.00000000       0.00000000       0.03401208       0.04667956       0.02785815       0.06694514
H       -2.43557536       2.15292966      -3.64775278       0.00000000       0.00000000      -0.00266557      -0.00451948      -0.06687615       0.02551279
H       -1.54305019       4.44134972      -3.87226659       0.00000000       0.00000000      -0.00279538      -0.02271816      -0.00923533       0.02361248
H       -1.50764027       4.28418044      -5.63775197       0.00000000       0.00000000      -0.00700318      -0.04301833       0.06589524       0.04434648
H       -4.06337909       4.07412303      -3.98725308       0.00000000       0.00000000       0.00078767      -0.03341317      -0.01353814       0.03146683
H       -3.47800000       5.56619902      -4.70328894       0.00000000       0.00000000       0.03975211       0.02416927      -0.01847834       0.05500118
H       -3.93660645       4.23384590      -5.74442385       0.00000000       0.00000000       0.01073490       0.00551061       0.03029065       0.05322334
H       -3.70108416       2.05553306      -5.72492254       0.00000000       0.00000000       0.02772768      -0.02978803      -0.03750034       0.05680809
H       -2.24080325       2.16999805      -6.70106964       0.00000000       0.00000000      -0.00261574      -0.01691787       0.05546529       0.05393629
H       -1.58146128      -0.07123561      -6.13807646       0.00000000       0.00000000      -0.06821035       0.00278770       0.02015748       0.02896039
H       -2.72184271      -0.15019827      -4.78733802       0.00000000       0.00000000       0.02451387       0.02091647      -0.03558852       0.01090847
H       -3.70160897      -1.42716084      -6.54729579       0.00000000       0.00000000       0.02173020       0.02735842      -0.01059025       0.03490205
H       -4.61199457       0.07796964      -6.48081736       0.00000000       0.00000000       0.04114691      -0.03201223       0.01558053       0.03756320
H       -2.35464697      -0.46328923      -8.46785700       0.00000000       0.00000000      -0.05843530       0.01220033      -0.02115815       0.03681120
H       -4.07471364      -0.64886238      -8.81749154       0.00000000       0.00000000       0.05798699       0.03479417       0.04444562       0.05146028
H       -3.42262891       0.94420108      -8.45743008       0.00000000       0.00000000       0.01347769      -0.04178781       0.02977687       0.04349139
H        1.73145996       3.14637111      -0.99772961       0.00000000       0.00000000      -0.01357170       0.05773544       0.08598797       0.07695114
H        0.22199836       4.09227479      -1.17620031       0.00000000       0.00000000      -0.04640120       0.01965617       0.01239826       0.07913706
H        1.10309068       3.65661368       1.51723144       0.00000000       0.00000000       0.03146889       0.04123583       0.08514092       0.08255557
H       -0.57401804       4.18249698       1.15471910       0.00000000       0.00000000       0.04101834       0.04069857      -0.06281217       0.09425297
H       -1.30707080       1.13861433       4.45743504       0.00000000       0.00000000       0.08160939       0.07484942      -0.05284561       0.07063021
H       -1.41103501       2.54639292       5.54725750       0.00000000       0.00000000      -0.03979534       0.01421401      -0.01731675       0.07691964
H       -3.22839406       2.11917481       3.14834471       0.00000000       0.00000000       0.00548882      -0.01219597      -0.00111175       0.03192629
H       -3.22263939       4.06981571       5.46735987       0.00000000       0.00000000      -0.00579665      -0.01121181      -0.00440328       0.04123080
H       -3.14076426       4.35650493       3.72075983       0.00000000       0.00000000      -0.01970120       0.03395230       0.09664720       0.03025368
H       -5.62036423       3.41709825       5.23186942       0.00000000       0.00000000       0.03778032      -0.01169890      -0.01804620       0.04765230
H       -5.29237480       5.02309549       4.61315991       0.00000000       0.00000000      -0.02878849       0.02339912      -0.00081733       0.04655476
H       -5.50062524       3.68904252       3.48809745       0.00000000       0.00000000      -0.00055031      -0.01415764       0.03604972       0.04069383
H       -4.92763275       1.34650837       4.84794579       0.00000000       0.00000000       0.01641666       0.00722343       0.04681104       0.05355849
H       -3.64896404       0.24603674       4.36486916       0.00000000       0.00000000      -0.00700206      -0.01515714      -0.00888299       0.02512212
H       -4.09724001      -0.01318950       6.69634413       0.00000000       0.00000000       0.01731916       0.02213425      -0.02120912       0.04346475
H       -2.45839894       0.58002871       6.48025509       0.00000000       0.00000000      -0.01324694      -0.00594974       0.02548818       0.02440120
H       -3.17872231       2.84964135       7.17582114       0.00000000       0.00000000      -0.02762383      -0.01196882       0.01078477       0.02673523
H       -4.85489138       2.29817057       7.25651084       0.00000000       0.00000000       0.03986677       0.00451573       0.03708422       0.03940233
H       -2.55422829       1.24674427       8.98302559       0.00000000       0.00000000      -0.05002714       0.01293854      -0.02763267       0.03337474
H       -3.80803464       2.37764184       9.49937325       0.00000000       0.00000000       0.01235489      -0.03414897       0.00933537       0.04676103
H       -4.23699485       0.71999759       9.08322037       0.00000000       0.00000000       0.01756756       0.00850436      -0.00294056       0.04247626
H        0.38814519       3.64150348       5.18661299       0.00000000       0.00000000      -0.01864617       0.03842186      -0.06560835       0.08310896
H        0.94374533       4.13867985       3.58552958       0.00000000       0.00000000       0.07185198       0.01922053       0.11025456       0.05499973
H       -1.52479413       5.43126278       4.69343461       0.00000000       0.00000000      -0.01707815      -0.00268770       0.01576255       0.06699888
H        0.20968310       5.37252807       6.48260334       0.00000000       0.00000000       0.01808083      -0.03814727       0.01533255       0.03939382
H        1.33475130       6.18220265       5.38698078       0.00000000       0.00000000       0.01623168      -0.01455103       0.01375334       0.03636734
H       -1.34875751       7.34270475       6.28314987       0.00000000       0.00000000      -0.05292180      -0.05705773       0.01840068       0.04711549
H        0.20293245       7.70579899       7.02456387       0.00000000       0.00000000       0.02617046      -0.00948644       0.06514156       0.05557281
H       -0.10734703       8.19250715       5.37772851       0.00000000       0.00000000       0.01184736       0.04213696      -0.07041198       0.04351853
H       -0.00604877       7.33656621       3.49549343       0.00000000       0.00000000      -0.03056609       0.02354687      -0.07168747       0.06641734
H        0.58071914       5.94522292       2.61379717       0.00000000       0.00000000      -0.00624541       0.03140019      -0.03595360       0.01303513
H       -1.24377922       6.80139506       1.33083495       0.00000000       0.00000000       0.01709245       0.08272549      -0.01679088       0.02826624
H       -1.93062136       5.40160473       2.15703261       0.00000000       0.00000000      -0.02174267      -0.02352616      -0.03057403       0.01182497
H       -3.05058061       6.78692067       3.77604739       0.00000000       0.00000000      -0.01823605       0.04281216      -0.01442552       0.03570721
H       -2.11289743       8.19943413       3.31036161       0.00000000       0.00000000      -0.02511202       0.06942355      -0.00632720       0.04558875
H       -4.14687427       6.79701444       1.51826141       0.00000000       0.00000000      -0.02065261       0.01946625      -0.00032951       0.03385122
H       -4.41265176       8.30445037       2.39808419       0.00000000       0.00000000      -0.04203686      -0.00381521      -0.00548888       0.05012968
H       -3.22920695       8.24947967       1.09939600       0.00000000       0.00000000      -0.00323739      -0.02471036       0.00059618       0.03692928
C        5.19839003      -2.54498322       0.80553357       0.00000000       0.00000000      -0.01948928      -0.03356400      -0.02195238      -0.10404181
C        4.89888986      -3.86753866       0.10142654       0.00000000       0.00000000       0.01880409       0.00099672      -0.01938973      -0.05287668
C        4.48596625      -4.96808838       1.07745446       0.00000000       0.00000000       0.01566116       0.04369025      -0.00074881      -0.06866224
C        3.09388583      -4.76488767       1.67714420       0.00000000       0.00000000      -0.02860610      -0.02941580      -0.03184380      -0.06939291
C        1.91895410      -5.05213823       0.72795110       0.00000000       0.00000000      -0.04305804      -0.02828437      -0.00273384      -0.02183063
C        2.04962316      -6.46986203       0.13087578       0.00000000       0.00000000      -0.04764684       0.00337214       0.00544949      -0.07319309
C        2.74208177      -6.53890033      -1.23387058       0.00000000       0.00000000      -0.02078145      -0.00337275       0.03558706      -0.10826502
C        0.54230875      -4.96063477       1.45622010       0.00000000       0.00000000       0.01784680      -0.00123129       0.03920851      -0.01980212
N        0.30579740      -3.68197437       2.09877063       0.00000000       0.00000000       0.08594000       0.01629268       0.01197542      -0.07065591
C        0.97853683      -3.45332759       3.38049887       0.00000000       0.00000000      -0.03897698       0.00568200       0.02399741      -0.01944981
C       -0.05287197      -3.33311050       4.51402219       0.00000000       0.00000000      -0.06190713      -0.03200291      -0.00104325      -0.02658953
C       -0.99816012      -4.54526173       4.50369809       0.00000000       0.00000000      -0.02814159      -0.02065290       0.01057747      -0.06315665
C       -2.19884354      -4.38419935       5.42962426       0.00000000       0.00000000       0.00365445       0.02056332      -0.00228919      -0.11116206
C        0.69550955      -3.23761473       5.84547949       0.00000000       0.00000000      -0.02151937       0.00595734      -0.02334756      -0.07300015
C        1.61176312      -2.02017113       5.94935481       0.00000000       0.00000000      -0.01752016      -0.00195973       0.02730367      -0.05863140
C        2.21674264      -1.88228321       7.34759613       0.00000000       0.00000000       0.02664863      -0.01997489      -0.00257794      -0.05650397
C        3.18404951      -3.01809303       7.66068280       0.00000000       0.00000000      -0.00844361       0.01222635       0.00876878      -0.10993658
C       -0.34528368      -2.61663813       1.61246417       0.00000000       0.00000000       0.00193538       0.01763209       0.07110240       0.27031681
O        0.03445653      -1.46457103       1.89495717       0.00000000       0.00000000      -0.01602416       0.01906112       0.01351625      -0.36660219
C       -1.72636648      -2.72023528       0.92531762       0.00000000       0.00000000       0.03307416      -0.02190277       0.04254812       0.04716248
O       -2.06856773      -1.38313208       0.56981819       0.00000000       0.00000000      -0.02616028       0.00011097      -0.00427659      -0.21853596
C       -2.97671032      -1.21421996      -0.51004073       0.00000000       0.00000000      -0.03403527      -0.00403265      -0.00314962       0.05072126
C       -3.12402994       0.30525880      -0.68102665       0.00000000       0.00000000      -0.03445743       0.02679445       0.07071213       0.26259446
O       -2.34740787       1.03569420      -0.04209259       0.00000000       0.00000000      -0.02060612      -0.03782839      -0.06310211      -0.38100598
N       -4.10557263       0.80592815      -1.42207863       0.00000000       0.00000000      -0.04346804       0.04854907      -0.00984643      -0.06217271
C       -4.28724150       2.25727699      -1.35850025       0.00000000       0.00000000      -0.00292137       0.00266139       0.03592387      -0.00609451
C       -4.83453521       2.73770449      -0.00034656       0.00000000       0.00000000      -0.02104896      -0.03098113       0.01111059      -0.02282453
C       -6.26386269       2.23385428       0.21423211       0.00000000       0.00000000      -0.02553880       0.01135901      -0.01434614      -0.06550685
C       -6.88083245       2.55083833       1.57046835       0.00000000       0.00000000       0.02086913      -0.00371966      -0.03403637      -0.10818633
C       -4.63973376       4.25768222       0.11343011       0.00000000       0.00000000      -0.01113914      -0.03064389      -0.00874642      -0.06223347
C       -5.21070052       5.14422408      -0.99999301       0.00000000       0.00000000      -0.00864307       0.02117617       0.02482855      -0.06465371
C       -6.72538444       5.35048454      -0.97319399       0.00000000       0.00000000       0.01424782       0.00188399       0.00967077      -0.05507177
C       -7.14209167       6.52311834      -1.85479308       0.00000000       0.00000000       0.00754546      -0.02303799       0.03130700      -0.11031020
C       -4.71156600       0.10537102      -2.54858457       0.00000000       0.00000000       0.03559345       0.01445959       0.02102570      -0.02093471
C       -6.25385985       0.06685672      -2.62456453       0.00000000       0.00000000       0.03500754       0.05195393      -0.01458082      -0.03352106
C       -6.66821298       0.36407204      -4.07639250       0.00000000       0.00000000       0.01722716      -0.00925748      -0.00760522      -0.06132504
C       -8.15885765       0.61137186      -4.27082580       0.00000000       0.00000000       0.02608314      -0.01967616       0.00783370      -0.11232157
C       -6.79815981      -1.28542141      -2.15318625       0.00000000       0.00000000       0.02513060       0.02653864      -0.01408153      -0.07478216
C       -6.84114640      -1.43411277      -0.62908446       0.00000000       0.00000000      -0.01171873       0.00192891      -0.01415143      -0.06024837
C       -8.11849771      -0.87003847      -0.00493683       0.00000000       0.00000000       0.01095766      -0.00709346       0.00469387      -0.06007510
C       -8.09897575      -0.97399941       1.51755589       0.00000000       0.00000000      -0.01291744      -0.00898967      -0.02645088      -0.10781685
H        5.73733032      -1.87706517       0.13670543       0.00000000       0.00000000       0.01304900       0.00958159       0.01261293       0.02439297
H        4.28851370      -2.04635896       1.13882842       0.00000000       0.00000000      -0.02616662      -0.02077664       0.00868716       0.01493488
H        5.82326362      -2.72853848       1.67569743       0.00000000       0.00000000       0.03648090       0.03354304      -0.02516042       0.05167056
H        4.11944828      -3.72068430      -0.65168541       0.00000000       0.00000000       0.01077021      -0.01722863       0.00162280       0.01253092
H        5.79925268      -4.19184069      -0.42072346       0.00000000       0.00000000       0.02894117      -0.01016728      -0.00066070       0.04611149
H        4.54933973      -5.94138149       0.59695705       0.00000000       0.00000000       0.03168799       0.05806756       0.01401430       0.05531337
H        5.20635953      -4.98064768       1.89673354       0.00000000       0.00000000       0.01104196       0.01688036       0.02387512       0.05087360
H        3.00933216      -5.43960999       2.53099364       0.00000000       0.00000000       0.01092643      -0.00181406       0.00190233       0.04302917
H        3.03581427      -3.73761811       2.03330383       0.00000000       0.00000000       0.00377682      -0.02260111      -0.01596490       0.03862560
H        1.92124584      -4.30650582      -0.07670083       0.00000000       0.00000000      -0.01421615       0.00092767       0.02781810       0.02027239
H        2.57782797      -7.10382928       0.84420833       0.00000000       0.00000000       0.00829726       0.00719256      -0.05757648       0.06002384
H        1.05553845      -6.90031469       0.02906672       0.00000000       0.00000000      -0.02441950      -0.00678543      -0.03209909       0.04477368
H        3.82250219      -6.58074363      -1.15461619       0.00000000       0.00000000       0.02400788       0.00592444       0.03085020       0.05318789
H        2.42738626      -7.43547728      -1.76001872       0.00000000       0.00000000      -0.01979175      -0.01175795      -0.02017786       0.05201696
H        2.49879044      -5.67153601      -1.84477627       0.00000000       0.00000000       0.01404088      -0.03391005      -0.02952582       0.02060877
H       -0.26802240      -5.15088386       0.75222051       0.00000000       0.00000000       0.05477177      -0.01511138      -0.01787003       0.04712694
H        0.51618910      -5.74679069       2.21130571       0.00000000       0.00000000      -0.04450561       0.00609005       0.09544663       0.08203546
H        1.61695251      -4.30278254       3.59897693       0.00000000       0.00000000      -0.01869367       0.03124586       0.00238451       0.08277008
H        1.57175202      -2.54063235       3.31303087       0.00000000       0.00000000       0.00410130      -0.02142501       0.05748029       0.06980411
H       -0.64527337      -2.42416854       4.35816944       0.00000000       0.00000000       0.02116716       0.01296246       0.00072924       0.03632674
H       -1.37335125      -4.70378814       3.48862432       0.00000000       0.00000000      -0.00102600       0.02290510       0.00837756       0.01555723
H       -0.44179882      -5.43962331       4.79019953       0.00000000       0.00000000       0.01068999       0.00943682       0.02297505       0.04503413
H       -2.72910135      -3.46114820       5.20687689       0.00000000       0.00000000      -0.02458171       0.02077809       0.01396341       0.03478988
H       -2.88733591      -5.21523265       5.29767330       0.00000000       0.00000000       0.02572680       0.00737193       0.01084562       0.05069027
H       -1.89643506      -4.36455199       6.47156195       0.00000000       0.00000000      -0.00877056      -0.00464328      -0.00005610       0.05336122
H       -0.03421145      -3.18358809       6.65310050       0.00000000       0.00000000       0.01683035       0.00389594       0.00357094       0.06021700
H        1.27473028      -4.15183339       5.98001477       0.00000000       0.00000000       0.00205280       0.02145137       0.02199316       0.04787116
H        2.43419725      -2.09562922       5.23217892       0.00000000       0.00000000      -0.04503150      -0.00461108       0.02307142       0.02062156
H        1.02979472      -1.12742766       5.70334047       0.00000000       0.00000000       0.02058139       0.01797090       0.03337473       0.02552354
H        2.76084271      -0.93703853       7.40568355       0.00000000       0.00000000       0.00686201      -0.01123560       0.01948005       0.03488802
H        1.41843070      -1.85671751       8.09238522       0.00000000       0.00000000       0.03942275      -0.01427983      -0.00983419       0.03894022
H        3.93626004      -3.09107173       6.87626864       0.00000000       0.00000000       0.00796378      -0.03869257       0.05305439       0.03218270
H        3.69050203      -2.84068350       8.60517529       0.00000000       0.00000000      -0.01823645       0.01521140      -0.00606024       0.04951169
H        2.66022561      -3.96709760       7.73489271       0.00000000       0.00000000       0.04361514       0.00779227       0.01652656       0.04161618
H       -1.77973038      -3.38198980       0.06116233       0.00000000       0.00000000       0.01074934      -0.01635733       0.01161102       0.10028042
H       -2.41891003      -3.08567401       1.69952727       0.00000000       0.00000000      -0.05569749      -0.01405964       0.01658425       0.09752104
H       -2.57736220      -1.67119988      -1.43048493       0.00000000       0.00000000       0.00772713      -0.02354162       0.03964651       0.08470867
H       -3.95872331      -1.63998109      -0.26121716       0.00000000       0.00000000       0.00175402      -0.04176623      -0.00814828       0.09414319
H       -3.31477215       2.74047479      -1.50971448       0.00000000       0.00000000       0.01789175      -0.06183133      -0.06776481       0.05694223
H       -4.96270153       2.53944409      -2.16431894       0.00000000       0.00000000      -0.02598776      -0.03370691       0.05363133       0.07485817
H       -4.21112547       2.28765153       0.78215107       0.00000000       0.00000000       0.02659320       0.01318185      -0.00312997       0.03984752
H       -6.91032186       2.63849026      -0.56255291       0.00000000       0.00000000      -0.02681901      -0.04186172      -0.02648898       0.04354257
H       -6.23467577       1.14863536       0.12115762       0.00000000       0.00000000      -0.01361282       0.03918557      -0.03707673       0.04019140
H       -6.97385900       3.62101268       1.73090160       0.00000000       0.00000000      -0.01356512      -0.01668849      -0.01896386       0.04513413
H       -7.87854238       2.12127910       1.61978431       0.00000000       0.00000000       0.01980791       0.02722191       0.00658454       0.05410874
H       -6.28859217       2.11588854       2.37297721       0.00000000       0.00000000      -0.00114947      -0.01144013      -0.03223378       0.03417643
H       -5.05065370       4.58422028       1.06929540       0.00000000       0.00000000      -0.00088293       0.01440627      -0.01929845       0.05350738
H       -3.55837979       4.42816849       0.15179959       0.00000000       0.00000000      -0.00319725       0.03281721       0.01477851       0.01740820
H       -4.74721392       6.12619243      -0.88479644       0.00000000       0.00000000       0.00258117       0.05269625       0.00005358       0.04279015
H       -4.91294307       4.77138649      -1.98116852       0.00000000       0.00000000       0.01053414       0.00981459       0.01981532       0.02312959
H       -7.24304545       4.45682983      -1.32387199       0.00000000       0.00000000       0.01240525       0.02326658       0.00862467       0.03010349
H       -7.04177414       5.54125535       0.05389841       0.00000000       0.00000000      -0.02865165       0.01792179      -0.02928115       0.03836515
H       -6.80831179       6.37402799      -2.88035518       0.00000000       0.00000000      -0.01183395       0.00211116       0.02864928       0.03502967
H       -8.22407617       6.62080718      -1.85624876       0.00000000       0.00000000       0.00767125       0.01892466      -0.01705932       0.04905821
H       -6.71694762       7.45279645      -1.48437607       0.00000000       0.00000000       0.00716608      -0.00545463      -0.01608328       0.04141585
H       -4.35107146       0.61651871      -3.44770318       0.00000000       0.00000000       0.04514701       0.00422911       0.01067787       0.07225851
H       -4.31170777      -0.90678242      -2.57111780       0.00000000       0.00000000      -0.06479044      -0.05656282      -0.03020750       0.04657421
H       -6.66383755       0.85409094      -1.99423149       0.00000000       0.00000000      -0.03155054       0.01563304       0.00787494       0.06564867
H       -6.13768352       1.26013478      -4.41209180       0.00000000       0.00000000      -0.00666241      -0.01500948      -0.00486256       0.02894162
H       -6.35273257      -0.46898505      -4.70728762       0.00000000       0.00000000      -0.00461826      -0.00130472      -0.03823274       0.03918560
H       -8.51389186       1.38735939      -3.59734615       0.00000000       0.00000000      -0.00474377      -0.00163605      -0.00732161       0.04533561
H       -8.33478592       0.93516040      -5.29330111       0.00000000       0.00000000      -0.04718934       0.00322375       0.02583975       0.05456936
H       -8.74244496      -0.28815513      -4.10297858       0.00000000       0.00000000      -0.01754525       0.00925954       0.01400208       0.04888366
H       -7.80420703      -1.41443778      -2.54796768       0.00000000       0.00000000      -0.01440914      -0.02882028       0.07231672       0.06723651
H       -6.17807232      -2.07013455      -2.59251416       0.00000000       0.00000000      -0.03205379      -0.07679227       0.01254845       0.02760843
H       -6.77649013      -2.49041234      -0.36672356       0.00000000       0.00000000      -0.03606176      -0.00959741      -0.01898510       0.03926237
H       -5.97102265      -0.93176684      -0.19180706       0.00000000       0.00000000      -0.03223587      -0.03387391       0.02900054       0.00862290
H       -8.24800860       0.17426201      -0.29373049       0.00000000       0.00000000      -0.00979211      -0.02517919      -0.01470060       0.03716222
H       -8.97455785      -1.42414640      -0.39266953       0.00000000       0.00000000       0.00732634       0.00574628       0.01703003       0.04521748
H       -7.22784244      -0.47079106       1.93568916       0.00000000       0.00000000      -0.03156969      -0.00531921      -0.03041432       0.02989009
H       -8.99200471      -0.51651685       1.93395271       0.00000000       0.00000000       0.00871057      -0.00511588       0.00820596       0.04842781
H       -8.07737189      -2.01345920       1.83714340       0.00000000       0.00000000       0.01276765      -0.00739562      -0.03652005       0.03753749
C       -5.27574927      -4.96449118       0.63648456       0.00000000       0.00000000      -0.01140151      -0.01553718      -0.05836013      -0.10978533
C       -4.77590967      -4.51291950      -0.72978681       0.00000000       0.00000000       0.02899435      -0.02321992      -0.04621379      -0.05805358
C       -3.51285053      -5.27332855      -1.13429927       0.00000000       0.00000000       0.03152803       0.00189899      -0.03323019      -0.06879812
C       -2.81128415      -4.64928780      -2.33728872       0.00000000       0.00000000       0.05124679      -0.01275894      -0.06611366      -0.06355005
C       -1.45947343      -5.26560812      -2.74754412       0.00000000       0.00000000       0.05655484      -0.01354931       0.00817126      -0.04197849
C       -1.35808430      -6.80499368      -2.66097239       0.00000000       0.00000000      -0.01204002       0.00858046      -0.00464733      -0.06714846
C       -1.30886154      -7.44988168      -1.27176854       0.00000000       0.00000000      -0.03828449       0.02964444      -0.08374166      -0.11345974
C       -0.26496842      -4.60090435      -2.03833903       0.00000000       0.00000000       0.03351120       0.06370864      -0.03872859      -0.02180172
N        0.46046082      -3.49398414      -2.70635123       0.00000000       0.00000000       0.01498199       0.04731175       0.01849016      -0.06937324
C        1.17448578      -3.86703401      -3.92609547       0.00000000       0.00000000      -0.00399920       0.05041980       0.00335954      -0.02612571
C        0.66221367      -3.27078188      -5.26197761       0.00000000       0.00000000      -0.01312454       0.00080281      -0.01806391      -0.02457699
C       -0.77335224      -3.70936719      -5.58196741       0.00000000       0.00000000       0.00381379      -0.00679276       0.00471360      -0.06243908
C       -1.34442209      -3.24635884      -6.91918312       0.00000000       0.00000000       0.01470341       0.01634813       0.03274859      -0.11045292
C        1.62452484      -3.75786345      -6.35755186       0.00000000       0.00000000       0.00455942      -0.00328604      -0.00727308      -0.07835163
C        2.87896430      -2.90010332      -6.53833425       0.00000000       0.00000000      -0.00673717       0.01235743      -0.01200815      -0.06282515
C        2.73238092      -1.82593034      -7.61985636       0.00000000       0.00000000       0.00397090       0.02255076       0.00518839      -0.05939778
C        1.70360320      -0.74678601      -7.29765868       0.00000000       0.00000000       0.01778943      -0.01048019      -0.00551040      -0.10221318
C        0.67515141      -2.36640980      -2.01659063       0.00000000       0.00000000       0.02550650       0.03325621      -0.07648120       0.25795173
O       -0.07064064      -1.99931655      -1.08811564       0.00000000       0.00000000      -0.05978784       0.02184798       0.02662797      -0.40390527
C        1.92266630      -1.48497520      -2.25321088       0.00000000       0.00000000       0.00041574      -0.01713813      -0.00623638       0.05971431
O        1.93695212      -0.50108298      -1.21193151       0.00000000       0.00000000       0.03865403      -0.09488340      -0.10929255      -0.24816749
C        3.20458994       0.09991428      -0.92514933       0.00000000       0.00000000       0.03464687      -0.03908866      -0.03056290       0.05372604
C        3.09292187       0.63690569       0.52089678       0.00000000       0.00000000       0.08540605      -0.02396288      -0.04309858       0.25532672
O        1.94315373       0.64158481       1.00628210       0.00000000       0.00000000      -0.04311314       0.06193096       0.04045427      -0.38650587
N        4.16116094       1.00613516       1.22832790       0.00000000       0.00000000      -0.03662013      -0.03137560      -0.01878603      -0.05250636
C        5.53752398       1.11461023       0.74826244       0.00000000       0.00000000      -0.01082320      -0.02403188       0.01089757      -0.02325685
C        6.13009393       2.54112308       0.67267373       0.00000000       0.00000000      -0.00558501      -0.01839038      -0.01718294      -0.03426311
C        5.75346785       3.26098421      -0.63021900       0.00000000       0.00000000       0.01399249       0.00042966      -0.00753457      -0.06613751
C        4.40874378       3.96974335      -0.53658482       0.00000000       0.00000000       0.02238151      -0.01374637       0.00194761      -0.10588902
C        7.66565188       2.49894307       0.78229564       0.00000000       0.00000000      -0.00109056      -0.01601519      -0.01035216      -0.07520433
C        8.29119727       1.99478881       2.08522552       0.00000000       0.00000000      -0.00603091       0.00008468       0.02944936      -0.06546791
C        8.01990343       2.81186613       3.35439008       0.00000000       0.00000000       0.02991518       0.00142856       0.00097833      -0.05999837
C        8.18203220       4.32007481       3.20917954       0.00000000       0.00000000       0.01700382      -0.01875351      -0.01790939      -0.10791900
C        3.99826022       1.02531822       2.69183220       0.00000000       0.00000000       0.00809009      -0.02846569       0.00016831      -0.01699865
C        4.32475875       2.33027060       3.42392344       0.00000000       0.00000000      -0.09078761      -0.02163414      -0.03038878      -0.03283805
C        3.46183496       3.47267307       2.88980758       0.00000000       0.00000000       0.02238043      -0.01037676       0.01173531      -0.06316303
C        3.92916801       4.86698526       3.29830158       0.00000000       0.00000000       0.00372959      -0.04483575       0.02203840      -0.11020357
C        4.16613449       2.13895663       4.93950939       0.00000000       0.00000000      -0.05902017      -0.01697898      -0.03033792      -0.07580396
C        2.78810559       1.66738846       5.42983379       0.00000000       0.00000000      -0.00790558      -0.00994965       0.00077623      -0.06381448
C        2.41452087       2.35513359       6.74558599       0.00000000       0.00000000       0.04386675      -0.00810347      -0.01124798      -0.05985151
C        1.14647700       1.80529272       7.39057647       0.00000000       0.00000000       0.02624454       0.01743521      -0.01290718      -0.11051596
H       -6.17969052      -4.42936581       0.91337043       0.00000000       0.00000000       0.00612107       0.00602650       0.02759575       0.04687038
H       -5.50749072      -6.02434151       0.61650958       0.00000000       0.00000000       0.00212249      -0.04090232       0.03891592       0.05418306
H       -4.51754859      -4.78990582       1.39985368       0.00000000       0.00000000      -0.06272261      -0.01678241      -0.00192904       0.02563932
H       -5.54816707      -4.67941510      -1.48242974       0.00000000       0.00000000      -0.01970326      -0.00825751       0.03358133       0.04461486
H       -4.57794831      -3.43902832      -0.70435803       0.00000000       0.00000000       0.02415336      -0.05003178      -0.00849025       0.01127871
H       -2.83439519      -5.32332724      -0.27983796       0.00000000       0.00000000      -0.00818448       0.00371662       0.00525164       0.02274044
H       -3.80164350      -6.28903871      -1.39240318       0.00000000       0.00000000      -0.00240034      -0.02835637       0.05648965       0.06119935
H       -3.48529642      -4.70741406      -3.19170402       0.00000000       0.00000000      -0.08096900      -0.05920143      -0.02038199       0.04590762
H       -2.63670883      -3.58520587      -2.15238118       0.00000000       0.00000000      -0.02814858       0.03767736      -0.02667748       0.00919683
H       -1.35591569      -5.06768485      -3.80836607       0.00000000       0.00000000       0.01770541       0.01353780       0.01989886       0.06911723
H       -2.19227590      -7.22681887      -3.22247080       0.00000000       0.00000000      -0.00826796       0.01441619       0.02776613       0.05868814
H       -0.45085083      -7.08734385      -3.20289560       0.00000000       0.00000000      -0.02124487       0.01974860       0.02125862       0.03836784
H       -2.29416046      -7.75430951      -0.93672913       0.00000000       0.00000000       0.01287697      -0.00744883       0.02797200       0.05348298
H       -0.69039226      -8.34340600      -1.30325217       0.00000000       0.00000000      -0.01908967       0.01315613      -0.00659155       0.05231821
H       -0.89354436      -6.77310690      -0.53021740       0.00000000       0.00000000      -0.03711162      -0.05152545      -0.02431984       0.02395049
H       -0.56019200      -4.21133916      -1.06960640       0.00000000       0.00000000      -0.00906050      -0.02716362      -0.01081375       0.05973745
H        0.48544523      -5.37815698      -1.88639615       0.00000000       0.00000000       0.01099441       0.02231957       0.04692970       0.08576998
H        2.22889253      -3.59470717      -3.82400471       0.00000000       0.00000000       0.01234844      -0.02319481      -0.01071889       0.05253423
H        1.11025928      -4.95479302      -4.00993550       0.00000000       0.00000000       0.03025616       0.07423408       0.03010471       0.08178768
H        0.68451586      -2.17965869      -5.19549949       0.00000000       0.00000000       0.01814115      -0.00842358      -0.01929070       0.03523065
H       -0.80403913      -4.80054251      -5.59331001       0.00000000       0.00000000      -0.00329709      -0.00699369       0.01185007       0.04556826
H       -1.42786152      -3.32539446      -4.79534500       0.00000000       0.00000000      -0.01403165      -0.00847385      -0.01300975       0.02755132
H       -0.86554129      -3.73928419      -7.75965041       0.00000000       0.00000000      -0.01061727       0.04347039       0.00576663       0.05265721
H       -2.39961758      -3.50657335      -6.95159557       0.00000000       0.00000000       0.00836881       0.01801125      -0.04042275       0.04990318
H       -1.25519928      -2.17204875      -7.03750289       0.00000000       0.00000000       0.01278858       0.01838052      -0.02410226       0.04279308
H        1.90467123      -4.78656529      -6.12701168       0.00000000       0.00000000       0.05407793      -0.01190108       0.00085837       0.04030164
H        1.09958716      -3.79188270      -7.30806751       0.00000000       0.00000000       0.02658047       0.04144270      -0.02699976       0.07219999
H        3.15079674      -2.43277963      -5.58872844       0.00000000       0.00000000       0.02165371       0.01652604       0.00474623       0.01755305
H        3.70553564      -3.54799812      -6.82963291       0.00000000       0.00000000       0.02446330      -0.00236600      -0.00696449       0.04712168
H        3.70480920      -1.35303019      -7.77018276       0.00000000       0.00000000       0.01371728      -0.00093918       0.01398635       0.03794328
H        2.46055861      -2.30586222      -8.56084136       0.00000000       0.00000000       0.02004821       0.01029819       0.00649112       0.04836971
H        1.87169677      -0.34144440      -6.30041093       0.00000000       0.00000000       0.00088287       0.00480464      -0.02498807       0.01519242
H        1.78194430       0.06753626      -8.01401962       0.00000000       0.00000000      -0.00139125      -0.01620810      -0.00046893       0.04129171
H        0.69376157      -1.14286705      -7.35264989       0.00000000       0.00000000       0.01901114      -0.00322924       0.01259132       0.03678695
H        2.81338867      -2.12512807      -2.17792076       0.00000000       0.00000000       0.02865312       0.02072623      -0.04484922       0.07032655
H        1.90985701      -0.99827366      -3.23679392       0.00000000       0.00000000      -0.04615647      -0.04672922      -0.00419686       0.07362834
H        3.99895378      -0.65264635      -0.97086328       0.00000000       0.00000000       0.03325712      -0.05599400      -0.02325647       0.07925399
H        3.42801499       0.89467918      -1.65056724       0.00000000       0.00000000      -0.01641159       0.02081891       0.00523329       0.07341840
H        6.15480314       0.54479795       1.44662150       0.00000000       0.00000000      -0.02343914      -0.04544690      -0.01834092       0.08501551
H        5.62465271       0.65636194      -0.23744377       0.00000000       0.00000000      -0.02865167      -0.01786862       0.00801510       0.04907206
H        5.75189265       3.14432551       1.49314049       0.00000000       0.00000000       0.03575129      -0.02215437      -0.00260340       0.06978466
H        6.52112343       4.00699502      -0.83338723       0.00000000       0.00000000      -0.04843546       0.05824071      -0.08386154       0.06087964
H        5.76430108       2.55462826      -1.46407056       0.00000000       0.00000000      -0.01452647      -0.00234608      -0.01104501       0.02296977
H        4.44573877       4.70222751       0.26532156       0.00000000       0.00000000      -0.05070897       0.02905934      -0.02231208       0.05312469
H        4.17425984       4.49919147      -1.45538591       0.00000000       0.00000000      -0.00068920      -0.01732466       0.00158126       0.04835441
H        3.61582266       3.25007126      -0.32729440       0.00000000       0.00000000      -0.01667062       0.01360049      -0.02302093       0.00136555
H        8.05193341       1.88844334      -0.03564247       0.00000000       0.00000000       0.01703785      -0.03634377      -0.02834446       0.03887526
H        8.02890609       3.51399414       0.62453248       0.00000000       0.00000000       0.01160853      -0.00246995      -0.02522887       0.06366884
H        7.99647602       0.96101463       2.27910622       0.00000000       0.00000000       0.02869144      -0.04278387      -0.00166815       0.02367584
H        9.36926639       1.98753136       1.91962751       0.00000000       0.00000000       0.01186823      -0.00118624      -0.01958747       0.05550738
H        7.02180664       2.60110063       3.73800164       0.00000000       0.00000000       0.06335625      -0.01902894       0.02202289       0.02558601
H        8.71655072       2.45867532       4.11669019       0.00000000       0.00000000       0.02328868       0.02326496      -0.00518266       0.04642265
H        7.43087130       4.75367644       2.55125946       0.00000000       0.00000000       0.00837530      -0.04607376      -0.02083369       0.02632583
H        8.07805013       4.78744797       4.18549056       0.00000000       0.00000000       0.03895967       0.02014373      -0.02146529       0.04519741
H        9.16341916       4.56465052       2.81536774       0.00000000       0.00000000       0.03641132       0.00846445       0.00246187       0.04946900
H        2.95894053       0.75902138       2.89387203       0.00000000       0.00000000       0.00943554      -0.04747364       0.01705111       0.08189459
H        4.65174269       0.23993718       3.08262285       0.00000000       0.00000000      -0.01023641      -0.03300341       0.04276017       0.06552696
H        5.37667369       2.57057203       3.26824406       0.00000000       0.00000000      -0.14388283      -0.00085269      -0.02887808       0.06502577
H        3.44254376       3.40763925       1.80126682       0.00000000       0.00000000      -0.02631195      -0.00361365       0.05203898       0.02248610
H        2.45007907       3.30732598       3.25383625       0.00000000       0.00000000       0.05929031      -0.01975613      -0.05447815       0.03091889
H        4.98654499       5.00704399       3.08870976       0.00000000       0.00000000       0.00385369      -0.02077342      -0.01646802       0.04832668
H        3.37462931       5.62823984       2.75178050       0.00000000       0.00000000      -0.00321833      -0.00757657       0.03696354       0.03436271
H        3.77593498       5.03658298       4.35987796       0.00000000       0.00000000       0.00321855      -0.00463862      -0.00242372       0.04986386
H        4.92161439       1.43057351       5.27861936       0.00000000       0.00000000       0.03436847      -0.02629637       0.02740474       0.04288233
H        4.40914012       3.09536391       5.40026470       0.00000000       0.00000000      -0.04264448       0.03080318       0.05823437       0.06095912
H        2.00884358       1.87229060       4.68983314       0.00000000       0.00000000       0.04427501       0.00268222       0.01718914       0.01703563
H        2.80711319       0.58731011       5.57483431       0.00000000       0.00000000      -0.01529448       0.00289307       0.03575654       0.03761131
H        3.23839221       2.23782415       7.44980956       0.00000000       0.00000000       0.01571827      -0.00052266       0.02085424       0.04712236
H        2.29996873       3.42600874       6.55615002       0.00000000       0.00000000      -0.00788014       0.00091453       0.03699290       0.02958143
H        1.30102493       0.79049132       7.74380777       0.00000000       0.00000000       0.00668465      -0.00254461      -0.01668420       0.04741159
H        0.87520564       2.41835741       8.24510652       0.00000000       0.00000000      -0.02146688       0.00488196       0.02435205       0.04858711
H        0.31018547       1.79497475       6.69441418       0.00000000       0.00000000       0.03638969       0.00332032      -0.02630134       0.02093915
