340
Properties=species:S:1:pos:R:3:initial_charges:R:1:initial_magmoms:R:1:forces:R:3:charge:R:1 energy=-10639.604633180561 free_energy=-10639.604633180561 dipole="-0.3859057397310029 0.45829726307804713 0.12393453401519527" pbc="F F F"
Ce      -0.15790940      -0.00016960       0.13970000       3.00000000       0.00000000       0.03993629      -0.02261484      -0.01517990       0.85070807
C        4.59576604      -2.61043768      -3.14789236       0.00000000       0.00000000       0.03011025      -0.04054744      -0.00260528      -0.10848983
C        4.27777515      -3.98741025      -2.57392869       0.00000000       0.00000000       0.00558297      -0.02753550       0.01326336      -0.05905478
C        4.83175446      -4.16904607      -1.15747921       0.00000000       0.00000000      -0.03860420      -0.09130459       0.01464195      -0.06896238
C        3.85712812      -3.74715874      -0.04999662       0.00000000       0.00000000      -0.04988668      -0.07316265       0.06271175      -0.06756197
C        3.08872467      -4.92877080       0.56122971       0.00000000       0.00000000       0.06974282       0.00872124      -0.08212778      -0.07822459
C        2.21101827      -5.73450492      -0.41427688       0.00000000       0.00000000       0.10260835       0.02883929       0.01133724      -0.07348308
C        0.95533112      -6.37194414       0.21287787       0.00000000       0.00000000       0.01977239      -0.05495243      -0.01330569      -0.07087819
C       -0.40505985      -5.89816629      -0.32340647       0.00000000       0.00000000      -0.02684213      -0.05316659       0.05160439      -0.07152724
C       -0.57800836      -6.09737497      -1.82733002       0.00000000       0.00000000      -0.00823192      -0.03145181      -0.05040718      -0.06958635
C       -1.99676179      -5.77565417      -2.32228004       0.00000000       0.00000000      -0.02614538       0.06059266      -0.03604222      -0.07475040
C       -2.18103393      -4.35877428      -2.90366518       0.00000000       0.00000000      -0.05113759       0.03812492      -0.03258400      -0.07101706
C       -3.09507638      -3.48759122      -2.03260639       0.00000000       0.00000000       0.00318368      -0.01746858       0.00978805      -0.01930615
N       -3.24801474      -2.10863662      -2.50391371       0.00000000       0.00000000      -0.00491282      -0.13346119      -0.07555700      -0.04442314
C       -4.19010269      -1.88248715      -3.58709083       0.00000000       0.00000000      -0.04096887       0.04181202      -0.02831196      -0.02209266
C       -3.69683331      -2.29524697      -4.98182811       0.00000000       0.00000000       0.02501351      -0.02491157      -0.00744857      -0.07904608
C       -2.27139693      -1.84549752      -5.34026266       0.00000000       0.00000000       0.01702615      -0.04832799      -0.03048308      -0.06082172
C       -2.18695272      -0.84919863      -6.50316982       0.00000000       0.00000000       0.05687132      -0.03030454       0.03394396      -0.07194102
C       -2.56133312       0.59045205      -6.15220944       0.00000000       0.00000000      -0.05536268       0.01392657       0.02358195      -0.05232204
C       -4.05368966       0.92394449      -6.20360027       0.00000000       0.00000000      -0.08064821       0.04312891      -0.09192781      -0.06368633
C       -4.62001497       0.87887375      -7.63421073       0.00000000       0.00000000      -0.02295323      -0.01071422      -0.04179950      -0.06772358
C       -5.43378349      -0.37398622      -7.96553171       0.00000000       0.00000000       0.00297744      -0.00097629      -0.01343039      -0.05790905
C       -5.84053262      -0.42769922      -9.44197199       0.00000000       0.00000000       0.01831532      -0.01822176      -0.00273884      -0.06416563
C       -4.69003977      -0.64654343     -10.42832835       0.00000000       0.00000000       0.00549952      -0.04031947      -0.00542973      -0.06264274
C       -4.03824501      -2.02668150     -10.33244548       0.00000000       0.00000000       0.01325931      -0.00332187      -0.00063262      -0.05106051
C       -2.98077696      -2.21571336     -11.41646223       0.00000000       0.00000000      -0.02496338      -0.00265650       0.02528221      -0.10639432
C       -2.61912317      -1.14808861      -1.84974877       0.00000000       0.00000000       0.04050575       0.02317213       0.05598399       0.25627826
O       -1.89129141      -1.37719303      -0.86382319       0.00000000       0.00000000      -0.00360489       0.07788187       0.01094861      -0.40601846
C       -2.73249260       0.32187539      -2.25768246       0.00000000       0.00000000      -0.05390693       0.00738456       0.02730873       0.04369938
O       -1.84432054       1.02188368      -1.37777854       0.00000000       0.00000000      -0.00928052       0.01459502      -0.01346450      -0.23462604
C       -1.25877147       2.19714019      -1.91705869       0.00000000       0.00000000      -0.01303451       0.04083506       0.03426435       0.06649086
C       -0.68732342       3.06682440      -0.76990789       0.00000000       0.00000000       0.04697425      -0.05232479       0.00703615       0.03402985
O       -0.18936960       2.30814697       0.34443123       0.00000000       0.00000000       0.08837983      -0.06000578       0.05415886      -0.22808907
C       -0.61561316       2.70148706       1.64724212       0.00000000       0.00000000       0.12187076       0.03836709      -0.02863768       0.03624743
C       -1.75321423       1.76399265       2.09129855       0.00000000       0.00000000       0.05356708       0.03690955       0.01669820       0.25892238
O       -1.87636830       0.69783004       1.44928914       0.00000000       0.00000000      -0.09396062       0.02664429      -0.07535503      -0.39451530
N       -2.53528802       2.09267479       3.10838517       0.00000000       0.00000000      -0.03942513       0.11763496      -0.02288744      -0.05253706
C       -2.14011490       3.08678647       4.10167023       0.00000000       0.00000000      -0.00985345       0.04012963       0.01901994      -0.02549775
C       -1.02282815       2.55221133       5.00285757       0.00000000       0.00000000      -0.01547633       0.05626332      -0.00480665      -0.06982595
C       -0.71922233       3.44811654       6.20533297       0.00000000       0.00000000       0.01628055       0.00957952       0.02932781      -0.06839810
C        0.58834419       3.02503662       6.88500282       0.00000000       0.00000000      -0.05513666      -0.02256299       0.01023480      -0.06626214
C        1.87245435       3.27664083       6.08565539       0.00000000       0.00000000      -0.02048871       0.03632652       0.01869809      -0.05836180
C        2.13354037       4.76175276       5.80077938       0.00000000       0.00000000      -0.01680184       0.04548994      -0.04501546      -0.06941446
C        1.67973880       5.21793392       4.41126450       0.00000000       0.00000000      -0.02719707       0.02510959      -0.02146291      -0.05602499
C        1.68188601       6.74461119       4.25881522       0.00000000       0.00000000       0.03662793      -0.02943337      -0.01080205      -0.06558858
C        0.55695106       7.43178261       5.03506144       0.00000000       0.00000000       0.03869846       0.00550474      -0.02349100      -0.05681751
C        0.61196695       8.96495428       4.95974148       0.00000000       0.00000000       0.01054004       0.01153964       0.02997237      -0.06175224
C        1.33880653       9.62833631       6.13279214       0.00000000       0.00000000       0.04629920      -0.00182772      -0.00847982      -0.05676816
C        2.83783361       9.35077054       6.17787905       0.00000000       0.00000000       0.01195952       0.00281264       0.00414740      -0.10389585
C       -3.63838456       1.17132581       3.42773119       0.00000000       0.00000000       0.05973566       0.07730963       0.03319708      -0.01157198
C       -4.92854803       1.82805286       3.93350074       0.00000000       0.00000000      -0.02294133      -0.07003713      -0.02819067      -0.07608144
C       -5.96710005       2.26626800       2.87719398       0.00000000       0.00000000      -0.07933278       0.01721473       0.02427413      -0.06732335
C       -6.28291309       3.76924037       2.90226601       0.00000000       0.00000000       0.03161570       0.03595659       0.02047971      -0.06195227
C       -7.52364494       4.13971528       2.07793786       0.00000000       0.00000000       0.01437024      -0.04540735       0.00540369      -0.06506372
C       -7.97690352       5.60855548       2.19526401       0.00000000       0.00000000       0.04924038       0.01044248      -0.05927680      -0.06487627
C       -7.35156498       6.59093105       1.19393004       0.00000000       0.00000000       0.05100837       0.06104914       0.01437558      -0.06290081
C       -5.96946598       7.10012319       1.61959312       0.00000000       0.00000000      -0.00044776      -0.01718987      -0.00174848      -0.05817549
C       -6.01260769       8.22412474       2.65173082       0.00000000       0.00000000       0.02708166      -0.01046731      -0.00184465      -0.06355775
C       -4.62280513       8.60986343       3.16960311       0.00000000       0.00000000       0.03035626      -0.01328401       0.03692111      -0.06208956
C       -3.84831567       7.50683951       3.90220111       0.00000000       0.00000000      -0.00861348       0.00269146       0.00915801      -0.04841405
C       -4.61519037       6.89796805       5.07140718       0.00000000       0.00000000       0.00281809       0.00513543      -0.01069832      -0.10444459
H        4.06862411      -2.45970818      -4.08776914       0.00000000       0.00000000       0.00639154       0.03850637      -0.02137671       0.02755607
H        5.65867228      -2.52956388      -3.34623653       0.00000000       0.00000000       0.06878141       0.02172099      -0.01472861       0.05637462
H        4.32720804      -1.82017596      -2.44731709       0.00000000       0.00000000      -0.01049440       0.01831772       0.00215222       0.01295412
H        4.70294756      -4.75315738      -3.22236033       0.00000000       0.00000000       0.01308334       0.07041825      -0.05111067       0.05282791
H        3.19584406      -4.13362085      -2.57095742       0.00000000       0.00000000       0.00727879      -0.09263032      -0.04421274       0.01364580
H        5.75938786      -3.60272203      -1.08336024       0.00000000       0.00000000       0.01221449       0.05529667       0.01538931       0.04560303
H        5.08888163      -5.21424905      -1.00028872       0.00000000       0.00000000       0.01273527      -0.05732634      -0.04351013       0.05330842
H        3.16570441      -3.01057438      -0.44956059       0.00000000       0.00000000       0.04006096       0.02224239       0.03839616       0.00546329
H        4.40165003      -3.25322736       0.75770657       0.00000000       0.00000000       0.00303189      -0.12802937      -0.06629714       0.03996046
H        2.50497272      -4.57597338       1.41570127       0.00000000       0.00000000       0.01421442       0.05220298      -0.05694038       0.00107910
H        3.82588715      -5.61039208       0.96919768       0.00000000       0.00000000      -0.02764876       0.03224607      -0.00147117       0.07253650
H        2.84038499      -6.51949472      -0.82398653       0.00000000       0.00000000      -0.01626478      -0.12597672      -0.07313063       0.05423338
H        1.93168249      -5.12440302      -1.26934991       0.00000000       0.00000000      -0.03982498      -0.03132985      -0.06672580       0.02662909
H        0.97214618      -6.23329731       1.29679968       0.00000000       0.00000000      -0.01345062       0.01075322       0.01154182       0.02997978
H        0.99687463      -7.44652204       0.04950909       0.00000000       0.00000000       0.01475449      -0.07964687      -0.00702235       0.05628143
H       -0.61172575      -4.86056279      -0.05914220       0.00000000       0.00000000      -0.01103126      -0.01379820       0.05357958       0.01624771
H       -1.16596233      -6.50485867       0.16901888       0.00000000       0.00000000      -0.01123068      -0.01023282       0.08973872       0.04835319
H       -0.35487307      -7.13860184      -2.05346032       0.00000000       0.00000000      -0.01726879      -0.06511174       0.01920207       0.05942883
H        0.14418594      -5.49916606      -2.38217186       0.00000000       0.00000000       0.02778409       0.02617455      -0.06483789       0.02693543
H       -2.70205341      -5.91896367      -1.50235338       0.00000000       0.00000000       0.00919060      -0.05796033      -0.03850792       0.05100214
H       -2.26057028      -6.49177684      -3.10098463       0.00000000       0.00000000       0.02818632       0.00834480       0.06814424       0.06148835
H       -2.62020197      -4.44322335      -3.89471757       0.00000000       0.00000000       0.02266373      -0.04727432       0.03999315       0.06312650
H       -1.21528295      -3.86680927      -3.03235096       0.00000000       0.00000000       0.00632652       0.00121387      -0.01217832       0.03491731
H       -2.69539358      -3.43649520      -1.01826015       0.00000000       0.00000000      -0.03900804      -0.01070247       0.05141108       0.07955939
H       -4.08782222      -3.93859334      -1.99938543       0.00000000       0.00000000      -0.02188873      -0.01465921       0.01199857       0.07674376
H       -4.46817165      -0.83077748      -3.59190958       0.00000000       0.00000000       0.01283400       0.07370839      -0.00608514       0.05766753
H       -5.08712222      -2.46316084      -3.35358565       0.00000000       0.00000000      -0.03101294       0.03645274      -0.05226732       0.08089076
H       -4.38769045      -1.87503576      -5.70861545       0.00000000       0.00000000      -0.10469462      -0.01009759       0.03342664       0.08329953
H       -3.77713991      -3.37652446      -5.07984058       0.00000000       0.00000000      -0.01178809       0.01319631      -0.01599394       0.05749702
H       -1.70160452      -2.72873844      -5.63101063       0.00000000       0.00000000       0.03682010      -0.00703014      -0.03482328       0.04430433
H       -1.77064119      -1.43376302      -4.45793188       0.00000000       0.00000000      -0.00030376       0.03981788      -0.02820513       0.00963089
H       -2.79663303      -1.20088617      -7.33243503       0.00000000       0.00000000      -0.03519146       0.01739981       0.04217735       0.06637344
H       -1.15926273      -0.85130630      -6.86350009       0.00000000       0.00000000       0.10465855      -0.00165004       0.02373114       0.04016919
H       -2.05511187       1.27077117      -6.83975326       0.00000000       0.00000000      -0.01004778      -0.04573300      -0.07151892       0.04083416
H       -2.16458372       0.82389856      -5.15747984       0.00000000       0.00000000       0.01902503       0.02301667       0.06484372      -0.00823099
H       -4.17158747       1.93567861      -5.80934503       0.00000000       0.00000000      -0.01723738       0.01845630      -0.00496752       0.02683562
H       -4.63284426       0.26292949      -5.55774717       0.00000000       0.00000000       0.02758403       0.01969500      -0.01934466       0.02622190
H       -3.79556415       0.95095584      -8.34239299       0.00000000       0.00000000       0.03635716       0.05616557       0.01302032       0.04654666
H       -5.26018340       1.74741325      -7.79903777       0.00000000       0.00000000       0.00511288      -0.02664425       0.01976418       0.04101427
H       -6.34255656      -0.38649159      -7.35798778       0.00000000       0.00000000       0.01940414       0.01772272       0.01820998       0.02588328
H       -4.86511683      -1.27269665      -7.72294410       0.00000000       0.00000000      -0.02261138      -0.01909734      -0.02558138       0.02569091
H       -6.34773250       0.50588558      -9.69431213       0.00000000       0.00000000       0.00372574      -0.01343576      -0.00706720       0.03886171
H       -6.55707155      -1.24022294      -9.58073137       0.00000000       0.00000000      -0.01860499       0.02663752       0.05363094       0.04062616
H       -3.92311281       0.12109847     -10.30156906       0.00000000       0.00000000      -0.03365974       0.00161272      -0.01541751       0.02868293
H       -5.09521940      -0.53705757     -11.43601397       0.00000000       0.00000000       0.02143092       0.02894272       0.00914549       0.04429110
H       -4.80508016      -2.79851294     -10.43794009       0.00000000       0.00000000       0.02760597       0.04405910       0.00607738       0.03477353
H       -3.56864339      -2.15879882      -9.35234787       0.00000000       0.00000000      -0.01510055       0.00501622      -0.03842976       0.01345277
H       -3.42961935      -2.14011562     -12.40353962       0.00000000       0.00000000      -0.00716579       0.00173223       0.01977268       0.04492948
H       -2.51309134      -3.19395318     -11.33020568       0.00000000       0.00000000      -0.00322490       0.01113277       0.00194459       0.03610138
H       -2.20649724      -1.45391750     -11.33823808       0.00000000       0.00000000      -0.01571164      -0.01561223       0.01426304       0.03028448
H       -3.76145083       0.67691622      -2.11057981       0.00000000       0.00000000       0.02167236       0.05037552       0.03542371       0.09194719
H       -2.44993674       0.46270918      -3.30683379       0.00000000       0.00000000       0.03806115       0.00848283      -0.00068095       0.08667686
H       -2.01853796       2.77669424      -2.46200404       0.00000000       0.00000000       0.12111226       0.08292510      -0.00983698       0.08011059
H       -0.45186534       1.92436194      -2.61733090       0.00000000       0.00000000      -0.11189429       0.02236496      -0.03759231       0.06070054
H       -1.43423267       3.75426564      -0.39167698       0.00000000       0.00000000      -0.04992342       0.01096390      -0.09039841       0.12621632
H        0.15279460       3.62249047      -1.19355888       0.00000000       0.00000000      -0.02553197       0.08125441       0.06978174       0.10618728
H       -0.88929640       3.75704011       1.69355685       0.00000000       0.00000000      -0.03835451       0.01499479      -0.13595396       0.10441045
H        0.26544644       2.57440109       2.29033724       0.00000000       0.00000000      -0.02461311      -0.01442652       0.01048744       0.11095564
H       -3.00830309       3.33451746       4.70930062       0.00000000       0.00000000       0.01710640      -0.03290199       0.00715912       0.09766208
H       -1.81894154       4.01214507       3.62174507       0.00000000       0.00000000       0.00205734      -0.00717951      -0.03504364       0.06262165
H       -0.10809134       2.47711488       4.41722730       0.00000000       0.00000000       0.02457200      -0.11721482      -0.03180225       0.03240552
H       -1.30643942       1.56210022       5.36875840       0.00000000       0.00000000       0.02869231      -0.00765394      -0.00863959       0.03515844
H       -1.53178347       3.37314373       6.92854877       0.00000000       0.00000000       0.00130470       0.00252564       0.00046380       0.05071148
H       -0.64965578       4.49049747       5.89937251       0.00000000       0.00000000      -0.00695799      -0.00517472      -0.03443832       0.06036734
H        0.52532035       1.96089498       7.12453613       0.00000000       0.00000000       0.00320351      -0.04551805       0.03897204       0.02786157
H        0.67366680       3.56040828       7.83142579       0.00000000       0.00000000      -0.01571333       0.00070265      -0.04041044       0.06067486
H        1.87088558       2.71403772       5.14606722       0.00000000       0.00000000      -0.02159060       0.01868774      -0.02382146       0.00110895
H        2.69402859       2.87631428       6.67982595       0.00000000       0.00000000       0.03319472       0.02386693       0.03677921       0.04315348
H        3.19955004       4.97177037       5.89677920       0.00000000       0.00000000      -0.01916560      -0.00316470      -0.00535834       0.04409766
H        1.61752685       5.35396123       6.55424255       0.00000000       0.00000000       0.04347567      -0.00593374       0.05269027       0.05416482
H        0.67115226       4.84501847       4.21151472       0.00000000       0.00000000      -0.00227248       0.03609549      -0.04361932       0.01095087
H        2.34755174       4.78409940       3.65846410       0.00000000       0.00000000      -0.02062390       0.01112223       0.02970207       0.01294067
H        1.58247055       6.99240287       3.19736882       0.00000000       0.00000000      -0.01654370       0.00251398       0.03704235       0.02201391
H        2.63992010       7.13513076       4.59679999       0.00000000       0.00000000       0.02079132      -0.03834422      -0.02264464       0.05338200
H        0.60721288       7.13599811       6.08264239       0.00000000       0.00000000      -0.05756706       0.01680349       0.02890210       0.03925920
H       -0.40263369       7.08495528       4.63886843       0.00000000       0.00000000      -0.00949680      -0.01345162      -0.00950243       0.01164242
H       -0.40733616       9.35692167       4.95087606       0.00000000       0.00000000      -0.01578484      -0.04081627      -0.02376116       0.03250102
H        1.08706983       9.27359677       4.02563181       0.00000000       0.00000000      -0.01750611      -0.03147910       0.00140113       0.03435159
H        0.88097929       9.30991631       7.07250903       0.00000000       0.00000000       0.00453406      -0.01141993      -0.02486958       0.03366151
H        1.18921261      10.70687842       6.05234797       0.00000000       0.00000000       0.00283219      -0.01085483      -0.02340135       0.04032632
H        3.04750494       8.32038147       6.45968273       0.00000000       0.00000000      -0.02514947       0.02615928      -0.01134329       0.02972571
H        3.31222459       9.99836329       6.91148271       0.00000000       0.00000000      -0.01454093      -0.02506371      -0.00185077       0.04378402
H        3.29280413       9.55125066       5.20895742       0.00000000       0.00000000      -0.01024087       0.00277778       0.02940560       0.03399117
H       -3.26191363       0.47672079       4.18809008       0.00000000       0.00000000      -0.09679433       0.02090344       0.03289641       0.05660088
H       -3.82634499       0.59544845       2.51651669       0.00000000       0.00000000      -0.05597717       0.03746905       0.09841330       0.08438206
H       -4.69108283       2.68055417       4.56363114       0.00000000       0.00000000      -0.06213439       0.05542818       0.04692305       0.06282438
H       -5.38661544       1.09038795       4.59184093       0.00000000       0.00000000      -0.08258238      -0.00042398      -0.01815188       0.06487227
H       -6.89016383       1.72341320       3.07440108       0.00000000       0.00000000      -0.08058314      -0.00264326      -0.03527563       0.05158035
H       -5.65022722       1.98708378       1.87142137       0.00000000       0.00000000       0.06396077      -0.04478777       0.01734147       0.03008690
H       -5.41517155       4.31079663       2.52875282       0.00000000       0.00000000       0.03716275       0.00553123       0.04602802       0.03048290
H       -6.45664379       4.08342844       3.93215103       0.00000000       0.00000000      -0.01256900      -0.04698765       0.05809220       0.03874968
H       -8.34793678       3.50886703       2.41482637       0.00000000       0.00000000      -0.00149115      -0.01097466       0.07678346       0.03772377
H       -7.35071338       3.89139260       1.03098131       0.00000000       0.00000000      -0.03290869       0.01783952      -0.02027994       0.03380161
H       -7.79050154       5.96454815       3.20827594       0.00000000       0.00000000      -0.03179381      -0.01296117       0.03691335       0.04213352
H       -9.05507568       5.63729616       2.03946760       0.00000000       0.00000000      -0.02412901      -0.06355109       0.01188694       0.04428560
H       -8.01136107       7.45215091       1.06777549       0.00000000       0.00000000      -0.01390198      -0.03332529       0.10453510       0.04323685
H       -7.29194688       6.11369455       0.21056707       0.00000000       0.00000000      -0.00764748       0.00871103       0.08158706       0.02705881
H       -5.41333806       7.45189586       0.74375604       0.00000000       0.00000000      -0.06319059      -0.02554089       0.03871722       0.02063698
H       -5.42892093       6.26830789       2.06517675       0.00000000       0.00000000       0.00779987       0.01502299      -0.02640360       0.03121788
H       -6.64717660       7.93241499       3.48760043       0.00000000       0.00000000       0.00123458      -0.00148180       0.02432246       0.04221783
H       -6.46032994       9.10910491       2.19894605       0.00000000       0.00000000      -0.03005031       0.01789175      -0.00987748       0.03929885
H       -4.73853919       9.44799665       3.85904740       0.00000000       0.00000000      -0.02076717       0.00817772      -0.02814783       0.04328511
H       -4.01013298       8.95631090       2.33169646       0.00000000       0.00000000      -0.04077014      -0.00277918       0.01580645       0.02789906
H       -2.92335445       7.94949498       4.28296427       0.00000000       0.00000000      -0.02057766      -0.00079262      -0.02347554       0.02725706
H       -3.55915121       6.71581052       3.20323303       0.00000000       0.00000000      -0.01674550       0.02384154       0.00171605       0.00676674
H       -4.97171563       7.68201005       5.73380755       0.00000000       0.00000000       0.00317724      -0.01387277      -0.00455068       0.04959663
H       -3.97119369       6.23397639       5.64715759       0.00000000       0.00000000       0.00186912       0.01094446      -0.00184046       0.01875777
H       -5.47154121       6.32500390       4.72433855       0.00000000       0.00000000       0.00579967       0.02201250       0.00453325       0.03559369
C       -4.86596302       3.49725595      -3.15535173       0.00000000       0.00000000      -0.04153395       0.02613319       0.00426835      -0.10163940
C       -5.00164776       4.63571607      -2.14967366       0.00000000       0.00000000      -0.00683208       0.01812313       0.01584707      -0.06225288
C       -5.20036628       4.13128047      -0.71896986       0.00000000       0.00000000       0.01216881       0.03949077       0.01022427      -0.06993542
C       -3.90503695       3.73689253      -0.00580170       0.00000000       0.00000000      -0.01325366       0.03794200       0.03385650      -0.06406387
C       -3.19480186       4.89642650       0.71482379       0.00000000       0.00000000      -0.02746097      -0.01439672      -0.01719392      -0.07296268
C       -2.41425963       5.91053563      -0.13937903       0.00000000       0.00000000      -0.09715901       0.01798368       0.00933544      -0.07220190
C       -1.22256003       6.55839966       0.60062748       0.00000000       0.00000000      -0.05197460       0.01424374      -0.04314326      -0.07050052
C        0.18323476       6.14503239       0.13493110       0.00000000       0.00000000      -0.04220378       0.01652778       0.04897655      -0.06812680
C        0.42510981       6.32028702      -1.36440245       0.00000000       0.00000000       0.00012240       0.04533282       0.01145407      -0.07163475
C        1.86284533       5.95769222      -1.78204989       0.00000000       0.00000000       0.00895201       0.00589778      -0.03873853      -0.07632790
C        1.98228710       4.73738289      -2.71830840       0.00000000       0.00000000       0.09953120      -0.06554792       0.00451013      -0.07255650
C        2.69494418       3.54801549      -2.05252292       0.00000000       0.00000000       0.05035333      -0.03901115       0.00144141      -0.01909019
N        2.54556170       2.29836091      -2.80611642       0.00000000       0.00000000      -0.06757589       0.16116808      -0.01995692      -0.05634157
C        3.30002025       2.17169413      -4.05190169       0.00000000       0.00000000       0.04866683      -0.00741644       0.01521875      -0.02363150
C        2.72488942       2.78969429      -5.33188530       0.00000000       0.00000000      -0.00196071       0.02340574       0.00307896      -0.08083438
C        1.33107708       2.35059976      -5.80283097       0.00000000       0.00000000      -0.02711550       0.02376644      -0.04974320      -0.06080174
C        1.30515241       1.36435590      -6.98034510       0.00000000       0.00000000      -0.05657133       0.00374907       0.00202008      -0.07194527
C        1.61558299      -0.10253942      -6.68094473       0.00000000       0.00000000       0.06401800      -0.02017411       0.02082782      -0.06060508
C        3.09920701      -0.46976065      -6.59819301       0.00000000       0.00000000       0.10766034      -0.04876252      -0.10866045      -0.06179075
C        3.79856625      -0.43509187      -7.96878070       0.00000000       0.00000000       0.02259124       0.01273341      -0.05792949      -0.06825221
C        4.65627420       0.80960502      -8.20857067       0.00000000       0.00000000      -0.00950955      -0.00175378      -0.01296122      -0.05740000
C        5.10279861       0.93858312      -9.66820431       0.00000000       0.00000000      -0.02408949       0.01583706      -0.00432438      -0.06402536
C        3.97633929       1.22770713     -10.66441325       0.00000000       0.00000000       0.00089016       0.03532134      -0.00941750      -0.06300322
C        3.34409576       2.61224571     -10.51685233       0.00000000       0.00000000      -0.00806915       0.00031623      -0.00841235      -0.05090029
C        2.24912355       2.83073632     -11.55702016       0.00000000       0.00000000       0.02432275       0.00652430       0.02019201      -0.10663025
C        1.92770742       1.28052222      -2.22560447       0.00000000       0.00000000       0.01050325       0.02954539       0.01314436       0.24648625
O        1.57866374       1.26826140      -1.02573014       0.00000000       0.00000000      -0.02263279      -0.05053124       0.10747988      -0.41170385
C        1.49218483       0.07277691      -3.05045130       0.00000000       0.00000000      -0.01440790      -0.09259970      -0.05874658       0.03693662
O        0.65875800      -0.75757898      -2.23993942       0.00000000       0.00000000       0.00190746      -0.04317517      -0.03502619      -0.25626659
C        1.43536006      -1.80146964      -1.63873980       0.00000000       0.00000000       0.06651921      -0.08589566       0.07458578       0.05485249
C        0.55059421      -2.77040961      -0.85138561       0.00000000       0.00000000       0.02484817       0.02053041      -0.06582300       0.03565987
O       -0.01404001      -2.24639465       0.35290823       0.00000000       0.00000000      -0.07652822       0.00304230      -0.03559238      -0.22565525
C        0.48576597      -2.72959290       1.58527262       0.00000000       0.00000000      -0.07381812      -0.05691666       0.02931925       0.03492962
C        1.62790011      -1.81096182       2.02282947       0.00000000       0.00000000       0.09081342       0.01640934       0.03056822       0.25738462
O        1.84503834      -0.81809357       1.29008146       0.00000000       0.00000000       0.07282959       0.00224398      -0.14512353      -0.41171208
N        2.31073278      -2.09283729       3.12029185       0.00000000       0.00000000       0.02201758      -0.01594298      -0.01261025      -0.04955320
C        1.79004437      -3.03449243       4.10506021       0.00000000       0.00000000       0.00769740      -0.02475459       0.05134574      -0.02644933
C        0.68451853      -2.37937626       4.93907960       0.00000000       0.00000000      -0.04407766      -0.02337273       0.01724571      -0.06803964
C        0.21097893      -3.23256981       6.11678092       0.00000000       0.00000000      -0.00314002      -0.01438837       0.01784077      -0.06927153
C       -1.04986561      -2.64624096       6.76275734       0.00000000       0.00000000       0.03995019       0.00789700      -0.00301119      -0.06518816
C       -2.33637244      -2.76865206       5.93875893       0.00000000       0.00000000      -0.01164780      -0.06854078      -0.00965174      -0.05894601
C       -2.75050556      -4.22817815       5.70004684       0.00000000       0.00000000       0.01210513      -0.05394677      -0.04833795      -0.06946800
C       -2.33417685      -4.77594014       4.33131909       0.00000000       0.00000000       0.02128633      -0.01602555      -0.01566521      -0.05612967
C       -2.40814131      -6.30638916       4.25695640       0.00000000       0.00000000      -0.03461337       0.03382498      -0.00833256      -0.06592135
C       -1.30438511      -7.00377050       5.05482433       0.00000000       0.00000000      -0.03909061      -0.01179515      -0.02512958      -0.05623858
C       -1.39037887      -8.53664417       5.00724999       0.00000000       0.00000000      -0.00885757      -0.01487242       0.02740030      -0.06174002
C       -2.14575927      -9.16776129       6.17991808       0.00000000       0.00000000      -0.04564078       0.00336109      -0.01241085      -0.05660380
C       -3.63982033      -8.86287681       6.19705822       0.00000000       0.00000000      -0.01329064      -0.00269111       0.00430165      -0.10399983
C        3.36716251      -1.17088082       3.55556879       0.00000000       0.00000000       0.00603602      -0.03961962       0.04333744      -0.01190366
C        4.63406536      -1.82949707       4.11891515       0.00000000       0.00000000       0.00658668       0.09302070      -0.03613679      -0.07523281
C        5.71043114      -2.25185469       3.09927444       0.00000000       0.00000000       0.03303663      -0.03501590       0.02467425      -0.06749336
C        5.93604892      -3.76688793       3.05837174       0.00000000       0.00000000      -0.02417174      -0.06722282      -0.00267301      -0.06130834
C        7.02034032      -4.17672379       2.05499859       0.00000000       0.00000000       0.01047736       0.03410185       0.00300628      -0.06413726
C        7.49667506      -5.63761003       2.15295758       0.00000000       0.00000000      -0.05579251       0.01390506      -0.02586537      -0.06520971
C        6.69863570      -6.64220005       1.31325787       0.00000000       0.00000000       0.00097615      -0.04514187       0.03723552      -0.06308179
C        5.38002924      -7.07419573       1.95587697       0.00000000       0.00000000      -0.00191631      -0.01583089       0.01616863      -0.06076019
C        5.49731228      -8.13183442       3.04772489       0.00000000       0.00000000      -0.04723657      -0.01177768       0.02925715      -0.06224196
C        4.11814392      -8.53150833       3.58641489       0.00000000       0.00000000      -0.04556945       0.01346227       0.04171680      -0.06287755
C        3.25429315      -7.38481002       4.13066137       0.00000000       0.00000000       0.00023209      -0.02329210      -0.01012489      -0.04952347
C        3.93079672      -6.58223184       5.23686862       0.00000000       0.00000000      -0.00755233      -0.02781982      -0.02691772      -0.10473374
H       -4.76312250       3.89078969      -4.16195916       0.00000000       0.00000000       0.02305465       0.01884824      -0.02641855       0.04328593
H       -5.74567820       2.86001455      -3.13112678       0.00000000       0.00000000      -0.06592779       0.00702591      -0.00796037       0.04034639
H       -3.99850641       2.87439064      -2.93879675       0.00000000       0.00000000       0.00651270       0.03469570      -0.02281624       0.00225386
H       -5.86300815       5.24463015      -2.42430521       0.00000000       0.00000000      -0.00818133      -0.04003960      -0.05016932       0.04984537
H       -4.12197726       5.27771189      -2.20466188       0.00000000       0.00000000      -0.02786202       0.01876754       0.00451939       0.03519212
H       -5.87960946       3.27454664      -0.75131595       0.00000000       0.00000000       0.08196991      -0.02558246      -0.01474414       0.03201111
H       -5.69223736       4.89510054      -0.12345907       0.00000000       0.00000000       0.04647309       0.08059612      -0.06624907       0.06235655
H       -3.24867510       3.25294512      -0.72420443       0.00000000       0.00000000      -0.07339362      -0.02465853      -0.02409482       0.01849762
H       -4.14160951       2.98761683       0.75416483       0.00000000       0.00000000       0.00261415       0.04243428      -0.00536941       0.02594294
H       -2.53156269       4.47397557       1.47177627       0.00000000       0.00000000      -0.06909414      -0.00086232      -0.03421175       0.00192417
H       -3.94831047       5.44615118       1.26952208       0.00000000       0.00000000      -0.03034699       0.04468265       0.00372189       0.06149107
H       -3.10679457       6.69706397      -0.42918406       0.00000000       0.00000000      -0.02825570       0.06277352      -0.03841775       0.05527115
H       -2.07397331       5.45290205      -1.06715350       0.00000000       0.00000000      -0.01510067       0.04176151      -0.03286080       0.02579648
H       -1.31079449       6.35881425       1.67320563       0.00000000       0.00000000       0.03851225       0.02905400      -0.04901851       0.03198086
H       -1.28555739       7.64018301       0.49437226       0.00000000       0.00000000      -0.04457923       0.02153467      -0.06310285       0.05611311
H        0.41009490       5.11610119       0.41985320       0.00000000       0.00000000       0.00006389      -0.01645673       0.06479938       0.01074757
H        0.89274588       6.78250427       0.66377056       0.00000000       0.00000000       0.01384959      -0.00109009       0.03964735       0.04978600
H        0.21198962       7.35632348      -1.62123570       0.00000000       0.00000000       0.05194127       0.05049725       0.00785715       0.06072483
H       -0.28007331       5.71515054      -1.93131807       0.00000000       0.00000000      -0.04166875      -0.01262711      -0.08690102       0.02599601
H        2.45964833       5.78113396      -0.88871288       0.00000000       0.00000000       0.05795011       0.01146973       0.04047555       0.04911712
H        2.30276998       6.81451325      -2.28806083       0.00000000       0.00000000       0.01155102       0.00910109       0.02582308       0.06484886
H        2.54981547       5.02726760      -3.59969529       0.00000000       0.00000000      -0.00643230       0.03885629       0.01848636       0.06431973
H        0.99351591       4.42733395      -3.06211073       0.00000000       0.00000000       0.00030864      -0.03203399      -0.03742737       0.03711747
H        2.28476717       3.36787296      -1.05674614       0.00000000       0.00000000       0.05465148      -0.01425826       0.01951869       0.07797887
H        3.75998151       3.76848812      -1.94509686       0.00000000       0.00000000      -0.01777697       0.03422692      -0.01704560       0.07481176
H        3.51132472       1.11619093      -4.21578089       0.00000000       0.00000000      -0.06068017      -0.04134004       0.02635594       0.06110564
H        4.25853821       2.66526737      -3.86429698       0.00000000       0.00000000       0.01773346      -0.00621296      -0.04651433       0.08299464
H        3.43680780       2.55618912      -6.12257074       0.00000000       0.00000000       0.07617952      -0.00767103       0.01586162       0.08264766
H        2.73547030       3.87095287      -5.23310634       0.00000000       0.00000000      -0.02864920       0.07661809       0.02726245       0.05870324
H        0.81551605       3.24673881      -6.15085144       0.00000000       0.00000000      -0.01459799       0.03175524      -0.03616532       0.05075895
H        0.73690817       1.97588952      -4.96507642       0.00000000       0.00000000       0.01108459      -0.03597439      -0.02964034       0.00377439
H        1.97648941       1.72037663      -7.75960479       0.00000000       0.00000000      -0.00161614       0.00284778       0.04073167       0.06780738
H        0.30176733       1.40243121      -7.40603472       0.00000000       0.00000000      -0.07803578       0.02206042       0.01341318       0.04109055
H        1.18638077      -0.71340285      -7.47824557       0.00000000       0.00000000       0.00538590       0.05431093      -0.04380297       0.04675809
H        1.10273158      -0.40403696      -5.76424643       0.00000000       0.00000000      -0.00565729      -0.00361932       0.05838512       0.00461765
H        3.16193215      -1.48454076      -6.19785408       0.00000000       0.00000000       0.00104672      -0.03186863      -0.00786901       0.01974427
H        3.63615673       0.18325907      -5.91070637       0.00000000       0.00000000      -0.01855270      -0.02714710      -0.03807626       0.02350291
H        3.04315805      -0.48937367      -8.75169191       0.00000000       0.00000000      -0.02715525      -0.05140884       0.02654132       0.04986319
H        4.43611166      -1.31438045      -8.08086580       0.00000000       0.00000000      -0.01421399       0.03843822       0.03135953       0.03994533
H        5.54719160       0.76519288      -7.57620238       0.00000000       0.00000000      -0.02970250      -0.01193251       0.01509046       0.02461443
H        4.10120525       1.70573292      -7.92834784       0.00000000       0.00000000       0.03063804       0.02394133      -0.02511793       0.02430497
H        5.60197712       0.01174446      -9.95968679       0.00000000       0.00000000      -0.00975662       0.02675509      -0.00543274       0.03935005
H        5.83416919       1.74647832      -9.74342708       0.00000000       0.00000000       0.01118892      -0.03514727       0.04476518       0.04009208
H        3.19317744       0.46997869     -10.58736147       0.00000000       0.00000000       0.03452725       0.00020269      -0.02053690       0.03024374
H        4.39732699       1.15657833     -11.66867124       0.00000000       0.00000000      -0.02357904      -0.02594189      -0.00218711       0.04446592
H        4.11388029       3.37891316     -10.63532134       0.00000000       0.00000000      -0.02145901      -0.04210909       0.00930251       0.03468438
H        2.91169947       2.73089707      -9.51803985       0.00000000       0.00000000       0.01807241      -0.00167709      -0.04865193       0.01313774
H        2.65789164       2.76076285     -12.56171038       0.00000000       0.00000000       0.01174308      -0.00264746       0.02002146       0.04524563
H        1.80055321       3.81457779     -11.44101539       0.00000000       0.00000000      -0.00020837      -0.00397402       0.00178937       0.03635361
H        1.46627137       2.08013760     -11.45789935       0.00000000       0.00000000       0.01829308       0.01584276       0.01384362       0.03063320
H        2.34589063      -0.49402198      -3.43126323       0.00000000       0.00000000       0.03672219      -0.05631872      -0.03667437       0.09100066
H        0.90085452       0.40419641      -3.91028147       0.00000000       0.00000000      -0.02602568      -0.07079748       0.02789417       0.10396658
H        2.21752242      -1.34970346      -1.00718206       0.00000000       0.00000000      -0.02032421       0.03462416       0.03929298       0.10339699
H        1.90787477      -2.38944824      -2.43957058       0.00000000       0.00000000       0.00206351       0.05385113      -0.01710172       0.08668867
H        1.13140033      -3.66185509      -0.62323840       0.00000000       0.00000000       0.02148860       0.02766118       0.00633959       0.12554363
H       -0.29009081      -3.04092530      -1.50202957       0.00000000       0.00000000      -0.03357461       0.02579263       0.06459859       0.12348766
H        0.80776926      -3.77008640       1.50691342       0.00000000       0.00000000       0.00780683      -0.08738501      -0.05436461       0.10984158
H       -0.36821965      -2.68033743       2.27632528       0.00000000       0.00000000       0.07540458       0.01104617       0.04359339       0.11497758
H        2.60855545      -3.34400563       4.75249026       0.00000000       0.00000000      -0.02166242       0.01001418       0.03026682       0.09661220
H        1.40972277      -3.93003851       3.61471722       0.00000000       0.00000000       0.02181531      -0.02105819      -0.00787906       0.06243910
H       -0.17351073      -2.18233493       4.29418705       0.00000000       0.00000000      -0.01833096       0.09403850       0.00331616       0.03166181
H        1.05615795      -1.42936795       5.32734487       0.00000000       0.00000000      -0.01510585       0.02970904       0.04217155       0.03670213
H        1.00084117      -3.27759562       6.86788791       0.00000000       0.00000000      -0.00214969      -0.00321651      -0.01236231       0.04987134
H        0.00975613      -4.25147228       5.79028633       0.00000000       0.00000000       0.02369131       0.00891958      -0.00221475       0.06183974
H       -0.87273892      -1.59341752       6.99394611       0.00000000       0.00000000       0.02566685       0.05394886       0.02307544       0.02534178
H       -1.21647887      -3.15694522       7.71187713       0.00000000       0.00000000       0.02276291       0.00654426      -0.02000228       0.05981716
H       -2.24804480      -2.24499732       4.98091880       0.00000000       0.00000000       0.03061176      -0.02601908      -0.01010746       0.00642586
H       -3.12324718      -2.26055749       6.49778732       0.00000000       0.00000000      -0.01036650      -0.01524662       0.02980321       0.04029020
H       -3.83334485      -4.32733283       5.79329624       0.00000000       0.00000000       0.04540499       0.01212118      -0.00718841       0.04318892
H       -2.30118519      -4.84406493       6.47780259       0.00000000       0.00000000      -0.06193135       0.01653888       0.04248042       0.05337970
H       -1.31139451      -4.46226183       4.10254225       0.00000000       0.00000000       0.00205977      -0.03247319      -0.03522846       0.00976400
H       -2.98656970      -4.34711315       3.56359575       0.00000000       0.00000000       0.01363155      -0.01357000       0.02099296       0.01697780
H       -2.33526494      -6.61086194       3.20834292       0.00000000       0.00000000       0.02083049      -0.00393304       0.03780230       0.02373647
H       -3.37774881      -6.63446946       4.62643654       0.00000000       0.00000000      -0.02432362       0.03221905      -0.03100014       0.05324947
H       -1.35437278      -6.68748471       6.09672160       0.00000000       0.00000000       0.05565258      -0.01512896       0.02427061       0.03862035
H       -0.33427130      -6.68728002       4.65795903       0.00000000       0.00000000       0.01025183       0.01195843      -0.01093314       0.01012980
H       -0.37865852      -8.94814573       5.01909615       0.00000000       0.00000000       0.01516569       0.03708284      -0.02585772       0.03150654
H       -1.85900980      -8.85148271       4.07190867       0.00000000       0.00000000       0.02108570       0.02656265       0.00350477       0.03479741
H       -1.69604066      -8.84437003       7.12186390       0.00000000       0.00000000      -0.00421168       0.01644144      -0.02690594       0.03330082
H       -2.01488530     -10.24996475       6.11715621       0.00000000       0.00000000      -0.00110132       0.00994731      -0.02201978       0.04006873
H       -3.83556310      -7.82595441       6.46428586       0.00000000       0.00000000       0.02389288      -0.02736187      -0.00944109       0.02995746
H       -4.13782994      -9.49435474       6.92898939       0.00000000       0.00000000       0.01158028       0.02691759      -0.00042849       0.04376127
H       -4.08137401      -9.06519570       5.22242219       0.00000000       0.00000000       0.00702679      -0.00165172       0.03023446       0.03452316
H        2.93633258      -0.53277164       4.33954499       0.00000000       0.00000000       0.06908409      -0.04363056      -0.01057123       0.04848686
H        3.61710686      -0.54391551       2.69618249       0.00000000       0.00000000       0.00945200      -0.03635816       0.02317556       0.08113246
H        4.35909451      -2.68772178       4.72750132       0.00000000       0.00000000       0.09253946      -0.05150064       0.03076219       0.06366610
H        5.06519612      -1.09976654       4.80395148       0.00000000       0.00000000       0.04588196       0.01729129      -0.01178946       0.06421908
H        6.65137342      -1.77734035       3.37197399       0.00000000       0.00000000       0.06682388       0.01518662       0.01275654       0.05285474
H        5.46589916      -1.89083706       2.09944364       0.00000000       0.00000000      -0.11368556       0.01762955      -0.02606482       0.03045023
H        4.99154294      -4.25136152       2.80769405       0.00000000       0.00000000      -0.02975099      -0.01776887       0.03309643       0.02750695
H        6.23858912      -4.10705565       4.04937143       0.00000000       0.00000000      -0.00599922       0.03522234       0.05300112       0.04149612
H        7.88555127      -3.53152828       2.21925071       0.00000000       0.00000000      -0.00283964       0.01416507       0.04053937       0.03756802
H        6.66045288      -3.98235023       1.04411309       0.00000000       0.00000000       0.05468602      -0.00909819      -0.03645801       0.03128788
H        7.49442810      -5.95085880       3.19676634       0.00000000       0.00000000       0.01177095      -0.01223408       0.01422098       0.04393955
H        8.53192309      -5.67585813       1.81134046       0.00000000       0.00000000      -0.01287360       0.04496576      -0.00574548       0.04378451
H        7.30767438      -7.52906105       1.13535465       0.00000000       0.00000000       0.05016668      -0.01526379       0.07365957       0.04311286
H        6.49755568      -6.20560454       0.32990709       0.00000000       0.00000000       0.03368788       0.02576676       0.08568879       0.02581300
H        4.71377183      -7.47323336       1.18339483       0.00000000       0.00000000       0.06402289      -0.03030564       0.01326858       0.02247653
H        4.92037052      -6.19627370       2.40320661       0.00000000       0.00000000      -0.01541423      -0.03368296       0.00192061       0.03591001
H        6.12518589      -7.77280408       3.86265214       0.00000000       0.00000000      -0.01076942       0.04117231       0.00538043       0.03942368
H        5.97533238      -9.02282277       2.63930806       0.00000000       0.00000000       0.00893863      -0.02139172       0.00457411       0.04026390
H        4.25774668      -9.26173247       4.38551720       0.00000000       0.00000000       0.00908096       0.00361265      -0.02639480       0.04369027
H        3.55382135      -9.02097616       2.78644112       0.00000000       0.00000000       0.04898678      -0.00415557       0.03993145       0.03082546
H        2.33397500      -7.82100854       4.52984206       0.00000000       0.00000000       0.03600944      -0.01063251      -0.02298858       0.02922103
H        2.96136637      -6.71530301       3.31472915       0.00000000       0.00000000       0.02156350      -0.02913471       0.01552386       0.00766658
H        4.28185785      -7.25097222       6.01684784       0.00000000       0.00000000       0.00771261       0.00597978       0.02046486       0.05039015
H        3.22815791      -5.87873057       5.68270755       0.00000000       0.00000000      -0.00171350      -0.00515721       0.00731326       0.01512068
H        4.78158776      -6.02481323       4.85424901       0.00000000       0.00000000       0.00987463      -0.01485379       0.01243365       0.03495730
O        0.28460226       0.26372148       3.02322472       0.00000000       0.00000000      -0.02279439       0.02053189       0.00433416      -0.54181858
H        1.16722014       0.56244039       3.27868482       0.00000000       0.00000000       0.02781444      -0.04229952       0.01900765       0.33087435
H       -0.22117339       0.17036904       3.84006741       0.00000000       0.00000000      -0.03242198      -0.03331959       0.02491583       0.32981422
