47
Properties=species:S:1:pos:R:3:initial_charges:R:1:initial_magmoms:R:1:forces:R:3:charge:R:1 energy=-2154.1422835787857 free_energy=-2154.1422835787857 dipole="-4.2167523097112305 -1.950476559309675 -1.0796004214957005" pbc="F F F"
Dy      -0.05110925       0.24355983      -0.11261442       3.00000000       0.00000000       0.01641912       0.08599946      -0.07896344       0.76106677
O       -0.14372717      -1.68340516       0.59372612       0.00000000       0.00000000       0.02341415      -0.15407204      -0.10720223      -0.32695324
C       -0.73788111      -1.39063760       1.63323899       0.00000000       0.00000000      -0.03865961       0.10277362      -0.01675039       0.38068639
O       -0.04549720      -0.85655693       2.59707055       0.00000000       0.00000000       0.00893497      -0.09012646       0.08868716      -0.23867965
C       -2.24990063      -1.35367545       1.54736310       0.00000000       0.00000000      -0.02181416      -0.00955350       0.11500979      -0.06570976
N       -2.49234417      -0.45330126       0.38121715       0.00000000       0.00000000       0.08033797      -0.04155286      -0.03402406      -0.12638179
C       -3.08087252       0.85117424       0.80217933       0.00000000       0.00000000      -0.02320232       0.08379083      -0.03716519      -0.06078921
C       -1.94470415       1.80264925       0.46067811       0.00000000       0.00000000       0.00363215      -0.07564506      -0.04380983       0.37093945
O       -0.87966371       1.69112826       1.06170154       0.00000000       0.00000000      -0.00159310      -0.12074134      -0.05036266      -0.30543668
O       -1.92427727       2.44473829      -0.69930069       0.00000000       0.00000000      -0.03482515      -0.01669428       0.13428514      -0.29920971
C       -3.09348257      -1.05587682      -0.86492340       0.00000000       0.00000000      -0.01056906      -0.01916982      -0.04204882       0.00962304
C       -3.77502150      -2.42750568      -0.66450784       0.00000000       0.00000000      -0.00067480      -0.01799117       0.00686102      -0.09582965
C       -2.87118535      -3.66128074      -0.71611557       0.00000000       0.00000000      -0.03712315      -0.01912985       0.06172865      -0.08358654
C       -1.88518897      -3.59689807      -1.89311184       0.00000000       0.00000000      -0.02987367      -0.09773594       0.11561804      -0.08353391
C       -2.25568820      -2.46944798      -2.84881260       0.00000000       0.00000000       0.04587524      -0.16709700       0.01487609      -0.09619002
C       -2.19133239      -1.08116257      -2.20056062       0.00000000       0.00000000      -0.03914805      -0.10873849      -0.12738189      -0.00455366
N       -0.77658192      -0.44342102      -2.19521728       0.00000000       0.00000000      -0.02666457      -0.02162492       0.16909717      -0.11023382
C        0.38579757      -1.35222288      -2.58388770       0.00000000       0.00000000      -0.02248375       0.03193888      -0.00223578      -0.08641811
C        1.50550624      -1.40514386      -1.52495522       0.00000000       0.00000000      -0.10210503       0.06371782      -0.08089891       0.38444625
O        1.71781068      -0.38000844      -0.86377269       0.00000000       0.00000000      -0.02549179       0.02466421      -0.02143904      -0.31655841
O        2.19176077      -2.46017556      -1.30724833       0.00000000       0.00000000       0.04102997      -0.00194331      -0.02769139      -0.21553899
C       -0.84464003       0.69928315      -3.16889918       0.00000000       0.00000000       0.02701520      -0.02969633       0.08202491      -0.09267077
C        0.19937480       1.85763556      -3.17159179       0.00000000       0.00000000       0.05065084      -0.01140149      -0.04916669       0.35679707
O        0.34877872       2.50148028      -4.14531835       0.00000000       0.00000000       0.06652663      -0.10194681       0.05075089      -0.20382687
O        0.85802802       2.17623490      -2.02883216       0.00000000       0.00000000       0.01224502       0.01811225       0.01402685      -0.30542336
H       -0.41878336      -0.84831247       3.50216862       0.00000000       0.00000000       0.02185843       0.10207080       0.08330722       0.41803504
H       -2.72813629      -0.99577916       2.46059047       0.00000000       0.00000000      -0.05060773       0.06289834       0.08965615       0.13801911
H       -2.63652301      -2.36034049       1.35360353       0.00000000       0.00000000       0.01765380      -0.05344403      -0.07569034       0.19097048
H       -3.28964440       0.87192502       1.87768580       0.00000000       0.00000000      -0.01996081       0.06407130       0.00689569       0.16113467
H       -4.01483731       1.08063955       0.28579527       0.00000000       0.00000000      -0.08912360       0.03514987      -0.10400205       0.14788047
H       -2.73632146       2.92334852      -0.97653166       0.00000000       0.00000000       0.01781847      -0.06315682       0.04264830       0.42242847
H       -3.92760051      -0.39523884      -1.11733473       0.00000000       0.00000000       0.00705126       0.08938372      -0.01463604       0.10589330
H       -4.49923919      -2.52028221      -1.47618695       0.00000000       0.00000000       0.00454229       0.00387258       0.00876111       0.11717045
H       -4.38873133      -2.42238710       0.23787807       0.00000000       0.00000000       0.07940246       0.03529822       0.03104244       0.09334611
H       -3.52259494      -4.53167818      -0.79829059       0.00000000       0.00000000      -0.01703861       0.01843823      -0.10088464       0.10921237
H       -2.29941830      -3.81692757       0.19833619       0.00000000       0.00000000      -0.01374181       0.00129549       0.03871812       0.05412422
H       -1.89893424      -4.53950502      -2.43666811       0.00000000       0.00000000       0.00805410      -0.02681036      -0.00532291       0.10320124
H       -0.88339328      -3.46534518      -1.47901414       0.00000000       0.00000000      -0.00052505       0.00361728       0.00084645       0.04185268
H       -3.27902555      -2.63475219      -3.19363006       0.00000000       0.00000000       0.03840471       0.00921313       0.05626710       0.11984162
H       -1.66725782      -2.49245838      -3.76604070       0.00000000       0.00000000       0.03361141       0.00539127       0.02358550       0.09062427
H       -2.76288750      -0.46385796      -2.89439969       0.00000000       0.00000000      -0.00092598       0.08433470      -0.03602868       0.11866700
H        0.87159981      -0.96160001      -3.49362597       0.00000000       0.00000000      -0.06030811       0.03732146      -0.05710421       0.17569869
H        0.05453709      -2.36847923      -2.81098607       0.00000000       0.00000000      -0.08859564       0.07233380      -0.02846323       0.16837168
H        2.06912694      -3.29302586      -1.80619701       0.00000000       0.00000000       0.05815624       0.12309273      -0.09357438       0.41289471
H       -1.80253025       1.22470336      -3.04212104       0.00000000       0.00000000       0.06803969       0.04489568      -0.03223486       0.13836313
H       -0.84172714       0.30821228      -4.19868827       0.00000000       0.00000000       0.00526083       0.06671898      -0.00220882       0.15707135
H        0.74066333       1.73228739      -1.17450816       0.00000000       0.00000000       0.01912059      -0.02212276       0.03459667       0.36916416
