145
Properties=species:S:1:pos:R:3:initial_charges:R:1:initial_magmoms:R:1:forces:R:3:charge:R:1 energy=-5756.448235614462 free_energy=-5756.448235614462 dipole="1.2382802815539906 -0.7719417546142355 0.6777206880621974" pbc="F F F"
Dy      -0.08493803       0.02740293      -0.09307218       3.00000000       0.00000000      -0.01255525       0.00409467      -0.03918059       0.80205351
C        2.37747247       4.11592016      -2.48089294       0.00000000       0.00000000      -0.03889918       0.00264020       0.00774201      -0.11663732
C        0.99239930       4.29218633      -1.88225426       0.00000000       0.00000000      -0.09746323       0.03742343       0.12229193       0.00017614
N        0.93260244       4.17934722      -0.42161514       0.00000000       0.00000000       0.05978798      -0.00135705       0.03277110      -0.04642191
C        0.52518955       3.00456089       0.07216201       0.00000000       0.00000000      -0.09159798       0.08839023      -0.00757116       0.26022999
O        0.54238726       1.98387296      -0.66612529       0.00000000       0.00000000       0.00734280       0.11556920      -0.02245157      -0.39722626
C       -0.10540732       2.85415751       1.43391320       0.00000000       0.00000000      -0.03033042       0.08690080      -0.10046695       0.07958841
C       -0.22803953       3.82680325       2.42662285       0.00000000       0.00000000       0.01552440      -0.00607644      -0.10317436      -0.02091692
C       -0.77918143       3.45390769       3.64276280       0.00000000       0.00000000       0.06857413       0.05448268      -0.00811039       0.00544738
C       -1.12933427       2.13134589       3.87208991       0.00000000       0.00000000      -0.04456383       0.05594401       0.00926980      -0.02389227
C       -1.06825324       1.23987699       2.80505947       0.00000000       0.00000000       0.00470855       0.01818112       0.01897541       0.10211244
C       -1.31737007      -0.21875037       2.92915335       0.00000000       0.00000000       0.00545263      -0.04675314       0.04461278       0.10436373
C       -1.32982982      -0.91142373       4.14146814       0.00000000       0.00000000      -0.04776374       0.02733784       0.03363768      -0.02850285
C       -1.27371365      -2.29851382       4.12694377       0.00000000       0.00000000       0.14109253       0.04666783       0.00878149      -0.00065655
C       -1.24057418      -2.97562661       2.92166642       0.00000000       0.00000000      -0.01073083      -0.02598296      -0.12328275      -0.02744271
C       -1.38413980      -2.22331115       1.75938962       0.00000000       0.00000000      -0.06909707      -0.03830485      -0.15129338       0.07825311
C       -1.44841430      -2.75244600       0.35301428       0.00000000       0.00000000      -0.02249011       0.01074944      -0.07136771       0.25249289
O       -0.92500243      -2.01095555      -0.51837285       0.00000000       0.00000000       0.11238482      -0.06457241       0.07953313      -0.42711203
N       -1.99584272      -3.91127122       0.01814627       0.00000000       0.00000000      -0.12813691       0.05844706      -0.00595942      -0.03497887
C       -1.94760682      -4.31823319      -1.38998425       0.00000000       0.00000000       0.09568245      -0.03413180       0.15899762      -0.00320341
C       -3.32170195      -4.29588803      -2.03808573       0.00000000       0.00000000       0.04207861      -0.01117867       0.04604348      -0.11973602
C       -2.79432169      -4.68143446       0.90861431       0.00000000       0.00000000       0.03802188       0.02326048      -0.02305348       0.04261070
C       -2.75090559      -6.07169548       0.88414036       0.00000000       0.00000000      -0.01315185       0.07550278       0.02250431      -0.05634066
C       -3.51916497      -6.80369169       1.78142068       0.00000000       0.00000000       0.01338425       0.05700627      -0.04084731       0.03656426
C       -3.53580217      -8.29538120       1.73463954       0.00000000       0.00000000      -0.02491954       0.05189807       0.05303435      -0.12537368
C       -4.27058208      -6.11761920       2.73446486       0.00000000       0.00000000      -0.05095864      -0.03009516       0.00629615      -0.04299580
C       -4.33334697      -4.73170010       2.76225340       0.00000000       0.00000000       0.03078518      -0.00671249      -0.05973472       0.03021786
C       -5.11912250      -3.98438368       3.79117151       0.00000000       0.00000000      -0.00310811      -0.03855789      -0.05215755      -0.12052537
C       -3.62727915      -4.01645498       1.80022371       0.00000000       0.00000000      -0.01253012      -0.04695245       0.01466758      -0.06344133
N       -1.37548918      -0.88520757       1.76830012       0.00000000       0.00000000      -0.04208288      -0.09895724       0.02978225      -0.16092184
N       -0.62458034       1.63163017       1.60357184       0.00000000       0.00000000       0.00759945       0.05231828       0.05410428      -0.12885540
C        1.64645071       5.16766634       0.31341565       0.00000000       0.00000000       0.02094863      -0.02256491      -0.05459668       0.04721199
C        2.55828796       4.72138192       1.27308534       0.00000000       0.00000000      -0.05090838       0.01455450      -0.03906675      -0.06128408
C        3.38474571       5.61927752       1.92668830       0.00000000       0.00000000      -0.03796882      -0.01570846      -0.01991766       0.02992465
C        4.38466085       5.15841179       2.93634850       0.00000000       0.00000000      -0.01180321       0.03565088      -0.00192064      -0.12142741
C        3.29386304       6.97137516       1.60114211       0.00000000       0.00000000       0.02982279      -0.03280096      -0.01842606      -0.04261203
C        2.41681058       7.43203211       0.62941292       0.00000000       0.00000000       0.00254512      -0.02902466       0.01687261       0.03674725
C        2.36365863       8.88031592       0.26658515       0.00000000       0.00000000      -0.02815734      -0.03176905       0.01302038      -0.12527711
C        1.58663701       6.51466268      -0.01678190       0.00000000       0.00000000      -0.01936680       0.00444622       0.05675906      -0.05478665
H        2.28208619       4.22120263      -3.55573078       0.00000000       0.00000000       0.10606073       0.00111825      -0.10152611       0.07187219
H        2.78644433       3.13532104      -2.25820902       0.00000000       0.00000000      -0.01959762      -0.06986233       0.04868570       0.05251631
H        3.06221054       4.87496676      -2.11724860       0.00000000       0.00000000       0.02569085       0.03783477       0.04722078       0.06628020
H        0.30985715       3.54002021      -2.28623678       0.00000000       0.00000000       0.00978925       0.04772643      -0.02885981       0.06324840
H        0.61552324       5.28729962      -2.12035299       0.00000000       0.00000000      -0.01703730       0.00749787      -0.10102099       0.08190389
H        0.10257400       4.83841343       2.25741281       0.00000000       0.00000000       0.02789848       0.00898726       0.03144617       0.09314692
H       -0.89218115       4.18919089       4.41966046       0.00000000       0.00000000      -0.00225032       0.05727753       0.11977489       0.10130535
H       -1.44551067       1.81167051       4.85015781       0.00000000       0.00000000      -0.11012702       0.04796299       0.02308586       0.08907699
H       -1.33847621      -0.40094272       5.08883223       0.00000000       0.00000000      -0.02559355       0.09045590       0.02720289       0.08903540
H       -1.21755593      -2.85256869       5.04731082       0.00000000       0.00000000      -0.00693793      -0.00783720       0.13439957       0.09699007
H       -1.10481951      -4.04292139       2.87360331       0.00000000       0.00000000      -0.09130667      -0.03159744       0.05585187       0.08235889
H       -1.52369926      -5.32159559      -1.41993880       0.00000000       0.00000000      -0.00549759      -0.07696364      -0.08334457       0.07635973
H       -1.27406625      -3.63077894      -1.90664424       0.00000000       0.00000000      -0.00336986      -0.03930645       0.03267643       0.06575857
H       -4.00499378      -4.96034854      -1.52096100       0.00000000       0.00000000      -0.05837039      -0.04760720       0.03971174       0.07227601
H       -3.23080628      -4.62885089      -3.06623027       0.00000000       0.00000000      -0.03413218       0.00825745      -0.05363002       0.07427900
H       -3.73084994      -3.29085187      -2.02395489       0.00000000       0.00000000      -0.03843721       0.05278851      -0.01897646       0.05547226
H       -2.12826997      -6.59578929       0.17510387       0.00000000       0.00000000      -0.00051990       0.03116656       0.05429396       0.05433386
H       -2.91156162      -8.68814420       0.93465553       0.00000000       0.00000000      -0.03635083       0.05719540       0.07062049       0.06102259
H       -4.55705920      -8.64187886       1.58461411       0.00000000       0.00000000       0.02004409      -0.03349645      -0.00403397       0.08190022
H       -3.19342526      -8.69870379       2.68558089       0.00000000       0.00000000       0.00888324      -0.06050290      -0.00968704       0.07667147
H       -4.84402425      -6.68444927       3.45182882       0.00000000       0.00000000       0.01026016      -0.01037690       0.01519329       0.07455821
H       -5.66304252      -4.65794439       4.44579016       0.00000000       0.00000000       0.00804738      -0.00314835      -0.02043727       0.07356851
H       -5.82880545      -3.31888990       3.30349840       0.00000000       0.00000000      -0.01709925       0.01886688       0.06121275       0.06856726
H       -4.44129834      -3.37830379       4.39521094       0.00000000       0.00000000      -0.09223191      -0.00622348      -0.00459038       0.04962014
H       -3.73229710      -2.94087860       1.73722258       0.00000000       0.00000000      -0.02605494      -0.08154595       0.02084987       0.02903615
H        2.63610597       3.65736165       1.45651187       0.00000000       0.00000000       0.01089052       0.02386471       0.04206595       0.01824108
H        4.35032673       4.08064706       3.08046282       0.00000000       0.00000000      -0.01394810       0.05791750      -0.01174431       0.04260813
H        4.19498072       5.65226655       3.88707980       0.00000000       0.00000000       0.04935836      -0.02732799       0.04102444       0.07175307
H        5.38639990       5.43668608       2.61393450       0.00000000       0.00000000       0.00724742      -0.00462577       0.03791797       0.07579809
H        3.94720562       7.67285905       2.09790289       0.00000000       0.00000000      -0.01190747      -0.01770841       0.00178331       0.07270685
H        3.05866536       9.46468594       0.86346523       0.00000000       0.00000000      -0.03057636      -0.04718097      -0.00164552       0.07036823
H        1.35815791       9.26528305       0.42689572       0.00000000       0.00000000       0.00282106       0.04478622      -0.03301209       0.07239064
H        2.61351443       9.02415643      -0.78428269       0.00000000       0.00000000      -0.03717865      -0.02977387       0.02704579       0.07329491
H        0.90687369       6.87827875      -0.77304473       0.00000000       0.00000000      -0.01830286      -0.03043814       0.07260591       0.05871392
C        2.86459263       1.58089408       4.38502494       0.00000000       0.00000000      -0.02068363      -0.05852633       0.00267165      -0.11424318
C        2.23386926       0.19816761       4.32361023       0.00000000       0.00000000       0.02936026      -0.18064693      -0.04429561      -0.00199874
N        2.84578855      -0.67013544       3.31719250       0.00000000       0.00000000       0.08075382       0.03213582      -0.07214736      -0.04663021
C        2.27898699      -0.71740569       2.11215557       0.00000000       0.00000000      -0.04080626      -0.01065872       0.00146028       0.25123200
O        1.34040816       0.06581452       1.82370364       0.00000000       0.00000000      -0.04255212      -0.09625719       0.03115820      -0.42434608
C        2.58602497      -1.74798774       1.06326858       0.00000000       0.00000000      -0.05495597       0.01683085       0.05780823       0.07366988
C        3.25985182      -2.95249779       1.24717284       0.00000000       0.00000000      -0.01757491       0.12920927      -0.00606984      -0.02663417
C        3.34088404      -3.81673294       0.16689093       0.00000000       0.00000000      -0.01281505      -0.00769650       0.08169779       0.00233630
C        2.74471929      -3.48140794      -1.03783606       0.00000000       0.00000000       0.00717208      -0.05670485       0.01438610      -0.02691448
C        2.05373951      -2.27234189      -1.14093926       0.00000000       0.00000000       0.09524949       0.02066154      -0.01756736       0.10116208
C        1.30766841      -1.86058756      -2.35717594       0.00000000       0.00000000       0.01841345      -0.02549192      -0.04135843       0.09711436
C        1.28461322      -2.62828629      -3.51963458       0.00000000       0.00000000      -0.00976455      -0.00583639       0.04101462      -0.02611528
C        0.44442042      -2.25296795      -4.55753911       0.00000000       0.00000000      -0.00836603      -0.07115856       0.03127433       0.00344240
C       -0.40293027      -1.17172360      -4.39095714       0.00000000       0.00000000      -0.04919933       0.03075863       0.01073726      -0.02054817
C       -0.30998753      -0.43179482      -3.21136476       0.00000000       0.00000000      -0.07501143       0.01833490       0.00054523       0.08521591
C       -1.32417084       0.61584935      -2.80590872       0.00000000       0.00000000       0.00886370       0.04067498      -0.04500562       0.26104053
O       -1.63643749       0.66221773      -1.58780037       0.00000000       0.00000000       0.06847780      -0.04124315      -0.04763227      -0.38426749
N       -1.93598678       1.39049224      -3.69931047       0.00000000       0.00000000       0.05907295      -0.00161569       0.02074520      -0.03559349
C       -3.01887764       2.25155930      -3.20987680       0.00000000       0.00000000       0.17062569       0.00233501      -0.04136989      -0.00206844
C       -4.24599109       1.45108431      -2.80111202       0.00000000       0.00000000       0.05120266       0.05056974      -0.01881743      -0.11963653
C       -1.51929542       1.54866749      -5.05104061       0.00000000       0.00000000      -0.00077897       0.08743327       0.06106417       0.03929867
C       -0.15498628       1.59656539      -5.33426377       0.00000000       0.00000000      -0.04998878       0.00668857       0.00829797      -0.06672321
C        0.27821804       1.69992737      -6.64613899       0.00000000       0.00000000      -0.01107494      -0.02380647       0.03222737       0.02884986
C        1.73327258       1.64992393      -6.97782180       0.00000000       0.00000000      -0.01303850       0.01739433      -0.03186526      -0.12196878
C       -0.67039863       1.83474026      -7.65664091       0.00000000       0.00000000       0.03833284      -0.03297777      -0.00642747      -0.04410792
C       -2.03120123       1.86961781      -7.38638743       0.00000000       0.00000000       0.03553265      -0.03852220       0.02625127       0.03600768
C       -3.02314236       2.05582512      -8.48804422       0.00000000       0.00000000       0.01228487      -0.02032560       0.03639972      -0.12506335
C       -2.45467535       1.70638663      -6.06625361       0.00000000       0.00000000       0.04471252      -0.00141654      -0.01206774      -0.05756046
N        0.56151663      -0.74938981      -2.24676162       0.00000000       0.00000000      -0.02415666       0.03935511      -0.09626921      -0.12909725
N        1.97718308      -1.44143204      -0.09338945       0.00000000       0.00000000       0.05562942       0.01353499      -0.05488476      -0.16562459
C        4.17479536      -1.10356580       3.57714050       0.00000000       0.00000000      -0.01179501       0.01880807      -0.00117763       0.04289740
C        5.10923762      -0.93250883       2.55869736       0.00000000       0.00000000       0.00687531       0.00079588       0.03166229      -0.06329152
C        6.43186332      -1.28762528       2.75310222       0.00000000       0.00000000      -0.02276206       0.00966994       0.02258741       0.03146205
C        7.42056918      -1.12116557       1.64884106       0.00000000       0.00000000       0.02803113      -0.02049041       0.03944392      -0.12199809
C        6.81431865      -1.77752586       4.00072923       0.00000000       0.00000000       0.02855600       0.02646249      -0.01781108      -0.04258707
C        5.90708463      -1.91285277       5.04273334       0.00000000       0.00000000      -0.02348804       0.01753680      -0.02402679       0.03546353
C        6.33743352      -2.40088699       6.38865349       0.00000000       0.00000000      -0.01650901      -0.00277154      -0.05082761      -0.12468402
C        4.56989613      -1.58082004       4.81923970       0.00000000       0.00000000       0.02836749      -0.01984410      -0.05183309      -0.05745012
H        2.36168551       2.15137744       5.15787413       0.00000000       0.00000000       0.01531175       0.10556762       0.02561843       0.06790263
H        2.75820734       2.09869793       3.43660985       0.00000000       0.00000000      -0.04108867      -0.00312407      -0.05114130       0.04577482
H        3.91846686       1.51138859       4.63521012       0.00000000       0.00000000       0.06019544      -0.01472198      -0.00111269       0.06965532
H        1.17036515       0.27503334       4.08612731       0.00000000       0.00000000       0.05648334      -0.00449583       0.03569268       0.05436730
H        2.36390297      -0.30937666       5.27836846       0.00000000       0.00000000      -0.08063814       0.06283410       0.09325132       0.07996363
H        3.70094323      -3.20958754       2.19597597       0.00000000       0.00000000       0.01679746       0.02017406      -0.00814238       0.08728170
H        3.86194640      -4.75164166       0.28055958       0.00000000       0.00000000       0.03266464      -0.10441458      -0.05649778       0.09882517
H        2.79564653      -4.17590482      -1.85762476       0.00000000       0.00000000       0.05873690       0.01170044      -0.06819253       0.08971432
H        1.87563412      -3.52390099      -3.59959565       0.00000000       0.00000000       0.06930720       0.01864238      -0.11335350       0.08796438
H        0.41990812      -2.83475071      -5.46328121       0.00000000       0.00000000      -0.03529067      -0.02494042      -0.07614021       0.10005093
H       -1.12988958      -0.91383570      -5.14269133       0.00000000       0.00000000       0.00164721      -0.05286645      -0.03753642       0.09089962
H       -3.25509887       2.96240892      -4.00176186       0.00000000       0.00000000      -0.00099354      -0.00514614       0.04593977       0.08358991
H       -2.62800728       2.79834717      -2.34466588       0.00000000       0.00000000      -0.06759562      -0.00196016       0.02648374       0.06628783
H       -4.63676673       0.87491742      -3.63425262       0.00000000       0.00000000       0.00588756      -0.02017885      -0.02751495       0.06198484
H       -5.01483272       2.13746736      -2.46589075       0.00000000       0.00000000      -0.07835579       0.01501371       0.03516372       0.07597380
H       -3.99140070       0.78011990      -1.98619892       0.00000000       0.00000000      -0.07337617      -0.05072521       0.02592000       0.05876085
H        0.55971971       1.56327653      -4.52324734       0.00000000       0.00000000       0.00837809      -0.03156385      -0.01353417       0.02579744
H        2.34594409       1.52083508      -6.08746179       0.00000000       0.00000000      -0.04052663       0.02802578      -0.05072291       0.04422184
H        2.03263006       2.56301377      -7.48751130       0.00000000       0.00000000       0.05100078      -0.00158998      -0.00618556       0.07638681
H        1.91799933       0.81894193      -7.65707416       0.00000000       0.00000000       0.05778906       0.03234124      -0.00330327       0.07025590
H       -0.33550362       1.91882012      -8.67959405       0.00000000       0.00000000       0.01615709       0.03186061       0.02174911       0.07171161
H       -2.52957277       2.12875728      -9.45355578       0.00000000       0.00000000      -0.00040929      -0.00028892       0.05208181       0.06971526
H       -3.60019892       2.96600128      -8.32927457       0.00000000       0.00000000      -0.00856816      -0.03794933       0.01359281       0.07444794
H       -3.71850921       1.21878137      -8.51998880       0.00000000       0.00000000      -0.03268384       0.02785727       0.01272904       0.07064783
H       -3.51340755       1.70074446      -5.85223244       0.00000000       0.00000000       0.05652021      -0.06486025      -0.00897054       0.06091333
H        4.79026313      -0.48874195       1.62525803       0.00000000       0.00000000       0.05236032      -0.01906847       0.00226828       0.02428098
H        6.94506691      -0.73799123       0.74777298       0.00000000       0.00000000       0.05304466      -0.03247444       0.04828398       0.04726679
H        7.88338626      -2.08075990       1.42870410       0.00000000       0.00000000       0.07314870       0.02744040      -0.04512359       0.07289786
H        8.20519558      -0.43145157       1.95261370       0.00000000       0.00000000       0.04605540      -0.02552167      -0.03071034       0.07839560
H        7.84942505      -2.03408285       4.16823655       0.00000000       0.00000000      -0.00520924      -0.00084482      -0.02346157       0.07385074
H        7.39830314      -2.63406646       6.40296195       0.00000000       0.00000000      -0.03653268      -0.00105840      -0.02039092       0.07112427
H        5.77922874      -3.29681952       6.65679289       0.00000000       0.00000000       0.02078186       0.01706861       0.04198947       0.06948230
H        6.14392303      -1.64497206       7.14998112       0.00000000       0.00000000      -0.01813988      -0.03793510      -0.04509289       0.07268231
H        3.86626719      -1.70419310       5.62986138       0.00000000       0.00000000       0.00763215      -0.03414279      -0.08289455       0.05242477
