315
Properties=species:S:1:pos:R:3:initial_charges:R:1:initial_magmoms:R:1:forces:R:3:charge:R:1 energy=-10015.80014207794 free_energy=-10015.80014207794 dipole="2.855352763938565 -0.8618128975289764 -4.753622114397091" pbc="F F F"
Dy      -0.16712822      -0.01344620       0.16763934       2.00000000       0.00000000       0.05646696       0.03083893       0.08003549       0.85843908
C        3.87411846       0.69803824      -7.56616052       0.00000000       0.00000000      -0.00447343       0.01683861       0.00982160      -0.10006826
C        5.23585723       1.07774819      -8.13422252       0.00000000       0.00000000       0.03697173       0.05540040       0.00099906      -0.05722098
C        5.65383739       2.48934013      -7.71589551       0.00000000       0.00000000       0.04997762       0.07044216       0.03195974      -0.06284949
C        6.15513196       2.49652567      -6.27327961       0.00000000       0.00000000       0.01256445       0.00164210       0.03140020      -0.05892618
C        6.48843841       3.87857926      -5.70911135       0.00000000       0.00000000       0.04797253      -0.05455837      -0.01714557      -0.06479950
C        5.28802009       4.80596371      -5.51315632       0.00000000       0.00000000       0.02743294       0.01286717      -0.00136141      -0.06336607
C        4.17845947       4.26870395      -4.60744644       0.00000000       0.00000000       0.00654506       0.00880825       0.03210359      -0.06531817
C        4.53136220       4.26562503      -3.11819964       0.00000000       0.00000000      -0.05894728       0.01057163      -0.00448817      -0.06893234
C        3.42177559       3.62417286      -2.28234064       0.00000000       0.00000000       0.01282836      -0.00499999       0.06400744      -0.06109889
C        3.67112754       3.68606027      -0.76280221       0.00000000       0.00000000      -0.00063942      -0.00550455       0.02441169      -0.02676396
N        3.12634717       2.53415986      -0.05069123       0.00000000       0.00000000       0.02174481       0.00730598       0.01582288      -0.06343924
C        4.05131360       1.43070824       0.24164588       0.00000000       0.00000000      -0.02593095       0.04722472      -0.03331343      -0.01491378
C        4.68607703       1.41044469       1.64044073       0.00000000       0.00000000      -0.11176474       0.04837245      -0.02896811      -0.07077584
C        6.04724436       0.69847256       1.66065307       0.00000000       0.00000000      -0.11636600      -0.00356648       0.00634672      -0.07002310
C        6.08891824      -0.76089789       1.21033842       0.00000000       0.00000000       0.00787552      -0.05340721      -0.01852691      -0.06229355
C        7.54067694      -1.19661183       0.95889720       0.00000000       0.00000000       0.01847502      -0.06838711      -0.03700247      -0.06910125
C        7.66574126      -2.50389987       0.14331566       0.00000000       0.00000000      -0.00788090      -0.05017663      -0.04524891      -0.06307183
C        8.36707748      -2.24483824      -1.19835644       0.00000000       0.00000000      -0.00767166       0.04591778       0.05480631      -0.07103008
C        8.25684641      -3.29523751      -2.30752478       0.00000000       0.00000000      -0.04081008       0.03158052       0.01120172      -0.06221980
C        8.63615817      -2.68050367      -3.67101634       0.00000000       0.00000000       0.03334944      -0.02571014      -0.00277404      -0.05918525
C        7.76654901      -3.20661389      -4.80671462       0.00000000       0.00000000      -0.01257490      -0.04332015       0.00271174      -0.10330797
C        1.83235249       2.33716625       0.18550931       0.00000000       0.00000000      -0.02647613      -0.04920076       0.10094474       0.26697533
O        1.45054426       1.34435763       0.83592537       0.00000000       0.00000000      -0.00769911      -0.04762259      -0.01554754      -0.37463289
C        0.75054331       3.21794181      -0.46793024       0.00000000       0.00000000      -0.02779548       0.01245621      -0.06071277       0.08300951
C        0.07634094       4.30394739       0.40830484       0.00000000       0.00000000      -0.00711257       0.03287425      -0.00650807      -0.07676077
C        0.51092617       4.44302005       1.87115225       0.00000000       0.00000000       0.00421614      -0.00150105      -0.04649735      -0.05745572
C       -0.18001490       3.42853607       2.76877440       0.00000000       0.00000000       0.00540765      -0.07935325      -0.01467953      -0.11186073
O       -0.19101500       2.23824431      -0.95453626       0.00000000       0.00000000      -0.02359618       0.07488648       0.01087515      -0.23920292
C       -0.68874827       2.41637049      -2.28658848       0.00000000       0.00000000      -0.01667995       0.01043550      -0.01900245       0.08557276
C       -2.10139528       3.03785236      -2.29152060       0.00000000       0.00000000       0.01897254       0.00984068      -0.05173997      -0.06701589
C       -3.06631319       2.47437922      -1.25459545       0.00000000       0.00000000       0.02555787       0.00513125      -0.00151561      -0.05828199
C       -4.44464222       3.09736749      -1.44098326       0.00000000       0.00000000      -0.04770289       0.01577327       0.00541584      -0.11353244
C       -0.61186546       1.01288061      -2.92250031       0.00000000       0.00000000       0.04509895      -0.07897699      -0.01098983       0.25785822
O       -0.55174057       0.03895514      -2.14213966       0.00000000       0.00000000       0.02370617      -0.02249037       0.00819942      -0.39679587
N       -0.51596912       0.84901495      -4.24245051       0.00000000       0.00000000      -0.03603034      -0.02812413       0.06055754      -0.06378657
C       -0.85601358       1.85513855      -5.24072001       0.00000000       0.00000000      -0.00123505      -0.03729787       0.03845719      -0.02775154
C        0.30717090       2.42464573      -6.05307512       0.00000000       0.00000000      -0.01071831      -0.04059435      -0.07078531      -0.07346004
C        1.00170633       3.62742771      -5.42024997       0.00000000       0.00000000      -0.04592793      -0.02125955      -0.03323178      -0.06785494
C        0.09820959       4.82804571      -5.12579135       0.00000000       0.00000000      -0.03251383       0.05228650       0.00388446      -0.06835451
C        0.79748488       5.82088967      -4.19823709       0.00000000       0.00000000      -0.01934557       0.04068617       0.00816349      -0.05896031
C       -0.14440381       6.74354480      -3.42992389       0.00000000       0.00000000       0.00270826       0.01343638       0.03582970      -0.06188526
C        0.63897215       7.47854681      -2.34205354       0.00000000       0.00000000      -0.00193922      -0.02480422      -0.04623912      -0.05748206
C       -0.22807349       8.31421156      -1.40490418       0.00000000       0.00000000       0.04497312      -0.05082673      -0.05884059      -0.06251971
C        0.63296295       8.93926789      -0.30867080       0.00000000       0.00000000      -0.02316891      -0.01001763      -0.03144017      -0.05310067
C       -0.16548423       9.88181797       0.57741293       0.00000000       0.00000000      -0.01540809       0.01076469       0.01934399      -0.10822495
C       -0.14120379      -0.47403060      -4.77345442       0.00000000       0.00000000       0.02256242       0.09132024       0.03927349      -0.00641627
C       -1.11703734      -0.99340306      -5.83433599       0.00000000       0.00000000      -0.00779264      -0.01046492       0.07904715      -0.07541676
C       -1.47277925      -2.48197521      -5.78376723       0.00000000       0.00000000      -0.08663417      -0.05447433      -0.00491714      -0.06270477
C       -2.90057646      -2.66343106      -6.31273224       0.00000000       0.00000000      -0.05856487       0.00916951      -0.03704554      -0.06621749
C       -3.37361722      -4.11881783      -6.38941001       0.00000000       0.00000000       0.00279991       0.06000231      -0.04052998      -0.06558298
C       -4.86397421      -4.31158806      -6.04268973       0.00000000       0.00000000       0.03109563      -0.01165272      -0.06221465      -0.06325550
C       -5.04018249      -4.96351131      -4.67242051       0.00000000       0.00000000       0.01647110      -0.02739303       0.01097629      -0.05696305
C       -6.49276670      -5.24897510      -4.26207554       0.00000000       0.00000000      -0.05372004      -0.01421386      -0.03770679      -0.06862757
C       -6.82630035      -4.68498228      -2.87060597       0.00000000       0.00000000      -0.01283321      -0.02774123      -0.02629985      -0.05401295
C       -7.64550932      -3.40447437      -2.97816118       0.00000000       0.00000000      -0.00722385       0.02370877       0.00647400      -0.10744514
H        3.65785438      -0.34665468      -7.75977551       0.00000000       0.00000000      -0.02767644      -0.12199371      -0.01860521       0.03066771
H        3.09592258       1.29734189      -8.02901780       0.00000000       0.00000000      -0.06346138       0.06546660      -0.01148696       0.03319942
H        3.84635755       0.86499428      -6.49039135       0.00000000       0.00000000      -0.03567411      -0.05393775       0.00317333       0.01777927
H        5.19634067       1.01305271      -9.22074339       0.00000000       0.00000000      -0.01995024       0.00235599      -0.03819634       0.03990056
H        5.98863516       0.36425300      -7.78950222       0.00000000       0.00000000      -0.00858752       0.02078933      -0.02237986       0.03252368
H        4.80671664       3.16993189      -7.83049401       0.00000000       0.00000000       0.01717965      -0.06443556       0.01072166       0.03440676
H        6.45237539       2.84933763      -8.36571098       0.00000000       0.00000000      -0.00154869      -0.02916725      -0.02203005       0.03860046
H        7.05781057       1.87960785      -6.22839343       0.00000000       0.00000000      -0.01320574       0.05536264       0.01517541       0.02957738
H        5.40635125       2.02089944      -5.63898193       0.00000000       0.00000000       0.02529069       0.00644126       0.01815959       0.02593358
H        7.19244075       4.36762150      -6.38266939       0.00000000       0.00000000      -0.01009928       0.04604985      -0.03807570       0.04273408
H        7.00639443       3.74506943      -4.75906741       0.00000000       0.00000000      -0.00882297       0.00650749       0.00599519       0.03201588
H        4.85550410       5.02234572      -6.48914044       0.00000000       0.00000000      -0.04491956      -0.00095123      -0.04777146       0.04092695
H        5.64122444       5.75387863      -5.10574453       0.00000000       0.00000000       0.04476762       0.02696768       0.00986783       0.03860253
H        3.91864452       3.25421497      -4.92065113       0.00000000       0.00000000       0.00106912       0.06809700       0.05019567       0.03190531
H        3.29956747       4.89791514      -4.75369786       0.00000000       0.00000000       0.10760841      -0.01145046       0.03572910       0.03840004
H        4.68810634       5.29011403      -2.77778873       0.00000000       0.00000000      -0.01553882       0.01497331      -0.01516996       0.04319184
H        5.45579551       3.71758109      -2.97055555       0.00000000       0.00000000      -0.00670128       0.02377186       0.00348048       0.05300334
H        3.28358265       2.57336773      -2.56231543       0.00000000       0.00000000       0.05795746       0.06558025      -0.07106307       0.02389193
H        2.50038299       4.14715239      -2.53284747       0.00000000       0.00000000       0.02227793       0.01659703      -0.01017833       0.03333903
H        3.27412627       4.60597588      -0.32804532       0.00000000       0.00000000      -0.09088065      -0.01232382      -0.07215154       0.06280426
H        4.74463698       3.68992541      -0.58123352       0.00000000       0.00000000       0.02750708      -0.01286883       0.01866456       0.09628475
H        4.83568017       1.48360928      -0.51041678       0.00000000       0.00000000      -0.00698183       0.07626274       0.00654774       0.08291446
H        3.48710932       0.50814629       0.09382442       0.00000000       0.00000000      -0.01575552       0.02660410      -0.03088204       0.06569912
H        4.00203922       0.93882734       2.34434338       0.00000000       0.00000000       0.00316646       0.05216559       0.03576113       0.05517121
H        4.83430441       2.43613014       1.97953759       0.00000000       0.00000000       0.06703845       0.03930397      -0.00789034       0.05536360
H        6.44902486       0.76497980       2.66773240       0.00000000       0.00000000      -0.04654191      -0.07573308       0.15617772       0.05716803
H        6.73421266       1.24487325       1.01870522       0.00000000       0.00000000       0.01738958       0.08540028      -0.05320857       0.04659977
H        5.51779982      -0.87417877       0.28594437       0.00000000       0.00000000      -0.02608968      -0.01716660       0.04581132       0.01512811
H        5.63898930      -1.40509100       1.96576483       0.00000000       0.00000000       0.00558510       0.00435790      -0.02157237       0.03664200
H        8.05240623      -1.29823909       1.91459524       0.00000000       0.00000000      -0.03102250      -0.01920138       0.03411205       0.04396957
H        8.04955103      -0.39516196       0.41800728       0.00000000       0.00000000       0.02639301      -0.06607662       0.02267168       0.03988426
H        6.66398610      -2.91203355      -0.01646621       0.00000000       0.00000000       0.06272762      -0.05864607      -0.08692437       0.01685057
H        8.22852135      -3.24686283       0.70614763       0.00000000       0.00000000      -0.01400818      -0.02291123       0.00802049       0.04210810
H        9.41730099      -2.03435048      -0.99458327       0.00000000       0.00000000       0.04240334      -0.05570621      -0.04861302       0.04152991
H        7.93771828      -1.33991704      -1.61630639       0.00000000       0.00000000      -0.03643133       0.10702681       0.04912318       0.03686019
H        7.22871885      -3.66270304      -2.37346284       0.00000000       0.00000000      -0.02846349       0.03696736       0.09769674       0.01944480
H        8.88277760      -4.16091203      -2.09478815       0.00000000       0.00000000       0.03208677       0.03562236       0.01871711       0.04062051
H        9.68158470      -2.87647794      -3.90242627       0.00000000       0.00000000       0.03698973      -0.06872359       0.06480543       0.04308107
H        8.52590654      -1.59256086      -3.63818449       0.00000000       0.00000000      -0.01505565      -0.04167166       0.04848934       0.02895179
H        7.81579085      -4.28882531      -4.86701559       0.00000000       0.00000000       0.02617114      -0.08067453       0.02107572       0.03992871
H        8.08688374      -2.80422789      -5.76394426       0.00000000       0.00000000       0.03770199       0.03693123       0.02180169       0.04207125
H        6.72836004      -2.91958671      -4.64911714       0.00000000       0.00000000      -0.07280423      -0.03270500      -0.04301838       0.01797461
H        1.17039991       3.72052068      -1.33706775       0.00000000       0.00000000       0.08927595      -0.00169309      -0.03479483       0.06400797
H        0.24591965       5.26457613      -0.08610305       0.00000000       0.00000000      -0.09631136      -0.05078703       0.01032817       0.05889047
H       -0.99846267       4.10125234       0.41343745       0.00000000       0.00000000       0.08497062       0.03613811      -0.08465646       0.08775293
H        0.22699995       5.45053866       2.18352308       0.00000000       0.00000000       0.03258558      -0.03977808       0.07468929       0.06022424
H        1.59469983       4.35994532       1.97602174       0.00000000       0.00000000       0.01787755      -0.02285002      -0.07136545       0.03098481
H       -1.25821031       3.52109982       2.67688369       0.00000000       0.00000000      -0.06038079      -0.01077263       0.00730811       0.05292884
H        0.08138834       3.58492615       3.81032783       0.00000000       0.00000000       0.06741746       0.01568039       0.02356928       0.05492314
H        0.10849483       2.41668556       2.48513495       0.00000000       0.00000000       0.00446138      -0.08635543       0.03269901       0.05371993
H       -0.02046588       3.08464678      -2.84433106       0.00000000       0.00000000       0.04156438      -0.05621053      -0.01258704       0.07070933
H       -1.99901030       4.11551491      -2.14084622       0.00000000       0.00000000      -0.02922286      -0.01422011       0.00930639       0.06199479
H       -2.54594843       2.87212602      -3.27524071       0.00000000       0.00000000      -0.02713820       0.11999208       0.03867451       0.05184862
H       -2.71674158       2.67953242      -0.24553929       0.00000000       0.00000000       0.05601206       0.01429373       0.07015834       0.07392951
H       -3.12335467       1.39023524      -1.36335329       0.00000000       0.00000000       0.01692507      -0.10978681      -0.00844802       0.05326959
H       -4.41961353       4.15976220      -1.21715896       0.00000000       0.00000000       0.01844934       0.04362593       0.03102426       0.04830772
H       -5.16433202       2.62868485      -0.77916322       0.00000000       0.00000000      -0.02511555      -0.01745305       0.04937569       0.05789533
H       -4.79830129       2.98702145      -2.46404827       0.00000000       0.00000000      -0.01258635      -0.04492252      -0.00429364       0.04249497
H       -1.39038471       2.66276592      -4.75749366       0.00000000       0.00000000      -0.00261855       0.06561884       0.00334157       0.06521179
H       -1.55154440       1.38566009      -5.93510311       0.00000000       0.00000000      -0.00470758       0.04633147      -0.02996984       0.08876109
H       -0.09124742       2.71467712      -7.02582693       0.00000000       0.00000000       0.02216901       0.04631331       0.01202040       0.06633926
H        1.04872661       1.64286800      -6.22474097       0.00000000       0.00000000      -0.00926656       0.03289491      -0.05707886       0.05142352
H        1.79083847       3.94260941      -6.10227565       0.00000000       0.00000000      -0.01152740       0.02283115      -0.00981223       0.05770343
H        1.48733832       3.30520310      -4.49733184       0.00000000       0.00000000      -0.04172087      -0.06910013       0.03454293       0.02156667
H       -0.82637105       4.51191981      -4.63678174       0.00000000       0.00000000       0.03136980      -0.00165437      -0.03075941       0.02537612
H       -0.18501129       5.32183168      -6.05379363       0.00000000       0.00000000      -0.00195007      -0.01909861      -0.04129654       0.05024842
H        1.52268315       6.42084685      -4.74918640       0.00000000       0.00000000      -0.04123307      -0.00739910      -0.04464498       0.04257030
H        1.35561124       5.25224694      -3.45049159       0.00000000       0.00000000       0.00542977       0.02714165      -0.01244633       0.01502850
H       -0.93659046       6.14656343      -2.96677256       0.00000000       0.00000000      -0.00998354       0.04408711       0.00139105       0.02047546
H       -0.61694497       7.45919052      -4.10276451       0.00000000       0.00000000       0.01288637      -0.01835628       0.01846807       0.04611060
H        1.37904876       8.12801949      -2.81635003       0.00000000       0.00000000      -0.02221230      -0.03787279       0.03157932       0.04006097
H        1.19024012       6.73744988      -1.74671806       0.00000000       0.00000000      -0.02000784       0.07951369      -0.01934607       0.00935032
H       -1.00259740       7.68463833      -0.95535885       0.00000000       0.00000000       0.02588525       0.05008154      -0.00941203       0.02636859
H       -0.72694074       9.10126623      -1.97379483       0.00000000       0.00000000       0.02097703      -0.03038992       0.02903614       0.04345399
H        1.45287438       9.48992548      -0.77591372       0.00000000       0.00000000      -0.01491623      -0.00278771       0.03011444       0.03563406
H        1.07342797       8.14301930       0.30062829       0.00000000       0.00000000      -0.00598904       0.04409523      -0.00253955       0.01886164
H       -0.57660567      10.69759309      -0.01088427       0.00000000       0.00000000      -0.01084055       0.00742010       0.00060282       0.04385968
H        0.47079371      10.30378367       1.34885268       0.00000000       0.00000000       0.00969840       0.02888199       0.04586021       0.04276997
H       -0.98738488       9.35625642       1.05680323       0.00000000       0.00000000      -0.02482736      -0.00795820       0.01515430       0.03607224
H       -0.07697569      -1.15906746      -3.92422920       0.00000000       0.00000000      -0.02607212       0.06658664      -0.02933914       0.06561258
H        0.86081697      -0.36121154      -5.19721670       0.00000000       0.00000000       0.02692168      -0.08674845      -0.01081241       0.05680705
H       -0.74002667      -0.75053727      -6.82615652       0.00000000       0.00000000       0.02759696      -0.04079377      -0.02803190       0.05360094
H       -2.05628049      -0.46035979      -5.70281187       0.00000000       0.00000000      -0.02583225      -0.00768751       0.07095316       0.06129753
H       -1.44213967      -2.84298383      -4.75578265       0.00000000       0.00000000       0.07472179       0.00532270       0.01067983       0.02651891
H       -0.77602182      -3.07878799      -6.37246405       0.00000000       0.00000000       0.00413424       0.04246673      -0.00328301       0.04384764
H       -2.96532359      -2.21717615      -7.30582384       0.00000000       0.00000000      -0.01638613      -0.00665674      -0.01016922       0.04031998
H       -3.57200342      -2.10273225      -5.65985161       0.00000000       0.00000000       0.00741738      -0.04744949       0.00673995       0.03961876
H       -2.77031204      -4.71183789      -5.70252031       0.00000000       0.00000000      -0.03681138      -0.00375277      -0.00950870       0.03327517
H       -3.17798211      -4.49282334      -7.39278966       0.00000000       0.00000000       0.00462143      -0.06087108      -0.00985195       0.04041140
H       -5.34141812      -4.93764146      -6.79577471       0.00000000       0.00000000       0.00384339      -0.00809557      -0.00551033       0.04263239
H       -5.37469865      -3.34504751      -6.04799485       0.00000000       0.00000000      -0.01000204      -0.06502191      -0.05954267       0.03365230
H       -4.59628809      -4.29915457      -3.93006657       0.00000000       0.00000000       0.04144160       0.04825880       0.01459725       0.01882754
H       -4.47522291      -5.89571163      -4.65341981       0.00000000       0.00000000       0.04910253      -0.06559777      -0.01428952       0.02488381
H       -6.67909335      -6.32511070      -4.28742714       0.00000000       0.00000000       0.06606799       0.09599194       0.01804420       0.03744394
H       -7.17075501      -4.79746923      -4.98769711       0.00000000       0.00000000       0.00642020      -0.03106442      -0.01342670       0.04747695
H       -5.89947583      -4.48222506      -2.32582706       0.00000000       0.00000000      -0.04479389      -0.01012265       0.03464376       0.01665017
H       -7.37939471      -5.41633451      -2.28333583       0.00000000       0.00000000      -0.06079862      -0.02575711      -0.01564754       0.03759055
H       -7.22693521      -2.75074023      -3.73831248       0.00000000       0.00000000      -0.02760989       0.03489696      -0.02214855       0.03414185
H       -7.65954512      -2.86493722      -2.03611318       0.00000000       0.00000000      -0.04935448      -0.00803604       0.07585076       0.03372159
H       -8.66877800      -3.63076640      -3.26092458       0.00000000       0.00000000      -0.02914286      -0.01620851      -0.00320761       0.04455214
C        2.62397451      -4.07278543      -8.37567636       0.00000000       0.00000000       0.01150885       0.02221674       0.01306152      -0.09988468
C        1.99881658      -5.19181844      -9.20100077       0.00000000       0.00000000      -0.00305222      -0.00255038       0.02442072      -0.05692799
C        1.32428725      -6.26608560      -8.34682951       0.00000000       0.00000000      -0.02846444      -0.00804452       0.04066947      -0.06177405
C        0.10177627      -5.74567917      -7.58930856       0.00000000       0.00000000       0.00644243      -0.00305077      -0.01657713      -0.05699781
C       -0.69996095      -6.85173513      -6.89561298       0.00000000       0.00000000       0.00264538       0.03947120      -0.05199379      -0.06511469
C       -0.03013495      -7.44030680      -5.65402018       0.00000000       0.00000000       0.00463097      -0.02214430      -0.01150993      -0.06358710
C        0.09846555      -6.48370505      -4.46898489       0.00000000       0.00000000       0.02135520      -0.00184019       0.03121417      -0.05973172
C       -1.20675208      -6.17454164      -3.73093777       0.00000000       0.00000000       0.01699159       0.01965689       0.03349291      -0.06489664
C       -0.96714319      -5.01326360      -2.76440832       0.00000000       0.00000000      -0.04284324       0.04110094       0.02669657      -0.06442547
C       -2.18250140      -4.63074407      -1.89663770       0.00000000       0.00000000      -0.02247185      -0.10531536      -0.05686230      -0.02367097
N       -2.24392690      -3.21574181      -1.54316215       0.00000000       0.00000000      -0.00965884      -0.05857999       0.00686909      -0.06518780
C       -2.95665075      -2.29804392      -2.43866482       0.00000000       0.00000000      -0.03095581       0.05343311      -0.00724219      -0.00613609
C       -4.12069612      -1.50150019      -1.83821476       0.00000000       0.00000000       0.00603703       0.00980915       0.09789782      -0.06381386
C       -5.03387508      -0.93038837      -2.93290490       0.00000000       0.00000000       0.06594741      -0.08301310       0.03378724      -0.06922950
C       -4.37205116       0.06495141      -3.88998199       0.00000000       0.00000000       0.04482505      -0.01803248       0.02709984      -0.06267058
C       -5.25125286       0.31306449      -5.11984142       0.00000000       0.00000000       0.00932054       0.05857227       0.00482926      -0.06544455
C       -4.66838906       1.34011185      -6.11137676       0.00000000       0.00000000       0.00613986       0.03699495      -0.01178347      -0.06231552
C       -4.13176022       0.70183883      -7.39560614       0.00000000       0.00000000       0.00000132       0.04681142       0.01195018      -0.06612629
C       -3.57550762       1.71655398      -8.40017098       0.00000000       0.00000000      -0.02234085      -0.01124656       0.05381394      -0.06341257
C       -2.82229132       1.02281350      -9.54744945       0.00000000       0.00000000      -0.11592004       0.04365501       0.00690230      -0.05973446
C       -1.32280785       0.92861235      -9.29406155       0.00000000       0.00000000      -0.05275607       0.02306411       0.01496936      -0.10368839
C       -1.54890797      -2.70027865      -0.53918898       0.00000000       0.00000000      -0.09874284       0.03779414       0.09009241       0.26994446
O       -1.69201214      -1.51811161      -0.16837952       0.00000000       0.00000000      -0.07815317       0.08066968      -0.11727469      -0.39896045
C       -0.43114944      -3.51417488       0.11659953       0.00000000       0.00000000       0.06722134       0.00510536       0.03116990       0.08692212
C       -0.84228238      -4.39196813       1.31493619       0.00000000       0.00000000       0.01145300      -0.03574227       0.05561255      -0.06866081
C       -1.52325175      -3.74415353       2.52406175       0.00000000       0.00000000       0.01962864       0.06734262       0.05003224      -0.05638493
C       -0.51516078      -3.31539290       3.58156949       0.00000000       0.00000000       0.03421023       0.04686794       0.04460544      -0.11467530
O        0.57435038      -2.52897422       0.39198811       0.00000000       0.00000000       0.00357293       0.01932293       0.11039568      -0.23925605
C        1.92088895      -2.87307016       0.05375056       0.00000000       0.00000000       0.12051149       0.07688403      -0.01617822       0.08210426
C        2.74046481      -2.90341320       1.36161773       0.00000000       0.00000000      -0.05527015       0.02252532      -0.02283866      -0.06775682
C        2.63648947      -1.57925932       2.11905626       0.00000000       0.00000000       0.06055304       0.00284497      -0.00587807      -0.06871698
C        3.08842849      -1.68510021       3.57109931       0.00000000       0.00000000       0.00442857      -0.00032784       0.05182034      -0.11449446
C        2.40082795      -1.78742138      -0.94089346       0.00000000       0.00000000       0.05040720      -0.00759168      -0.05435928       0.25361363
O        1.74179089      -0.72399041      -0.96554927       0.00000000       0.00000000      -0.05354179       0.09417011       0.03431554      -0.41247633
N        3.45619918      -1.94742718      -1.74040293       0.00000000       0.00000000       0.01942446      -0.00998939       0.02057894      -0.06215434
C        4.28029435      -3.14783917      -1.80135455       0.00000000       0.00000000       0.03135754      -0.03344595      -0.00476434      -0.02987169
C        3.92903799      -4.17235094      -2.89524702       0.00000000       0.00000000       0.02078981       0.03535070       0.01102134      -0.07201524
C        2.89902187      -5.23130762      -2.49240251       0.00000000       0.00000000       0.06626986       0.04622440      -0.00601166      -0.06591467
C        3.30301794      -6.04530663      -1.26138735       0.00000000       0.00000000       0.00203816      -0.04792722       0.04147215      -0.06897763
C        2.14000168      -6.84262205      -0.67215190       0.00000000       0.00000000      -0.01435853      -0.03511519       0.03814362      -0.05718304
C        2.39420756      -7.25605016       0.77707261       0.00000000       0.00000000      -0.01162758      -0.00571613       0.01373308      -0.06192009
C        1.14763519      -7.90066625       1.37884569       0.00000000       0.00000000       0.03238487       0.02438981      -0.02793832      -0.06093487
C        1.27884808      -8.20855604       2.86863837       0.00000000       0.00000000      -0.02679265       0.00918671      -0.06511092      -0.06093728
C       -0.03448914      -8.77350103       3.40635458       0.00000000       0.00000000       0.01614086      -0.00693673       0.00232154      -0.05406702
C        0.06976757      -9.19388990       4.86492084       0.00000000       0.00000000       0.00353713      -0.00145210       0.01232812      -0.10721047
C        3.85078189      -0.82717559      -2.62580772       0.00000000       0.00000000       0.00578226      -0.08601837       0.00155669      -0.00727358
C        5.37477734      -0.60588576      -2.63372070       0.00000000       0.00000000      -0.09943236       0.04556790       0.01163188      -0.08015581
C        5.89843752       0.80659742      -2.97456731       0.00000000       0.00000000       0.04452579       0.04229577       0.04256507      -0.06830625
C        7.05327933       1.17989279      -2.02744743       0.00000000       0.00000000       0.00780907      -0.01560435       0.02741526      -0.06938587
C        7.77623694       2.51643193      -2.24425675       0.00000000       0.00000000      -0.02289792      -0.06672973      -0.03261946      -0.06489196
C        8.35941090       3.08967284      -0.94375021       0.00000000       0.00000000       0.01341670       0.03761304       0.00661563      -0.06449303
C        7.35161427       3.85710032      -0.08051309       0.00000000       0.00000000      -0.05423923       0.02763913      -0.01583894      -0.06125254
C        8.00570736       4.71298006       1.01858597       0.00000000       0.00000000       0.10081229       0.01124181      -0.09582076      -0.06761945
C        7.23480712       4.65626867       2.34196616       0.00000000       0.00000000       0.07117880       0.05227980      -0.09012219      -0.05356140
C        7.64257222       3.41724429       3.12446619       0.00000000       0.00000000      -0.01834997      -0.03057755       0.02094676      -0.11266713
H        3.17979510      -3.39705627      -9.02129377       0.00000000       0.00000000       0.00214123       0.00406919      -0.00051150       0.03481736
H        3.31159621      -4.48354538      -7.63800802       0.00000000       0.00000000      -0.00419464       0.00542315      -0.00569469       0.02949590
H        1.86179902      -3.49351454      -7.85750263       0.00000000       0.00000000       0.00606306      -0.00203385       0.00268457       0.02077159
H        2.78063225      -5.66305620      -9.79765707       0.00000000       0.00000000       0.01704413      -0.01852238      -0.00540693       0.03876919
H        1.27018901      -4.76666249      -9.89371439       0.00000000       0.00000000      -0.01715957       0.00112578      -0.00093793       0.03435209
H        2.05415436      -6.66802390      -7.64103721       0.00000000       0.00000000       0.00430213      -0.00412502      -0.00507632       0.03072488
H        1.01132732      -7.08319810      -8.99998018       0.00000000       0.00000000      -0.00389598       0.01642153       0.01010682       0.03799904
H       -0.55205739      -5.23799047      -8.30387642       0.00000000       0.00000000      -0.00422121      -0.03312748       0.02473756       0.03129473
H        0.42020785      -5.00500689      -6.85183184       0.00000000       0.00000000      -0.02494794      -0.02972607      -0.02926160       0.02192416
H       -0.85532360      -7.66347930      -7.60757701       0.00000000       0.00000000      -0.01567678       0.00615001      -0.02256860       0.04253967
H       -1.68459416      -6.46415660      -6.63284125       0.00000000       0.00000000       0.00385385      -0.02212968       0.01763437       0.03324735
H        0.97054301      -7.77250132      -5.92758176       0.00000000       0.00000000       0.06017470      -0.02395908      -0.01356664       0.04254562
H       -0.58304397      -8.32641066      -5.34147804       0.00000000       0.00000000      -0.06600365       0.00280573       0.04122090       0.03941677
H        0.54789927      -5.54629594      -4.80781402       0.00000000       0.00000000      -0.04023727      -0.02951452      -0.02256567       0.02975843
H        0.78560405      -6.93060281      -3.74823888       0.00000000       0.00000000       0.02629768      -0.02023562       0.00386343       0.03145257
H       -1.52628094      -7.05636589      -3.17418448       0.00000000       0.00000000      -0.03255827       0.01376211      -0.01425049       0.04483340
H       -1.99472356      -5.91938277      -4.43578022       0.00000000       0.00000000       0.00714113      -0.00582968      -0.01004879       0.04815526
H       -0.64346244      -4.13611362      -3.33031203       0.00000000       0.00000000      -0.03606076      -0.00675033      -0.03045599       0.03397420
H       -0.13191818      -5.31669601      -2.13257139       0.00000000       0.00000000      -0.02142299      -0.00612848      -0.00580269       0.03353442
H       -2.18777632      -5.22450582      -0.98127437       0.00000000       0.00000000      -0.04046142       0.00250655      -0.05536740       0.06093409
H       -3.09769512      -4.87442490      -2.43478564       0.00000000       0.00000000      -0.04574997       0.02874530      -0.05969060       0.08977036
H       -3.33327778      -2.88769019      -3.27255437       0.00000000       0.00000000       0.02104455      -0.05257985      -0.01051717       0.08100730
H       -2.21658321      -1.58653343      -2.81081259       0.00000000       0.00000000       0.06048684       0.04134189      -0.00023782       0.06486701
H       -3.73222119      -0.69609004      -1.21163189       0.00000000       0.00000000       0.00581833      -0.01999919       0.00507011       0.05564543
H       -4.70919026      -2.15598098      -1.19350737       0.00000000       0.00000000      -0.05040180      -0.02353167      -0.04156013       0.05324693
H       -5.88933294      -0.44773413      -2.45547366       0.00000000       0.00000000       0.05711514      -0.03736380      -0.01866599       0.05251191
H       -5.41767890      -1.76452308      -3.52013403       0.00000000       0.00000000       0.00300064      -0.02078771      -0.01432584       0.05127665
H       -3.40371893      -0.32204197      -4.20733455       0.00000000       0.00000000       0.00422905      -0.00333608      -0.00476687       0.01884061
H       -4.19132635       1.00808206      -3.37462724       0.00000000       0.00000000      -0.05217240      -0.02950879      -0.01543016       0.03184931
H       -6.22449693       0.65543596      -4.77143508       0.00000000       0.00000000      -0.05203322       0.02425487       0.00853948       0.04226195
H       -5.41322377      -0.63564856      -5.63711477       0.00000000       0.00000000      -0.01971153       0.05246760      -0.01135880       0.03680290
H       -3.87426307       1.91125174      -5.62026866       0.00000000       0.00000000      -0.00466489      -0.01924799      -0.02463670       0.01427804
H       -5.43763348       2.06011193      -6.39322902       0.00000000       0.00000000      -0.03414599      -0.03289795       0.01742893       0.04216290
H       -4.94341821       0.14770162      -7.87184588       0.00000000       0.00000000       0.02671115       0.01467259      -0.00485952       0.03981493
H       -3.34784814      -0.01510270      -7.15444293       0.00000000       0.00000000      -0.03501295       0.01233728      -0.00734326       0.02854618
H       -2.89661655       2.40979913      -7.89373379       0.00000000       0.00000000      -0.03942473      -0.00402494      -0.00011508       0.02390306
H       -4.40298880       2.30868900      -8.79573436       0.00000000       0.00000000       0.04038126      -0.04870564       0.00115434       0.03940133
H       -2.97771475       1.57155300     -10.47431215       0.00000000       0.00000000      -0.02260345       0.03845673      -0.04396705       0.04277963
H       -3.23629612       0.02295364      -9.69096004       0.00000000       0.00000000       0.00757537       0.00944606      -0.01153065       0.03724022
H       -1.12597683       0.49882814      -8.31676583       0.00000000       0.00000000       0.02959822      -0.03158176       0.01811405       0.02213391
H       -0.84248296       0.30642175     -10.04314058       0.00000000       0.00000000       0.00081384       0.00697065      -0.04661871       0.04095534
H       -0.87321965       1.91768864      -9.33056905       0.00000000       0.00000000       0.03016283       0.02152495      -0.00752263       0.03191810
H       -0.02446268      -4.19380006      -0.63151405       0.00000000       0.00000000       0.02257859      -0.08150994      -0.10649020       0.05606560
H       -1.50851507      -5.15542375       0.91017434       0.00000000       0.00000000       0.00473355      -0.04124635      -0.00510094       0.04685372
H        0.05706097      -4.90168115       1.66903648       0.00000000       0.00000000       0.01888689      -0.02602457      -0.03767202       0.07163151
H       -2.19355478      -4.48573050       2.96506379       0.00000000       0.00000000      -0.01406827       0.06538055      -0.03234677       0.05288276
H       -2.12606050      -2.88524039       2.22903647       0.00000000       0.00000000      -0.01178362       0.02732068      -0.07910439       0.05155587
H        0.04579232      -4.17388546       3.95045973       0.00000000       0.00000000      -0.00458756       0.02382127      -0.04278148       0.03829826
H       -1.02353949      -2.86078593       4.42749277       0.00000000       0.00000000      -0.03338600      -0.00924477      -0.03921018       0.05589168
H        0.16819584      -2.58138113       3.16675984       0.00000000       0.00000000      -0.00044250       0.01966208       0.03256704       0.05931601
H        1.95397803      -3.85994608      -0.41612237       0.00000000       0.00000000       0.00286566       0.04949595      -0.00661640       0.07778481
H        2.33249678      -3.70972154       1.97323489       0.00000000       0.00000000       0.00346806       0.00445941       0.04360815       0.07682414
H        3.78670810      -3.13347419       1.15037742       0.00000000       0.00000000      -0.02306120       0.00326804       0.05360685       0.05116459
H        1.60364525      -1.21012670       2.10111873       0.00000000       0.00000000       0.00188015       0.01246834      -0.00761219       0.10165606
H        3.26439913      -0.85138432       1.61306546       0.00000000       0.00000000       0.01238544       0.02530964      -0.04247801       0.05413640
H        2.40655007      -2.29230262       4.15961768       0.00000000       0.00000000       0.00416451      -0.05442528      -0.04962474       0.05608392
H        3.10833447      -0.69287955       4.01666611       0.00000000       0.00000000       0.02887407      -0.05339537       0.01458280       0.05256509
H        4.08358927      -2.11904544       3.64383333       0.00000000       0.00000000      -0.00647144       0.01636537       0.00013278       0.04795056
H        4.27108239      -3.63309208      -0.83057873       0.00000000       0.00000000      -0.03245903      -0.01521353       0.05642564       0.06271628
H        5.30380902      -2.82160586      -1.97687700       0.00000000       0.00000000      -0.04960757      -0.03703919       0.01672945       0.09196055
H        4.85730559      -4.68378752      -3.16275467       0.00000000       0.00000000      -0.06421816       0.00662487       0.02715116       0.06546940
H        3.57734773      -3.65343904      -3.78916417       0.00000000       0.00000000       0.01006428       0.01524296       0.03505685       0.04834311
H        2.76043634      -5.90489113      -3.33865385       0.00000000       0.00000000       0.06596184      -0.01560298       0.01953850       0.05696449
H        1.93248318      -4.75278887      -2.32323428       0.00000000       0.00000000       0.02056560       0.10166722       0.01364420       0.01651924
H        3.67462671      -5.38897343      -0.47003598       0.00000000       0.00000000       0.00149582      -0.02654368      -0.04284541       0.02609228
H        4.12057685      -6.71821529      -1.51672830       0.00000000       0.00000000      -0.00063324      -0.01751331      -0.03515244       0.05182428
H        1.93346396      -7.73084484      -1.26891745       0.00000000       0.00000000       0.03609661       0.01146075      -0.05446470       0.04339243
H        1.23268910      -6.22834551      -0.68804789       0.00000000       0.00000000       0.00820649      -0.00782653      -0.00712516       0.00849104
H        2.66607752      -6.36950912       1.36011015       0.00000000       0.00000000      -0.02155441      -0.03618445       0.01921274       0.02048538
H        3.23294651      -7.95125718       0.83184926       0.00000000       0.00000000      -0.02056163       0.01728466      -0.03812771       0.04463074
H        0.92793891      -8.82576695       0.83948929       0.00000000       0.00000000       0.00449947       0.05323417       0.03213708       0.03884273
H        0.29867882      -7.22395968       1.23077900       0.00000000       0.00000000      -0.00462974      -0.07528473       0.02154074       0.01901218
H        1.53771485      -7.29632425       3.41573876       0.00000000       0.00000000      -0.00379094      -0.05607696      -0.02198797       0.02604120
H        2.08289791      -8.93121907       3.02628610       0.00000000       0.00000000      -0.04538379       0.03904883      -0.01255226       0.04054920
H       -0.31924236      -9.63778092       2.80173127       0.00000000       0.00000000      -0.00987746       0.01092060       0.02408946       0.03452360
H       -0.81922188      -8.01832949       3.29661690       0.00000000       0.00000000       0.01276389      -0.04454565       0.01818742       0.02423588
H        0.83068181      -9.96095511       4.98744559       0.00000000       0.00000000       0.00064126       0.01263852      -0.00034283       0.04155617
H       -0.87885832      -9.59811056       5.20717260       0.00000000       0.00000000      -0.00141230       0.01068563       0.03458023       0.04275526
H        0.33302236      -8.34508377       5.49230194       0.00000000       0.00000000      -0.00605418      -0.01009433       0.00896256       0.03592103
H        3.32714570       0.05861543      -2.25478643       0.00000000       0.00000000       0.04698804      -0.06953988      -0.04595041       0.06556933
H        3.47472044      -1.04747955      -3.63215505       0.00000000       0.00000000       0.09467979       0.04496734       0.04318094       0.05562254
H        5.82547134      -1.31308863      -3.32614525       0.00000000       0.00000000       0.07978501       0.01116461      -0.02012777       0.06048132
H        5.72979362      -0.83608518      -1.63261728       0.00000000       0.00000000       0.03825428      -0.00977769       0.06589438       0.06216393
H        5.10827861       1.54785953      -2.87648502       0.00000000       0.00000000      -0.04966575      -0.06041925      -0.01634985       0.03361995
H        6.24480119       0.82918187      -4.00586869       0.00000000       0.00000000       0.03233243       0.02517256       0.01181565       0.05213336
H        7.81604960       0.40420417      -2.08565633       0.00000000       0.00000000      -0.02447071       0.00403305      -0.04233434       0.04152058
H        6.66407784       1.16461023      -1.01093106       0.00000000       0.00000000       0.02024082       0.00154843      -0.00825126       0.03585282
H        7.11860834       3.26191154      -2.68673400       0.00000000       0.00000000       0.01554462      -0.02202980       0.05049187       0.03506472
H        8.58808623       2.35493399      -2.95254168       0.00000000       0.00000000       0.04312771       0.03203421      -0.04440836       0.03945571
H        9.16317196       3.77777364      -1.20215059       0.00000000       0.00000000       0.04887960       0.00201683      -0.04512283       0.04582357
H        8.79357479       2.27488928      -0.35824487       0.00000000       0.00000000       0.06653816       0.07292497      -0.00993361       0.03388815
H        6.66884043       3.15590052       0.39861851       0.00000000       0.00000000       0.00087223      -0.02301663      -0.03939738       0.02666605
H        6.75382107       4.50964752      -0.72155693       0.00000000       0.00000000       0.05049525       0.03098331      -0.05318725       0.02156549
H        8.09982816       5.74520558       0.67156622       0.00000000       0.00000000      -0.05073363      -0.09198745       0.03039592       0.03515919
H        9.01566526       4.34643953       1.20895701       0.00000000       0.00000000       0.01706844       0.02959582      -0.02575519       0.04682403
H        6.15893277       4.65166737       2.15012662       0.00000000       0.00000000      -0.01976314       0.00293997      -0.02659692       0.01639307
H        7.44904969       5.54160078       2.93692550       0.00000000       0.00000000       0.04198244       0.07061179       0.01244107       0.04014184
H        7.63483408       2.55142515       2.47602078       0.00000000       0.00000000       0.04919015      -0.05231104      -0.00476552       0.03833726
H        6.97511494       3.22957179       3.95764854       0.00000000       0.00000000      -0.06320020       0.03643328       0.11725658       0.03190800
H        8.65001025       3.52563780       3.50848775       0.00000000       0.00000000       0.08195512       0.07546738       0.07504852       0.04369199
N       -1.68684635       0.11283581       1.94882717       0.00000000       0.00000000      -0.01305758       0.10006195       0.16153800       0.79846286
O       -2.65264890      -0.22684541       2.54538501       0.00000000       0.00000000      -0.09289094      -0.01410857      -0.11442634      -0.38649426
O       -0.58302441      -0.41408645       2.14966136       0.00000000       0.00000000       0.14798449      -0.06487388      -0.02510447      -0.45193151
O       -1.70931883       1.03277621       1.11673101       0.00000000       0.00000000      -0.07148071      -0.17177906      -0.06077273      -0.44954992
