161
Properties=species:S:1:pos:R:3:initial_charges:R:1:initial_magmoms:R:1:forces:R:3:charge:R:1 energy=-5390.429110399604 free_energy=-5390.429110399604 dipole="-0.5012284961572547 0.9273953851716779 0.8047947486925806" pbc="F F F"
Er      -0.07734687      -0.37830936      -0.17215614       3.00000000       0.00000000      -0.00322686       0.04159537      -0.08061978       0.85600806
C       -2.40155673      -6.35775302      -3.43065007       0.00000000       0.00000000       0.00614537      -0.00903396      -0.00750737      -0.10998621
C       -1.11687851      -6.10157171      -2.65086908       0.00000000       0.00000000      -0.00623494       0.00343313      -0.00203831      -0.05165172
C       -1.04297609      -6.88174711      -1.33587247       0.00000000       0.00000000       0.00398897       0.00078148       0.00784920      -0.06430896
C       -2.19204985      -6.60786131      -0.36288392       0.00000000       0.00000000       0.00546468      -0.03185032      -0.01097658      -0.06580982
C       -2.33065365      -5.12711088      -0.01667849       0.00000000       0.00000000       0.02058892      -0.03505057      -0.01631858      -0.06047938
C       -3.51021692      -4.85575919       0.91071424       0.00000000       0.00000000       0.00764858      -0.01331661       0.04022588      -0.07102168
C       -3.66906277      -3.36626173       1.22223202       0.00000000       0.00000000      -0.02626157       0.05426037      -0.02072757      -0.06251471
C       -4.17680241      -2.61330713      -0.00941897       0.00000000       0.00000000      -0.01839405       0.08423972      -0.02286170      -0.02303918
N       -4.18756864      -1.16137662       0.16477074       0.00000000       0.00000000       0.07187047       0.03653088       0.03288018      -0.03485584
C       -5.34496751      -0.60199756       0.85418128       0.00000000       0.00000000       0.00420880      -0.01407536      -0.00961235      -0.02333344
C       -6.42610479      -0.07214222      -0.07804744       0.00000000       0.00000000       0.01302600      -0.03452518       0.00379609      -0.13182397
C       -3.12864851      -0.48018114      -0.22889267       0.00000000       0.00000000       0.06006491      -0.06542045      -0.01324256       0.25712579
O       -2.07656562      -1.05770981      -0.61594116       0.00000000       0.00000000      -0.07961640      -0.00792793      -0.07173969      -0.38145031
C       -3.14188093       1.05352541      -0.26499964       0.00000000       0.00000000      -0.01273830      -0.06688628      -0.07425454       0.03307386
O       -1.80655373       1.53250528      -0.47349279       0.00000000       0.00000000       0.01991933      -0.06676367      -0.02114858      -0.22967466
C       -1.61118519       2.37703165      -1.61710830       0.00000000       0.00000000       0.02053524      -0.01133175      -0.00067068       0.03997720
C       -0.36923975       1.89328542      -2.37960490       0.00000000       0.00000000      -0.03912287       0.07608695       0.01221848       0.25310166
O        0.31110520       0.99817398      -1.81861325       0.00000000       0.00000000       0.06078986      -0.04845291       0.05558970      -0.39304147
N       -0.07180345       2.37393236      -3.57190722       0.00000000       0.00000000       0.02355526       0.01627527      -0.05378258      -0.03075492
C        0.88942335       1.63241618      -4.40779832       0.00000000       0.00000000      -0.04229170       0.05515850       0.01247634      -0.01484254
C        2.11005246       2.40589323      -4.88665039       0.00000000       0.00000000      -0.00890030      -0.01452996       0.02602733      -0.12666952
C       -0.74273258       3.52125492      -4.17938124       0.00000000       0.00000000      -0.03770762      -0.03615318      -0.01674772      -0.03154603
C       -0.44061971       4.87002145      -3.51188690       0.00000000       0.00000000      -0.04831951      -0.03528156      -0.05046317      -0.07600077
C        1.04191032       5.23860872      -3.51155691       0.00000000       0.00000000      -0.03406665      -0.02485376       0.00221560      -0.06518843
C        1.33159958       6.60211778      -2.87356186       0.00000000       0.00000000       0.03122559       0.00111811       0.00661952      -0.07021144
C        1.67566010       6.54131551      -1.38414305       0.00000000       0.00000000       0.00024337       0.02620898       0.01987557      -0.06508188
C        0.54274993       6.11896389      -0.44802904       0.00000000       0.00000000      -0.00629037       0.00959312      -0.00102973      -0.05426898
C       -0.67354453       7.03980825      -0.52489949       0.00000000       0.00000000      -0.01319589       0.00691062       0.01335472      -0.06288334
C       -1.74976012       6.63587845       0.47365151       0.00000000       0.00000000      -0.00092141       0.01033762       0.01156950      -0.10558611
H       -2.38480936      -5.83030846      -4.38238828       0.00000000       0.00000000       0.01601097      -0.02571449       0.00407196       0.03372760
H       -2.50598715      -7.41959113      -3.63269551       0.00000000       0.00000000      -0.00396204       0.00069679      -0.01425135       0.05537375
H       -3.27901269      -6.03116000      -2.87743409       0.00000000       0.00000000       0.02079914       0.01600603      -0.00788274       0.03414810
H       -0.26587090      -6.40019559      -3.26510975       0.00000000       0.00000000       0.00654159      -0.00983174      -0.02612579       0.03671721
H       -1.00900689      -5.02938100      -2.45172086       0.00000000       0.00000000       0.00591444       0.00949178      -0.00802443       0.00025789
H       -1.03533121      -7.94768743      -1.56731144       0.00000000       0.00000000      -0.00652938       0.02243907       0.02379378       0.05441133
H       -0.09673840      -6.64530154      -0.84203725       0.00000000       0.00000000       0.01555508      -0.00575477      -0.00771222       0.02684992
H       -3.12674648      -6.96567841      -0.79353958       0.00000000       0.00000000      -0.01346289       0.00804808      -0.00606174       0.05000326
H       -2.01616508      -7.18226458       0.54783366       0.00000000       0.00000000      -0.00619097       0.01566537       0.01364895       0.04316930
H       -1.40655357      -4.77209812       0.45010145       0.00000000       0.00000000       0.02545779       0.01738939       0.00069829       0.02243541
H       -2.47499601      -4.57261244      -0.94311456       0.00000000       0.00000000       0.03151231       0.02480017      -0.01871764       0.03158021
H       -4.42492405      -5.23223618       0.45267376       0.00000000       0.00000000      -0.02749840       0.01179044       0.00189674       0.05632409
H       -3.37056588      -5.39983256       1.84336572       0.00000000       0.00000000       0.03471690      -0.02951134       0.05384997       0.05861285
H       -4.36781742      -3.23614459       2.05017281       0.00000000       0.00000000      -0.01016459      -0.01032295       0.00561766       0.04964614
H       -2.69813156      -2.95694147       1.52293691       0.00000000       0.00000000       0.04801095       0.02023215      -0.04196921       0.03108195
H       -3.52910709      -2.83119589      -0.85996409       0.00000000       0.00000000      -0.03547004      -0.00187989       0.01377294       0.08698216
H       -5.19250455      -2.92805908      -0.24971504       0.00000000       0.00000000      -0.01518178      -0.00452865       0.01921245       0.09063411
H       -5.76700889      -1.40617963       1.45832699       0.00000000       0.00000000      -0.00862875      -0.02193187      -0.00627271       0.09612885
H       -5.01276596       0.18110756       1.54090515       0.00000000       0.00000000      -0.00462336      -0.00090897      -0.07906114       0.05748594
H       -6.79508776      -0.85677531      -0.73028877       0.00000000       0.00000000       0.01055553      -0.03683318      -0.02948850       0.07622422
H       -7.26078210       0.28036115       0.52095199       0.00000000       0.00000000       0.00642867       0.03784083      -0.03789038       0.09099714
H       -6.06463749       0.74708949      -0.68994798       0.00000000       0.00000000      -0.03047453       0.03484911      -0.00353834       0.05067199
H       -3.80386438       1.37211516      -1.07498714       0.00000000       0.00000000      -0.03137702       0.01224554      -0.00770110       0.09861579
H       -3.51480458       1.46830264       0.67588290       0.00000000       0.00000000      -0.00404921       0.03719395      -0.04601788       0.12094721
H       -2.48288223       2.33400291      -2.27684080       0.00000000       0.00000000       0.02187876       0.09849939      -0.05600334       0.09015770
H       -1.46707979       3.40586386      -1.26718671       0.00000000       0.00000000      -0.04856835       0.03672501       0.02154880       0.10670375
H        1.21075078       0.77208502      -3.81735007       0.00000000       0.00000000      -0.00656453      -0.01797106      -0.01770562       0.08059891
H        0.33393148       1.27893293      -5.28290395       0.00000000       0.00000000      -0.02469004       0.01232909       0.03696477       0.08018716
H        2.72544661       2.73493340      -4.05561998       0.00000000       0.00000000       0.00769050       0.00800586       0.01951129       0.05923611
H        2.70746930       1.75289774      -5.51837302       0.00000000       0.00000000      -0.01917375      -0.04122162       0.05641050       0.07817956
H        1.84398719       3.26732926      -5.48942579       0.00000000       0.00000000      -0.05360819       0.00935467       0.02528384       0.07606721
H       -0.41771543       3.56939124      -5.21787615       0.00000000       0.00000000       0.02406403      -0.03692240      -0.01262186       0.10010318
H       -1.82481246       3.35588640      -4.18142346       0.00000000       0.00000000       0.00746780      -0.01314539       0.01255802       0.06070549
H       -0.98769431       5.62343060      -4.07926549       0.00000000       0.00000000      -0.01557889       0.01869874      -0.01736583       0.07572649
H       -0.83105766       4.88637184      -2.49764607       0.00000000       0.00000000       0.01835772       0.02508963      -0.00407760       0.04521560
H        1.60885869       4.47345042      -2.97947610       0.00000000       0.00000000       0.02198580      -0.02312510       0.00894973       0.03029667
H        1.38898723       5.26209316      -4.54458341       0.00000000       0.00000000      -0.01458087       0.00387236       0.00538965       0.04894524
H        2.19617883       7.03445060      -3.37936186       0.00000000       0.00000000      -0.02758966       0.01851831       0.00760894       0.05541508
H        0.49148890       7.27566071      -3.04055524       0.00000000       0.00000000       0.04946532      -0.00059970      -0.00326979       0.05329237
H        2.51948487       5.85855651      -1.24609378       0.00000000       0.00000000      -0.00344257       0.01271602      -0.00513288       0.02553603
H        2.01149996       7.53292590      -1.07846030       0.00000000       0.00000000      -0.00699901       0.00898126      -0.00426820       0.05371097
H        0.24554168       5.08315273      -0.65297467       0.00000000       0.00000000       0.01950170      -0.00101481      -0.00691119      -0.00207900
H        0.92721334       6.13943293       0.57533112       0.00000000       0.00000000      -0.00356400       0.00460805      -0.00255483       0.03171114
H       -0.35536383       8.06173064      -0.32240899       0.00000000       0.00000000       0.00387498       0.01080640       0.02024110       0.05306466
H       -1.10129201       7.02351415      -1.52773304       0.00000000       0.00000000       0.00842998       0.00038407      -0.00647381       0.03541242
H       -1.37336097       6.70238210       1.49156505       0.00000000       0.00000000      -0.00019630      -0.00459025       0.00838393       0.03719414
H       -2.61442718       7.28878534       0.38887955       0.00000000       0.00000000       0.02729247      -0.00810625      -0.00312260       0.04917114
H       -2.07270321       5.61123360       0.29010410       0.00000000       0.00000000       0.00692906       0.01715486       0.01163741       0.01143582
C       -5.36670659       3.26486612       1.30817817       0.00000000       0.00000000      -0.03593812       0.01903888       0.00032952      -0.11555808
C       -4.09844263       4.07619185       1.54214646       0.00000000       0.00000000      -0.00352632       0.00993675       0.00896010      -0.05983893
C       -3.67183188       4.08762597       3.00992699       0.00000000       0.00000000       0.01484247       0.01156656       0.02516395      -0.07117573
C       -2.93814370       2.81401237       3.43377921       0.00000000       0.00000000       0.00971761       0.01476842       0.03563783      -0.05769878
C       -2.63104026       2.81391872       4.93236275       0.00000000       0.00000000      -0.01591432       0.00228854       0.01283405      -0.07732342
C       -1.81810355       1.59529785       5.38269168       0.00000000       0.00000000       0.00874093      -0.01276730      -0.00653069      -0.07343712
C       -0.31545760       1.81299592       5.18682440       0.00000000       0.00000000       0.03429772       0.00017897      -0.02703477      -0.08207914
C        0.55234767       0.54767038       5.19243623       0.00000000       0.00000000       0.00631934      -0.05683240       0.05625590      -0.03496928
N        0.37622851      -0.39686568       4.08662808       0.00000000       0.00000000       0.01341752       0.00549226      -0.06657859      -0.04264482
C       -0.04693869      -1.76266428       4.43676363       0.00000000       0.00000000      -0.02203072       0.01004015       0.03059181      -0.02021265
C       -1.48853133      -1.88625807       4.92275134       0.00000000       0.00000000       0.01934492      -0.02895285      -0.00961917      -0.12512954
C        0.72854417      -0.15480626       2.83145822       0.00000000       0.00000000      -0.09692392      -0.14658910      -0.02949552       0.25272231
O        0.55817969      -0.99325898       1.90641968       0.00000000       0.00000000       0.06420148       0.01001574       0.05810575      -0.38742660
C        1.31664607       1.20137091       2.42474246       0.00000000       0.00000000      -0.01276696      -0.02171173      -0.04077312       0.03799404
O        1.55377833       1.22395069       1.01944786       0.00000000       0.00000000      -0.11497612      -0.03137065      -0.10303492      -0.22772069
C        2.91399449       1.03813943       0.60358894       0.00000000       0.00000000      -0.03078651      -0.02238500      -0.02609441       0.03412369
C        3.03404400      -0.19454396      -0.29672284       0.00000000       0.00000000      -0.01249930      -0.03966905      -0.00994709       0.25431179
O        1.98689039      -0.82706186      -0.57770018       0.00000000       0.00000000      -0.05198840      -0.04800836       0.02204667      -0.36706897
N        4.19962544      -0.55243883      -0.79572987       0.00000000       0.00000000       0.00193849      -0.04624568      -0.00460305      -0.02757122
C        4.20262628      -1.64832756      -1.76948460       0.00000000       0.00000000      -0.00317290       0.00723108      -0.01368946      -0.01198659
C        3.81912925      -3.00395440      -1.18256348       0.00000000       0.00000000       0.02114550       0.01334508      -0.00611114      -0.12715812
C        5.47590354       0.06451601      -0.47394206       0.00000000       0.00000000      -0.02111827       0.04776979      -0.03578730      -0.02785705
C        6.43973213      -0.88083658       0.25668076       0.00000000       0.00000000      -0.00539631       0.03228706      -0.06377603      -0.07582273
C        5.86272084      -1.56100998       1.50531195       0.00000000       0.00000000       0.01679950      -0.02856646      -0.00723147      -0.06518308
C        6.26089762      -0.93978316       2.84879790       0.00000000       0.00000000      -0.00661269      -0.01111602       0.05177585      -0.07369652
C        5.40933392       0.25056659       3.30818627       0.00000000       0.00000000      -0.00289992       0.00973710       0.03692491      -0.05744831
C        5.96589665       1.60991821       2.87874823       0.00000000       0.00000000       0.02064242      -0.01577191       0.00768748      -0.07205976
C        5.06776993       2.80524291       3.21141262       0.00000000       0.00000000       0.01559222      -0.02392226       0.00481200      -0.05521198
C        4.80399073       2.96522484       4.70341931       0.00000000       0.00000000       0.00055790       0.01019741       0.00961986      -0.11149734
H       -5.58446397       3.17753363       0.24711287       0.00000000       0.00000000      -0.01569402       0.01747888      -0.01398682       0.03334064
H       -6.20931631       3.75900133       1.77964608       0.00000000       0.00000000      -0.03485980       0.02643616       0.01913672       0.06626391
H       -5.29448253       2.26703100       1.73506869       0.00000000       0.00000000      -0.02645726       0.01922620       0.02211400       0.01999799
H       -4.28514981       5.10138135       1.22720180       0.00000000       0.00000000      -0.02857639       0.01423455      -0.00862171       0.05893944
H       -3.27406238       3.69278375       0.93131287       0.00000000       0.00000000       0.00114368      -0.00877478      -0.00471180       0.00754365
H       -4.55630533       4.21682129       3.63262937       0.00000000       0.00000000       0.00477726       0.01864315       0.02361243       0.06104191
H       -3.01676690       4.94059188       3.18479322       0.00000000       0.00000000       0.01421594       0.01676006       0.02177641       0.04943248
H       -2.00686180       2.74094631       2.85357497       0.00000000       0.00000000      -0.02613786       0.00125173      -0.00211749       0.00564213
H       -3.57030436       1.94709349       3.21059139       0.00000000       0.00000000       0.00664541       0.01225338      -0.00052460       0.01580812
H       -3.57659021       2.82796940       5.47280952       0.00000000       0.00000000      -0.01778423       0.01421846      -0.00161292       0.06371190
H       -2.09472055       3.72552231       5.19568901       0.00000000       0.00000000      -0.01199042       0.00298931       0.01484606       0.05759905
H       -2.15937560       0.72114163       4.82775053       0.00000000       0.00000000      -0.00227547      -0.04398364      -0.00500185       0.02611129
H       -2.01578606       1.41142381       6.43871245       0.00000000       0.00000000       0.02050091      -0.03634774      -0.02643725       0.06457492
H        0.04708916       2.41952852       6.01711244       0.00000000       0.00000000       0.00689702       0.03543265      -0.00388669       0.08424249
H       -0.14835509       2.39740042       4.28354191       0.00000000       0.00000000      -0.02594607       0.01092766       0.01450742       0.03882341
H        0.33063913      -0.00702469       6.10462481       0.00000000       0.00000000       0.04099008       0.01158002       0.01125712       0.10309501
H        1.60029709       0.85570185       5.23671458       0.00000000       0.00000000       0.03507059      -0.03555485      -0.02039970       0.07192868
H        0.61832837      -2.13515848       5.22194034       0.00000000       0.00000000      -0.00275260       0.07342336      -0.05408360       0.09139369
H        0.09890310      -2.37848500       3.54655408       0.00000000       0.00000000       0.00570337      -0.00435822       0.02249162       0.08722297
H       -1.65231047      -1.37342963       5.86622040       0.00000000       0.00000000       0.05172755       0.02262172      -0.01318297       0.07975924
H       -1.70387131      -2.93997330       5.08413383       0.00000000       0.00000000       0.04337734       0.01009965       0.02052442       0.08676115
H       -2.21161911      -1.51721283       4.19584519       0.00000000       0.00000000       0.02168144      -0.02901728       0.03708759       0.03350604
H        2.22660519       1.42365515       2.99149783       0.00000000       0.00000000       0.02303248      -0.00885777       0.05849259       0.10478202
H        0.59352016       2.00267167       2.60528960       0.00000000       0.00000000      -0.02216343       0.03397249       0.02933340       0.11086895
H        3.56789378       0.94030650       1.47099007       0.00000000       0.00000000       0.07276285      -0.02460646       0.05059035       0.11126321
H        3.20126437       1.93277876       0.03863910       0.00000000       0.00000000       0.00403285       0.02775685      -0.06040855       0.10340563
H        5.19972680      -1.69656978      -2.20396174       0.00000000       0.00000000      -0.00502822      -0.02282257       0.01014856       0.09233287
H        3.49043290      -1.37681553      -2.55572577       0.00000000       0.00000000       0.00081859      -0.00780043      -0.01889629       0.06572112
H        4.52529929      -3.31067590      -0.41841129       0.00000000       0.00000000       0.04782886      -0.01471178      -0.01394547       0.07453298
H        3.83076738      -3.74408015      -1.97816714       0.00000000       0.00000000       0.03230215      -0.00837647       0.02887137       0.07511067
H        2.82264122      -2.98016149      -0.74309960       0.00000000       0.00000000       0.01722454       0.00646341      -0.01627530       0.06089667
H        5.29701707       0.95550461       0.12288283       0.00000000       0.00000000       0.01117428      -0.01145148       0.00472055       0.06506131
H        5.94751714       0.38021524      -1.40853823       0.00000000       0.00000000      -0.01828722       0.00144434      -0.03774713       0.08284002
H        7.31372873      -0.28694092       0.52479379       0.00000000       0.00000000       0.01617559      -0.04244826       0.03053373       0.07985708
H        6.78873395      -1.64351685      -0.44034897       0.00000000       0.00000000      -0.06951355       0.00785737       0.00121916       0.06351454
H        6.22547924      -2.59015041       1.51011201       0.00000000       0.00000000       0.01164311       0.02648604       0.03677503       0.05630854
H        4.77104002      -1.61263970       1.43851391       0.00000000       0.00000000       0.02847777       0.00304042       0.00313356       0.02171860
H        7.31080753      -0.64433253       2.82147836       0.00000000       0.00000000      -0.05139101      -0.04051819       0.01250159       0.06070405
H        6.16835712      -1.72631353       3.60025074       0.00000000       0.00000000       0.02437451       0.02889801       0.00107443       0.05117585
H        5.36124337       0.23334561       4.39780005       0.00000000       0.00000000       0.03720209       0.02143693      -0.00914208       0.04840146
H        4.38164068       0.10610715       2.94925287       0.00000000       0.00000000       0.01345421       0.00888891       0.03145823      -0.00637673
H        6.17742828       1.61746638       1.80770880       0.00000000       0.00000000      -0.01869469      -0.01154100       0.01669336       0.02586061
H        6.92031228       1.75201722       3.38489791       0.00000000       0.00000000       0.01768828       0.01423570       0.03060612       0.06119841
H        4.11045826       2.73439654       2.67977147       0.00000000       0.00000000       0.01955177      -0.01506824      -0.01483338      -0.00573803
H        5.56647103       3.70428384       2.84545576       0.00000000       0.00000000      -0.02283965       0.00929039       0.02859587       0.05010097
H        4.24850799       2.12249051       5.11039723       0.00000000       0.00000000      -0.00319943      -0.01768810      -0.00996284       0.02148312
H        4.23282497       3.87034009       4.89094574       0.00000000       0.00000000       0.00649905       0.02475836       0.00763651       0.04398062
H        5.74433941       3.04071337       5.23937282       0.00000000       0.00000000       0.01114683       0.01182787       0.02827340       0.06174175
O       -1.83819001       0.02160693       1.97494458       0.00000000       0.00000000       0.05795377       0.00006008      -0.03331977      -0.53923589
H       -1.99120596      -0.80844786       2.45339145       0.00000000       0.00000000      -0.00941268       0.04770886      -0.02837778       0.33571103
H       -1.97709206       0.73923090       2.61814051       0.00000000       0.00000000      -0.02579200       0.00635110      -0.03281828       0.34050246
O        0.06088746      -1.81345058      -2.30793743       0.00000000       0.00000000      -0.05388656       0.02821146       0.18816743      -0.48201979
H        0.86796206      -2.24188661      -2.62789542       0.00000000       0.00000000      -0.02771160      -0.02150680       0.03356318       0.35499365
H       -0.65791053      -2.13809612      -2.86830631       0.00000000       0.00000000       0.01505344      -0.04841113       0.01832844       0.34891126
