149
Properties=species:S:1:pos:R:3:initial_charges:R:1:initial_magmoms:R:1:forces:R:3:charge:R:1 energy=-5046.420518490426 free_energy=-5046.420518490426 dipole="-0.2115501047662354 0.3532036093804196 -0.8753576052670807" pbc="F F F"
Er       0.11096828      -0.03473517      -0.01080288       3.00000000       0.00000000      -0.06989460       0.01155853      -0.00682359       0.84986611
C        4.93161738       3.97408710      -4.39056457       0.00000000       0.00000000      -0.01298262      -0.00034585       0.01557325      -0.10864720
C        5.60811214       2.91440156      -3.52993761       0.00000000       0.00000000      -0.01909277      -0.00650616       0.03060478      -0.06389303
C        4.76302153       2.53965277      -2.31157589       0.00000000       0.00000000      -0.00661780      -0.03474353       0.03493580      -0.06113995
C        5.41960089       1.47848798      -1.42008903       0.00000000       0.00000000       0.01183319      -0.00081753      -0.00535631      -0.07256580
C        5.65770598       0.11209671      -2.08082025       0.00000000       0.00000000       0.01343440       0.02522933      -0.02563993      -0.03075832
C        6.84961531      -0.62692447      -1.43723052       0.00000000       0.00000000      -0.02258606       0.01500360      -0.01564799      -0.06934576
C        6.76379778      -0.80061325       0.07372383       0.00000000       0.00000000      -0.02215836      -0.00204095      -0.02060610      -0.11634478
C        4.41465887      -0.79488100      -2.07373624       0.00000000       0.00000000      -0.00559680       0.00104717      -0.00960211      -0.02621282
N        3.30815002      -0.27594070      -2.87890944       0.00000000       0.00000000       0.01795037      -0.00215807      -0.06307001      -0.01253825
C        3.52169565      -0.08866456      -4.29877113       0.00000000       0.00000000       0.00255836       0.00451136      -0.05657515      -0.08571084
C        2.12895109      -0.08724475      -2.32482019       0.00000000       0.00000000      -0.03242935      -0.02705698       0.03663825       0.25414938
O        1.85673126      -0.47285602      -1.16134732       0.00000000       0.00000000      -0.02382596       0.03558992      -0.05292269      -0.36627853
C        1.04176705       0.67549642      -3.10920287       0.00000000       0.00000000      -0.01640613      -0.05708454       0.00625624       0.03655141
O       -0.07363672       0.80884602      -2.22789363       0.00000000       0.00000000       0.04213000       0.03822611       0.03104188      -0.21996853
C       -0.98176669       1.88352456      -2.48288774       0.00000000       0.00000000       0.00261288      -0.01753486       0.00224303       0.03526993
C       -1.37144177       2.47354121      -1.10502758       0.00000000       0.00000000      -0.06802363       0.16011529      -0.09252237       0.25145288
O       -0.88500806       1.93242405      -0.08340061       0.00000000       0.00000000       0.09026193      -0.01654663       0.00935786      -0.37720262
N       -2.11646037       3.56496121      -1.03367463       0.00000000       0.00000000       0.03235156      -0.06237782      -0.03641021      -0.02833106
C       -3.03214774       4.02686489      -2.05562671       0.00000000       0.00000000      -0.02202322       0.00789639      -0.07728440      -0.08573296
C       -2.03726166       4.38052816       0.18143634       0.00000000       0.00000000      -0.02548354      -0.01829503      -0.02880897      -0.02750987
C       -0.69115575       5.13053374       0.22960624       0.00000000       0.00000000       0.03806089       0.02367039      -0.02006386      -0.02295447
C       -0.51692255       5.85320610       1.56887826       0.00000000       0.00000000      -0.00113343      -0.00479263       0.01158694      -0.07065124
C       -0.37293242       4.92978411       2.77352397       0.00000000       0.00000000      -0.00780009      -0.01519045      -0.01195350      -0.11105876
C       -0.59390918       6.13270227      -0.93192342       0.00000000       0.00000000       0.01243474       0.00787423      -0.01710851      -0.07597017
C        0.80059268       6.70502808      -1.20989157       0.00000000       0.00000000      -0.02080869       0.01373256       0.01085402      -0.06869028
C        1.85326178       5.67102144      -1.61070495       0.00000000       0.00000000      -0.00555821       0.01470953       0.03813765      -0.05483354
C        1.48457103       4.89752080      -2.87123044       0.00000000       0.00000000       0.00961453      -0.00605023       0.03028678      -0.10784364
H        5.56856652       4.23718704      -5.22872948       0.00000000       0.00000000      -0.00352478       0.00637059      -0.00824490       0.06055000
H        4.73523148       4.87695129      -3.81888103       0.00000000       0.00000000       0.04411121       0.02935014       0.02810930       0.04400210
H        3.98301619       3.61178645      -4.78691457       0.00000000       0.00000000       0.01277706      -0.02285384      -0.04277627       0.01689902
H        6.57064848       3.28810483      -3.18097315       0.00000000       0.00000000      -0.00104365       0.02688300      -0.03220247       0.05521356
H        5.80099503       2.03508156      -4.14584462       0.00000000       0.00000000       0.01125856       0.03754927      -0.01575751       0.03480606
H        3.77235952       2.20441391      -2.63539037       0.00000000       0.00000000      -0.00404958       0.01356789       0.01899300      -0.00254569
H        4.62506014       3.44468410      -1.71202232       0.00000000       0.00000000      -0.01472291      -0.03009067      -0.00957978       0.03574415
H        4.81918757       1.34597917      -0.51483986       0.00000000       0.00000000       0.00804904      -0.03149337      -0.02383923       0.02129748
H        6.38944317       1.87452500      -1.11634725       0.00000000       0.00000000      -0.00736745      -0.01418228       0.01548687       0.06783905
H        5.94577726       0.28580824      -3.11836416       0.00000000       0.00000000       0.02617900      -0.00342157      -0.02077619       0.05895778
H        7.75577184      -0.06504769      -1.66679636       0.00000000       0.00000000      -0.01745372       0.02659783      -0.00547598       0.06276402
H        6.95690560      -1.60449226      -1.90985417       0.00000000       0.00000000      -0.02324858      -0.01289326       0.00561134       0.04755591
H        6.73936797       0.16497815       0.56990312       0.00000000       0.00000000      -0.00808329      -0.02059983       0.00384716       0.04519681
H        7.64230947      -1.32906263       0.43284002       0.00000000       0.00000000      -0.00595098      -0.01695874      -0.04932266       0.06070918
H        5.88701061      -1.37572389       0.36050651       0.00000000       0.00000000      -0.01190468      -0.00088586       0.00256187       0.03069396
H        4.03460974      -0.91228486      -1.05860621       0.00000000       0.00000000       0.02175562      -0.02440393       0.02921813       0.08860125
H        4.69563860      -1.77793817      -2.45788073       0.00000000       0.00000000      -0.02438899      -0.02280542      -0.03344659       0.08447258
H        4.52582895      -0.41591374      -4.55270512       0.00000000       0.00000000      -0.00401056       0.00260389       0.00129755       0.11726410
H        3.41222729       0.95397714      -4.59841016       0.00000000       0.00000000       0.04040435      -0.01459581      -0.00483631       0.08778359
H        2.81716685      -0.69532533      -4.86922317       0.00000000       0.00000000       0.00381510       0.01887790      -0.03355793       0.07892950
H        0.73905021       0.12049106      -4.00468353       0.00000000       0.00000000       0.02394941      -0.06264522      -0.10186643       0.09960709
H        1.42453674       1.65838941      -3.41683535       0.00000000       0.00000000       0.01363382      -0.00835685       0.04072983       0.09624832
H       -1.83580697       1.50055404      -3.04987316       0.00000000       0.00000000      -0.09884187       0.01815952      -0.02360835       0.09397402
H       -0.50252673       2.67695618      -3.06910889       0.00000000       0.00000000       0.02836247      -0.01399333      -0.00827090       0.09863120
H       -3.00700137       3.38894136      -2.93235260       0.00000000       0.00000000       0.02647579       0.02384609      -0.05896229       0.07181670
H       -2.81340185       5.05391126      -2.34941027       0.00000000       0.00000000       0.02597439      -0.04896958      -0.01703273       0.11041130
H       -4.05025378       4.02039234      -1.65472763       0.00000000       0.00000000       0.08072110      -0.02787743       0.03293382       0.10065976
H       -2.12183542       3.72420693       1.04717867       0.00000000       0.00000000      -0.00878035      -0.00971285       0.04330223       0.08250513
H       -2.86117632       5.09246114       0.17978764       0.00000000       0.00000000      -0.00776844      -0.04264118      -0.00871598       0.08896855
H        0.09657208       4.37524094       0.13344261       0.00000000       0.00000000       0.02096314      -0.00498817       0.01197707       0.03557525
H       -1.35788007       6.52967820       1.72249529       0.00000000       0.00000000      -0.01003109      -0.00584041       0.03044939       0.05517461
H        0.38271757       6.46467849       1.49847278       0.00000000       0.00000000      -0.01814306       0.00045390       0.02942227       0.06441941
H       -1.30316652       4.41637365       3.00473662       0.00000000       0.00000000      -0.00654979       0.00345849      -0.00763791       0.03123633
H       -0.09581977       5.51706231       3.64472354       0.00000000       0.00000000      -0.00176802      -0.02707646      -0.00824004       0.06268656
H        0.40272562       4.18388829       2.60082047       0.00000000       0.00000000      -0.00834199       0.00584134      -0.00762444       0.02599524
H       -1.26483576       6.96713078      -0.71911825       0.00000000       0.00000000       0.01492456      -0.01117254      -0.02374388       0.05508328
H       -0.93055152       5.66178318      -1.85473315       0.00000000       0.00000000      -0.00833214       0.01241146       0.01142946       0.03144279
H        1.16135487       7.25868892      -0.34395574       0.00000000       0.00000000       0.00960051      -0.00699400       0.00256440       0.05128852
H        0.69841727       7.41993660      -2.02808285       0.00000000       0.00000000       0.00941938       0.01900056       0.02900652       0.05865814
H        2.02216382       4.97504119      -0.78322997       0.00000000       0.00000000       0.01232163      -0.02196059       0.01712707       0.00910737
H        2.79121371       6.19858115      -1.78387586       0.00000000       0.00000000       0.00958832       0.00033157      -0.00695763       0.05328446
H        0.58894903       4.30143945      -2.70637963       0.00000000       0.00000000      -0.01636066       0.00573857       0.00395128       0.00535376
H        2.29642169       4.23472235      -3.15916743       0.00000000       0.00000000       0.02658204       0.01177861      -0.02670525       0.03135394
H        1.29218190       5.58176097      -3.69313902       0.00000000       0.00000000       0.03159098       0.00363980       0.01347752       0.05806553
C        3.24556757      -5.34582308       0.86348596       0.00000000       0.00000000      -0.01416751       0.01010793       0.00102324      -0.11257058
C        2.85451341      -4.04695470       1.55836884       0.00000000       0.00000000      -0.00993242       0.01879282       0.02700824      -0.04798366
C        3.26562043      -4.07910106       3.02958578       0.00000000       0.00000000       0.00003411       0.01297271       0.02760146      -0.06915960
C        2.76221799      -2.88374698       3.84263372       0.00000000       0.00000000      -0.00751666      -0.01709255      -0.01152325      -0.06676599
C        3.28709087      -1.52100189       3.37023238       0.00000000       0.00000000      -0.00826777      -0.04367707      -0.01073444      -0.02522127
C        4.80478582      -1.41971525       3.58154704       0.00000000       0.00000000      -0.01118387       0.01429189       0.00817746      -0.07111772
C        5.39690919      -0.05688495       3.23848500       0.00000000       0.00000000      -0.03404441       0.02488559       0.01794634      -0.11549632
C        2.59040602      -0.38348156       4.13756541       0.00000000       0.00000000      -0.00258270      -0.00517621       0.00853772      -0.02674560
N        1.12823417      -0.47206932       4.17546474       0.00000000       0.00000000       0.01022137       0.01275874       0.04443535      -0.01458512
C        0.55636688      -0.50418221       5.50427195       0.00000000       0.00000000      -0.03806342      -0.00591651       0.02124509      -0.08836717
C        0.44758226      -0.43498316       3.05218321       0.00000000       0.00000000      -0.00467621       0.01054355      -0.02113129       0.24981369
O        1.01232646      -0.28655091       1.93821578       0.00000000       0.00000000      -0.12262264       0.04642575      -0.04277120      -0.37363031
C       -1.09061440      -0.52934981       3.07381624       0.00000000       0.00000000       0.02007799      -0.01373258      -0.02232865       0.03644791
O       -1.59551724      -0.62415198       1.73553852       0.00000000       0.00000000       0.06255138      -0.02514119      -0.03461470      -0.22067564
C       -2.33859279      -1.80154354       1.40445423       0.00000000       0.00000000       0.03785731      -0.02093100       0.01774354       0.03452036
C       -1.65333403      -2.54882018       0.24164393       0.00000000       0.00000000      -0.08016341      -0.07141614       0.01083943       0.25336725
O       -0.52338728      -2.15335748      -0.12290459       0.00000000       0.00000000       0.05430670       0.05634082       0.03478135      -0.36591460
N       -2.28419429      -3.57670720      -0.30476767       0.00000000       0.00000000       0.00188675       0.05639529      -0.03257864      -0.02149377
C       -3.62874613      -3.93780559       0.11125423       0.00000000       0.00000000      -0.01952939      -0.00734758      -0.00073619      -0.08608355
C       -1.58805971      -4.47700406      -1.23354564       0.00000000       0.00000000       0.01925104       0.01871719      -0.00839421      -0.03039636
C       -1.59611097      -4.16252430      -2.74645082       0.00000000       0.00000000      -0.00264557       0.02797021      -0.00625232      -0.03283382
C       -0.54612226      -3.11319241      -3.14808533       0.00000000       0.00000000      -0.01189620       0.01711087       0.02007524      -0.06222607
C        0.88563723      -3.60082474      -2.93448884       0.00000000       0.00000000      -0.00000035       0.01458386      -0.00302279      -0.11543023
C       -2.98227969      -3.87728268      -3.35570252       0.00000000       0.00000000       0.01363623      -0.00385947       0.00655478      -0.07754056
C       -3.47695297      -2.43590601      -3.23667494       0.00000000       0.00000000       0.02004663      -0.02667459       0.02889930      -0.06475381
C       -4.80014466      -2.18919086      -3.96921245       0.00000000       0.00000000       0.00679371      -0.01418028       0.02367697      -0.06278699
C       -5.99628522      -2.79554796      -3.24732735       0.00000000       0.00000000      -0.00572796      -0.00945544       0.00915932      -0.11354947
H        2.95998654      -5.33155733      -0.18502708       0.00000000       0.00000000      -0.00357442       0.00681104      -0.03370685       0.03287420
H        2.76372402      -6.19496409       1.34004962       0.00000000       0.00000000      -0.02540601      -0.00794436      -0.00158697       0.04794896
H        4.31969289      -5.49742369       0.92428802       0.00000000       0.00000000       0.00438583       0.01400217      -0.01324887       0.05211299
H        1.77176076      -3.89167463       1.48625967       0.00000000       0.00000000      -0.01365602      -0.00960030      -0.02501876       0.01106216
H        3.33707577      -3.20780197       1.05124873       0.00000000       0.00000000       0.00816682      -0.01013569      -0.01888105       0.02210964
H        4.35037413      -4.15013332       3.09825494       0.00000000       0.00000000      -0.00128879      -0.00255022       0.00683361       0.05294173
H        2.85841344      -4.98503021       3.48358298       0.00000000       0.00000000       0.00534028       0.01321227      -0.00662144       0.05212625
H        3.05326859      -3.02958684       4.88561297       0.00000000       0.00000000      -0.02693475      -0.00159985      -0.02419508       0.04968041
H        1.66842986      -2.88401729       3.79154877       0.00000000       0.00000000       0.00622344      -0.00441027       0.01138322       0.01433309
H        3.06543797      -1.40611335       2.30342349       0.00000000       0.00000000      -0.00141103       0.01570321       0.00373141       0.05017823
H        5.28687517      -2.17354598       2.95949406       0.00000000       0.00000000      -0.02037421       0.02243308      -0.00449675       0.06056406
H        5.03891098      -1.65817974       4.61953292       0.00000000       0.00000000       0.00247737       0.00173656       0.00687454       0.05541509
H        5.03765349       0.28998179       2.27121056       0.00000000       0.00000000       0.01449771      -0.02157249      -0.01591242       0.02266583
H        6.48015804      -0.12881059       3.19725466       0.00000000       0.00000000      -0.03412491      -0.00252144      -0.00514888       0.06476943
H        5.14759531       0.68804421       3.98822966       0.00000000       0.00000000       0.00399082       0.02272719       0.03296808       0.03972638
H        2.85289067       0.57154826       3.67831337       0.00000000       0.00000000       0.01592128       0.03077986       0.01095174       0.07494945
H        2.93807597      -0.39208979       5.16955709       0.00000000       0.00000000       0.01609632       0.02124699      -0.00703234       0.09307178
H        0.89020619      -1.39858327       6.03394190       0.00000000       0.00000000      -0.00373654       0.02838883      -0.02637443       0.11057801
H       -0.52741616      -0.48354268       5.48757714       0.00000000       0.00000000      -0.01717786      -0.03210654       0.01976840       0.07610361
H        0.90082865       0.37271721       6.05740207       0.00000000       0.00000000       0.00658347      -0.05775460       0.00950277       0.10673325
H       -1.48551950       0.39697629       3.51369455       0.00000000       0.00000000      -0.06591552       0.00337452      -0.03369512       0.10847901
H       -1.42240047      -1.38011843       3.67467020       0.00000000       0.00000000       0.01616889      -0.02666800       0.01321167       0.09501340
H       -3.35859490      -1.50299472       1.13102279       0.00000000       0.00000000       0.02854643       0.05798946       0.02400790       0.10165489
H       -2.40420940      -2.47618105       2.26371390       0.00000000       0.00000000      -0.00364921      -0.06735485       0.02058885       0.09832942
H       -4.33391818      -3.13429614      -0.10690929       0.00000000       0.00000000      -0.02097749      -0.02782217       0.01624353       0.07876957
H       -3.67550673      -4.15952702       1.17842991       0.00000000       0.00000000       0.02313947      -0.03269942      -0.02116010       0.08200469
H       -3.96057932      -4.82254899      -0.42661908       0.00000000       0.00000000       0.07404894       0.03241494      -0.01597124       0.11637785
H       -2.01784299      -5.46902305      -1.08768680       0.00000000       0.00000000      -0.02494692       0.05558771       0.01812512       0.08878643
H       -0.54427674      -4.51422530      -0.92189565       0.00000000       0.00000000       0.04221039       0.00203788       0.05876212       0.09155150
H       -1.26831206      -5.10126671      -3.20953530       0.00000000       0.00000000       0.00681447       0.00026992       0.08885556       0.07649742
H       -0.68839920      -2.18076915      -2.58540776       0.00000000       0.00000000       0.01549821       0.02718613       0.00527306       0.03332849
H       -0.68648233      -2.91027878      -4.21287792       0.00000000       0.00000000       0.01179374       0.02697825       0.03799235       0.05214759
H        1.14334849      -3.62954667      -1.87866973       0.00000000       0.00000000       0.00683832       0.01006142       0.01378833       0.04624586
H        1.59161688      -2.93513234      -3.42441702       0.00000000       0.00000000      -0.00145743       0.03717710      -0.02522717       0.03220965
H        1.01634460      -4.59251810      -3.35898379       0.00000000       0.00000000       0.00931240      -0.00603684       0.01232519       0.06325769
H       -3.71146917      -4.55479391      -2.91118238       0.00000000       0.00000000       0.01570772       0.01051330      -0.04128522       0.05723032
H       -2.92843336      -4.11381473      -4.42063356       0.00000000       0.00000000      -0.00779129      -0.02370074       0.04538958       0.06557961
H       -2.71714065      -1.77867682      -3.66917630       0.00000000       0.00000000      -0.02306894       0.02818739      -0.00070100       0.01896315
H       -3.62142908      -2.19664467      -2.17969382       0.00000000       0.00000000      -0.03203183      -0.03420908       0.04171516       0.01392455
H       -4.73165873      -2.59707945      -4.97729888       0.00000000       0.00000000      -0.02909768      -0.01242484       0.00603687       0.05771825
H       -4.95471164      -1.11148460      -4.06508317       0.00000000       0.00000000      -0.01525165       0.00626128      -0.00513660       0.03027746
H       -5.91731391      -3.87663526      -3.19348791       0.00000000       0.00000000      -0.00484781      -0.01668947      -0.00469139       0.04926683
H       -6.91325780      -2.55671120      -3.77613543       0.00000000       0.00000000       0.00206276      -0.00048607      -0.02318842       0.06269179
H       -6.08126732      -2.40050508      -2.23549802       0.00000000       0.00000000      -0.00944077      -0.00578737       0.00104746       0.02449310
O       -2.39334334      -0.20975552      -1.14500919       0.00000000       0.00000000       0.00090134       0.04319367       0.13401431      -0.53797525
H       -3.17675729       0.28592029      -0.86891630       0.00000000       0.00000000       0.06613057      -0.02715002       0.03187820       0.32869658
H       -2.68435450      -0.75265858      -1.90165033       0.00000000       0.00000000       0.07641618       0.01569692       0.03258986       0.34402285
O        1.88708771       1.85345382       0.20479793       0.00000000       0.00000000      -0.00291747      -0.02027920       0.00250978      -0.49695012
H        2.15155953       2.65665012      -0.26626623       0.00000000       0.00000000      -0.04323768       0.04676881      -0.03224258       0.34091743
H        2.59570598       1.69609513       0.84386155       0.00000000       0.00000000      -0.00321217      -0.05320303       0.05610168       0.34633554
