196
Properties=species:S:1:pos:R:3:initial_charges:R:1:initial_magmoms:R:1:forces:R:3:charge:R:1 energy=-7685.917527077679 free_energy=-7685.917527077679 dipole="-0.8660519453078286 -2.1526166448347674 -0.41868584250002966" pbc="F F F"
Er      -0.07261371      -0.14101779      -0.08966679       3.00000000       0.00000000       0.02051795       0.00280576       0.02680441       0.69665520
C       -3.95898418       1.90342431       6.07611642       0.00000000       0.00000000       0.05430851      -0.01056163      -0.01819710      -0.11710671
C       -2.51898203       1.93362051       5.61685736       0.00000000       0.00000000      -0.03054917       0.01612950       0.01196401       0.01358732
C       -1.79853425       3.29825654       5.81904027       0.00000000       0.00000000       0.01981060       0.02340415      -0.01389797      -0.06430209
C       -0.29905166       2.95430615       5.75797367       0.00000000       0.00000000      -0.01992999       0.07809591      -0.01902379      -0.06091419
C       -0.29133681       1.44407188       5.44540319       0.00000000       0.00000000       0.01844875       0.01745325      -0.02820746      -0.02731717
C       -0.85472408       1.35752954       4.06901603       0.00000000       0.00000000       0.02009305      -0.06263029       0.05897450       0.09376765
N       -0.30476671       1.11143122       2.91092560       0.00000000       0.00000000      -0.05434134       0.00490206      -0.00996144      -0.14429601
N       -1.12176471       1.02747274       1.85449380       0.00000000       0.00000000       0.11778587       0.05029593      -0.00549023      -0.11072390
C       -2.42398747       1.22116645       2.00089221       0.00000000       0.00000000       0.01100909       0.02353373      -0.06431204       0.17200718
C       -3.27450791       0.85258904       0.85149951       0.00000000       0.00000000       0.03764063      -0.08573639      -0.06701275       0.09072555
C       -4.63647785       1.14259697       0.80066026       0.00000000       0.00000000       0.03223711       0.08741567       0.11729510      -0.02007015
C       -5.40022203       0.54967915      -0.19283854       0.00000000       0.00000000      -0.03360380      -0.06419814      -0.05200945       0.00219497
C       -4.80445242      -0.37293595      -1.04389103       0.00000000       0.00000000      -0.01332554      -0.06151757      -0.02370045      -0.02254522
C       -3.43437863      -0.60107634      -0.92489768       0.00000000       0.00000000      -0.05202874      -0.04390693      -0.02291322       0.08803906
C       -2.70722487      -1.68471362      -1.62093207       0.00000000       0.00000000       0.03313956      -0.03237002      -0.07831790       0.17010767
N       -1.38397486      -1.57528810      -1.58376423       0.00000000       0.00000000      -0.02448466       0.01302761      -0.02606586      -0.10512463
N       -0.61504961      -2.59047114      -1.96943491       0.00000000       0.00000000      -0.01251266      -0.05286841      -0.08344014      -0.14376506
C       -1.21596953      -3.66534465      -2.40578202       0.00000000       0.00000000       0.06521206       0.13459585       0.01218124       0.09216438
C       -2.63682985      -3.73435502      -2.52066941       0.00000000       0.00000000      -0.06267850      -0.00960830      -0.02360457       0.12214263
N       -3.39041047      -2.74343183      -2.10201783       0.00000000       0.00000000       0.05914842       0.06635733       0.00318157      -0.22946217
C       -2.95945119      -5.13826165      -2.92477706       0.00000000       0.00000000      -0.09718532       0.05756087       0.01251648       0.01500983
C       -4.32118830      -5.44234534      -3.50496643       0.00000000       0.00000000       0.01107297       0.02826555       0.00958656      -0.11917420
C       -2.68578399      -5.85510302      -1.57108076       0.00000000       0.00000000      -0.00366161       0.00418673      -0.01233327      -0.06168834
C       -1.16016989      -5.76801524      -1.39135394       0.00000000       0.00000000      -0.00281333      -0.02248297       0.01573769      -0.05493912
C       -0.68976927      -5.02380859      -2.66929832       0.00000000       0.00000000      -0.03733409      -0.02164268      -0.00011901      -0.02924314
C       -1.69037803      -5.53169091      -3.73984470       0.00000000       0.00000000      -0.00782861      -0.00873580      -0.05267154       0.02068341
C       -1.57763678      -4.78087671      -5.06378030       0.00000000       0.00000000      -0.02167498       0.00841968      -0.01393661      -0.11438677
C       -1.55749973      -7.02061070      -4.02570664       0.00000000       0.00000000      -0.01105945      -0.05620519      -0.01496548      -0.12516707
N       -2.68100443       0.05134058      -0.03817033       0.00000000       0.00000000       0.00673098       0.04442307       0.15148013      -0.15607745
N       -3.03859637       1.59053521       3.13744482       0.00000000       0.00000000      -0.02286176       0.01286427       0.10428143      -0.22338486
C       -2.25202719       1.64055234       4.18288722       0.00000000       0.00000000      -0.05070866       0.02803500      -0.03812781       0.12502935
C       -1.50569766       0.93538344       6.27069252       0.00000000       0.00000000       0.00676600       0.00632649      -0.04203743       0.02116300
C       -1.82152788      -0.52256568       5.95002238       0.00000000       0.00000000      -0.02405803      -0.05259705      -0.01840176      -0.10598736
C       -1.36758066       1.06803313       7.78041201       0.00000000       0.00000000      -0.00305843       0.02666837      -0.01811983      -0.12278785
H       -4.51984809       2.69782075       5.59312627       0.00000000       0.00000000      -0.02869648       0.01401892       0.00214092       0.06590247
H       -4.01300616       2.04094767       7.15399918       0.00000000       0.00000000      -0.01031906       0.00838387      -0.07926157       0.07104570
H       -4.41483888       0.95299003       5.81507983       0.00000000       0.00000000      -0.05235236      -0.01502319       0.01879855       0.05261070
H       -2.08815479       3.71626839       6.78078566       0.00000000       0.00000000       0.02004404      -0.01335648       0.00192207       0.07978184
H       -2.09783563       4.01100229       5.04914546       0.00000000       0.00000000       0.02266826      -0.01670037       0.02381047       0.04786667
H        0.19386647       3.13362069       6.71038195       0.00000000       0.00000000       0.01667161       0.00023188       0.00197760       0.07552493
H        0.23911256       3.51335983       4.99374280       0.00000000       0.00000000      -0.03164148       0.06075307      -0.02962532       0.04257354
H        0.66685712       0.95588884       5.60764758       0.00000000       0.00000000      -0.05297602      -0.00768154      -0.03807342       0.05363949
H       -5.06243140       1.79615462       1.54812107       0.00000000       0.00000000      -0.02670459      -0.04211543      -0.07404908       0.10323341
H       -6.45856113       0.75702133      -0.26887277       0.00000000       0.00000000       0.06499579      -0.00280662      -0.00429374       0.09644653
H       -5.37958026      -0.92639577      -1.76851551       0.00000000       0.00000000      -0.01142210      -0.00168284      -0.01930733       0.09694142
H       -5.09969061      -5.15259022      -2.80190536       0.00000000       0.00000000       0.01473832      -0.00234453      -0.06063613       0.06181237
H       -4.39982550      -6.51028639      -3.69613072       0.00000000       0.00000000      -0.04991333       0.05488680       0.00364797       0.07115878
H       -4.47846090      -4.91081588      -4.43939886       0.00000000       0.00000000       0.00551162       0.02426047       0.02645550       0.06449390
H       -3.03958016      -6.88139459      -1.63806868       0.00000000       0.00000000       0.01670563      -0.01366169       0.00889993       0.07970632
H       -3.24956145      -5.36473608      -0.77987150       0.00000000       0.00000000       0.07228055      -0.02199372       0.00826263       0.03863163
H       -0.69712696      -6.74860010      -1.33969384       0.00000000       0.00000000       0.01977948      -0.06398945      -0.01407535       0.07368660
H       -0.87189143      -5.21976564      -0.49148509       0.00000000       0.00000000      -0.00729178      -0.00771152       0.01486090       0.02176970
H        0.37228470      -5.10961635      -2.87994150       0.00000000       0.00000000      -0.02847580       0.03409486      -0.01144331       0.05696657
H       -1.73987847      -3.70977258      -4.95102631       0.00000000       0.00000000       0.05491425      -0.02316470       0.05509493       0.02617842
H       -2.31403308      -5.15456231      -5.76910148       0.00000000       0.00000000      -0.04396486      -0.03245998       0.00436649       0.06888905
H       -0.59486008      -4.94980643      -5.49995546       0.00000000       0.00000000      -0.04874579       0.02652260       0.04965412       0.05427285
H       -1.68314629      -7.63556543      -3.14460106       0.00000000       0.00000000       0.06020165      -0.05147801       0.05197584       0.05601188
H       -0.57749921      -7.22549030      -4.44943148       0.00000000       0.00000000       0.00417045       0.00796516       0.01004762       0.06095880
H       -2.30158755      -7.33881483      -4.74812119       0.00000000       0.00000000      -0.04525653       0.05662603      -0.09053224       0.06807923
H       -1.91306173      -0.69179987       4.87673511       0.00000000       0.00000000       0.01395786      -0.00229151      -0.00111983       0.00968892
H       -2.75440359      -0.82159313       6.42000680       0.00000000       0.00000000       0.03175571       0.02831794       0.05842801       0.06198349
H       -1.02829884      -1.16320195       6.32973923       0.00000000       0.00000000      -0.00893940      -0.00590954       0.01322774       0.05119319
H       -1.19477339       2.08568397       8.10813557       0.00000000       0.00000000       0.03923134       0.02661629      -0.01179419       0.06219579
H       -0.54264875       0.44817975       8.12503065       0.00000000       0.00000000      -0.00615532       0.03559431       0.01064657       0.05945905
H       -2.27547825       0.71717327       8.26557590       0.00000000       0.00000000       0.02226719      -0.03651933      -0.03026604       0.06594736
C       -1.86751063       5.44761446      -5.06745539       0.00000000       0.00000000       0.04347236      -0.04132846       0.03304707      -0.11861024
C       -1.93968831       3.94355246      -4.92346079       0.00000000       0.00000000       0.04070885      -0.00203198      -0.02913388       0.01403977
C       -3.37836876       3.36713582      -5.06052231       0.00000000       0.00000000       0.03181714      -0.00422396      -0.01646723      -0.06504859
C       -3.17330258       1.88142826      -5.40480333       0.00000000       0.00000000      -0.10737260       0.05223877      -0.01087915      -0.06025210
C       -1.64326761       1.70931686      -5.32926519       0.00000000       0.00000000      -0.03738316       0.09064526      -0.00421030      -0.02733902
C       -1.35128421       1.92509700      -3.88601291       0.00000000       0.00000000       0.03725571       0.00601180      -0.01187129       0.08927454
N       -1.19249602       1.10935085      -2.88068143       0.00000000       0.00000000       0.03100872      -0.05179814      -0.06853470      -0.12586963
N       -0.80479381       1.63438386      -1.71721379       0.00000000       0.00000000      -0.03551159      -0.06433282      -0.00525540      -0.11198895
C       -0.56293130       2.94307288      -1.64596007       0.00000000       0.00000000      -0.03851639       0.04402084      -0.04083028       0.16445036
C        0.29757348       3.37664891      -0.53667061       0.00000000       0.00000000      -0.02589241       0.06417168      -0.00299571       0.08745958
C        0.59589547       4.71365084      -0.26523179       0.00000000       0.00000000      -0.06544500      -0.03570076      -0.00212133      -0.02036889
C        1.55446956       4.99575097       0.69837134       0.00000000       0.00000000      -0.01930537      -0.03862695       0.00643424       0.00388241
C        2.17563132       3.94396629       1.35896064       0.00000000       0.00000000      -0.03798470      -0.00290207      -0.04058324      -0.02128192
C        1.79176721       2.64277116       1.03940979       0.00000000       0.00000000      -0.00764594       0.05984269      -0.01989868       0.08942508
C        2.42402614       1.45910421       1.63244925       0.00000000       0.00000000      -0.02493033      -0.10895164      -0.04052812       0.17123086
N        1.87598605       0.29559465       1.29603823       0.00000000       0.00000000      -0.02863403       0.06929648      -0.04756988      -0.10003506
N        2.40987882      -0.84766321       1.71787000       0.00000000       0.00000000      -0.10068681      -0.01638073      -0.05094727      -0.13741602
C        3.48851262      -0.75888966       2.43893476       0.00000000       0.00000000       0.13919752       0.00057987       0.11582959       0.09174993
C        4.06544618       0.50356657       2.77653381       0.00000000       0.00000000      -0.03111682       0.06313164       0.00403601       0.12532775
N        3.52019884       1.62764664       2.38666599       0.00000000       0.00000000       0.03779698      -0.08453522      -0.03065896      -0.22177312
C        5.33757324       0.22394149       3.48536628       0.00000000       0.00000000       0.01265091       0.03513295      -0.02731408       0.01383043
C        5.94460610       1.35993979       4.27369565       0.00000000       0.00000000       0.00984640       0.00116665       0.02846742      -0.11829005
C        6.20426040      -0.30608181       2.29825537       0.00000000       0.00000000       0.01778498       0.01745247       0.05759697      -0.06265579
C        5.60272102      -1.68490927       1.97149239       0.00000000       0.00000000       0.04432333      -0.02039920       0.00660315      -0.05933268
C        4.41088120      -1.79948634       2.95151425       0.00000000       0.00000000       0.02683431       0.00091308      -0.00614162      -0.03063309
C        4.94989855      -1.09501768       4.22520324       0.00000000       0.00000000       0.01684329       0.04289848       0.03718512       0.02123734
C        3.84788197      -0.89373154       5.26663146       0.00000000       0.00000000      -0.02149172      -0.00428736       0.04802253      -0.11000352
C        6.11680326      -1.80750141       4.88650533       0.00000000       0.00000000      -0.00002377      -0.03732641      -0.00997896      -0.12395327
N        0.87351000       2.36667704       0.11505629       0.00000000       0.00000000      -0.03298228      -0.05433701      -0.02267212      -0.16739478
N       -0.98291080       3.84557353      -2.54574467       0.00000000       0.00000000      -0.00667401      -0.05047429      -0.04139923      -0.21358323
C       -1.42359166       3.33611281      -3.66586347       0.00000000       0.00000000       0.05068672       0.10621260       0.08797466       0.12243586
C       -1.11932964       3.05236670      -5.92631480       0.00000000       0.00000000      -0.10277715       0.00585875       0.05856097       0.02035166
C        0.39184378       3.24952345      -5.75992663       0.00000000       0.00000000       0.00170333       0.03975748      -0.01092126      -0.11539410
C       -1.47456830       3.28078813      -7.38914470       0.00000000       0.00000000      -0.04809639      -0.01187639       0.05843269      -0.12169594
H       -2.65109542       5.91131707      -4.47570046       0.00000000       0.00000000       0.00607838       0.04634383       0.02704580       0.06447898
H       -2.00784723       5.73197256      -6.10889750       0.00000000       0.00000000       0.00217380      -0.01704806       0.09834475       0.07193808
H       -0.90889054       5.82274022      -4.71911699       0.00000000       0.00000000      -0.01125706       0.02689078      -0.02690230       0.05884736
H       -3.90926119       3.90598816      -5.84296854       0.00000000       0.00000000       0.03248945      -0.03745455      -0.01809667       0.07667332
H       -3.93788404       3.50888779      -4.13544239       0.00000000       0.00000000       0.01455110      -0.01960551       0.00665705       0.04299853
H       -3.53106751       1.64752245      -6.40552484       0.00000000       0.00000000       0.02974849      -0.00865608       0.00038485       0.07351778
H       -3.66649177       1.20513593      -4.70722631       0.00000000       0.00000000      -0.06981591       0.03942564       0.03147798       0.03948116
H       -1.28832426       0.77917079      -5.75984227       0.00000000       0.00000000       0.05078186      -0.01779447      -0.01497569       0.05108136
H        0.08219068       5.48839424      -0.81081659       0.00000000       0.00000000       0.04396549       0.03801342      -0.02351330       0.10136982
H        1.83060280       6.01668101       0.91986083       0.00000000       0.00000000      -0.04538092      -0.03915746      -0.01558823       0.09674119
H        2.94807476       4.09780380       2.09329087       0.00000000       0.00000000       0.02081222       0.04686401       0.03467503       0.10173203
H        6.08626040       2.22711741       3.63045538       0.00000000       0.00000000       0.02141543      -0.07039356       0.05289494       0.06479991
H        6.90575757       1.06284682       4.68871055       0.00000000       0.00000000      -0.06515252       0.04820491      -0.03253657       0.07045674
H        5.27959376       1.64084724       5.08764645       0.00000000       0.00000000       0.06245911       0.03157580      -0.01339660       0.05967548
H        7.24220833      -0.37478849       2.61783146       0.00000000       0.00000000      -0.01528937      -0.00646203       0.01137586       0.08124612
H        6.16857997       0.38461637       1.45292063       0.00000000       0.00000000      -0.00480152      -0.06078611       0.04635047       0.04624384
H        6.31270744      -2.48785167       2.15390172       0.00000000       0.00000000       0.00256123      -0.01872905       0.01848976       0.07441477
H        5.26510746      -1.76948533       0.93821195       0.00000000       0.00000000       0.01074270       0.04107496      -0.03168429       0.03356333
H        3.99675806      -2.79886273       3.05486168       0.00000000       0.00000000       0.02730393       0.02234732       0.02673605       0.05248350
H        2.99195830      -0.34420533       4.87206311       0.00000000       0.00000000       0.03938856      -0.03909148      -0.04885959       0.01783755
H        4.22729023      -0.34739092       6.12698099       0.00000000       0.00000000       0.04353834      -0.01570545      -0.02901900       0.06454044
H        3.50031233      -1.86419337       5.61621783       0.00000000       0.00000000      -0.01077830       0.02233551       0.00606614       0.05369770
H        6.96393713      -1.93069723       4.22273631       0.00000000       0.00000000       0.01485291      -0.04445951       0.00627169       0.05923062
H        5.78980375      -2.78826890       5.22178006       0.00000000       0.00000000       0.06102002      -0.03255311       0.02427627       0.05935294
H        6.45312403      -1.24827435       5.75406150       0.00000000       0.00000000      -0.02154978       0.01674350       0.03737238       0.06805572
H        0.79073401       2.75023312      -4.87859119       0.00000000       0.00000000      -0.02582577       0.02901700       0.03724715       0.02255219
H        0.62386686       4.30671512      -5.66888308       0.00000000       0.00000000      -0.03961579       0.06292396      -0.04147965       0.06161057
H        0.91945362       2.88587118      -6.63696081       0.00000000       0.00000000       0.01075897      -0.08656623      -0.01283245       0.05812503
H       -2.54377186       3.31794113      -7.55996823       0.00000000       0.00000000      -0.01645189      -0.00213476      -0.02921222       0.06108859
H       -1.05647108       2.48181906      -7.99586962       0.00000000       0.00000000      -0.00560483      -0.02766832      -0.02315253       0.05572777
H       -1.04649127       4.21895477      -7.73263688       0.00000000       0.00000000       0.01981166      -0.01176556       0.02680645       0.06832066
C        3.62332156      -3.21634529      -5.80622711       0.00000000       0.00000000      -0.01302192       0.04693048       0.03025198      -0.11698645
C        3.09503018      -1.84614224      -5.44473156       0.00000000       0.00000000      -0.00393296       0.01694511       0.02435762       0.01340566
C        4.07879259      -0.67236414      -5.72333599       0.00000000       0.00000000      -0.01212131      -0.02902089       0.01059018      -0.06488587
C        3.18828474       0.58321717      -5.73144120       0.00000000       0.00000000       0.07886384       0.00324826      -0.03159749      -0.06070116
C        1.78640823       0.02958489      -5.40014387       0.00000000       0.00000000       0.15853520      -0.06592317       0.02563047      -0.03372786
C        1.91161579      -0.42848690      -3.99139337       0.00000000       0.00000000      -0.08133045      -0.02622719      -0.05427116       0.09375093
N        1.47558733       0.06849536      -2.86619044       0.00000000       0.00000000      -0.02748049       0.06305702      -0.03944552      -0.13132005
N        1.65612347      -0.66713755      -1.76643052       0.00000000       0.00000000       0.04578078      -0.05277739       0.03936955      -0.10751797
C        2.28373450      -1.83473098      -1.85403988       0.00000000       0.00000000       0.03199188       0.02886967       0.01423656       0.17167090
C        2.19629927      -2.72880150      -0.69042747       0.00000000       0.00000000       0.01340568      -0.00201423       0.02145024       0.09050755
C        3.07366128      -3.79536743      -0.50379782       0.00000000       0.00000000      -0.00669064       0.00060484       0.00986535      -0.02153534
C        2.81384707      -4.69105638       0.52289243       0.00000000       0.00000000      -0.12980234       0.05041541       0.03659326       0.00075925
C        1.67472362      -4.51033513       1.29916007       0.00000000       0.00000000       0.07542900      -0.04497523      -0.03174730      -0.02281506
C        0.86666276      -3.40543254       1.04344375       0.00000000       0.00000000       0.03179857      -0.07610337       0.00224297       0.08739874
C       -0.42747385      -3.18084015       1.69715111       0.00000000       0.00000000      -0.02369188       0.06836020       0.07062281       0.16923745
N       -0.93351580      -1.96289668       1.53116807       0.00000000       0.00000000       0.06698194      -0.03441541      -0.01743752      -0.12579584
N       -2.21843965      -1.74902706       1.81105705       0.00000000       0.00000000       0.00832491       0.01607308       0.01772938      -0.15800786
C       -2.90333518      -2.75292177       2.27402178       0.00000000       0.00000000      -0.02484469      -0.01329400       0.01898043       0.09385964
C       -2.28538416      -3.99044619       2.63263395       0.00000000       0.00000000       0.05084189       0.05293273       0.06894317       0.12215276
N       -1.03597162      -4.21259097       2.31082955       0.00000000       0.00000000      -0.03710193       0.01604574      -0.04277902      -0.22891442
C       -3.36118314      -4.87039222       3.17429627       0.00000000       0.00000000       0.01837066      -0.04428136      -0.08035597       0.01514657
C       -2.95998684      -6.03918474       4.03983484       0.00000000       0.00000000       0.02326827      -0.00314900       0.05128897      -0.11901299
C       -4.06326552      -5.26838667       1.84532386       0.00000000       0.00000000      -0.01764943      -0.04937055       0.02511555      -0.06325884
C       -4.68710919      -3.95505969       1.34126802       0.00000000       0.00000000      -0.02621153       0.03365644      -0.00058397      -0.05528179
C       -4.35576900      -2.93412274       2.46357891       0.00000000       0.00000000      -0.03296490      -0.06905025       0.04591191      -0.02971672
C       -4.36193356      -3.81587837       3.74100998       0.00000000       0.00000000      -0.00451141      -0.05527944       0.03796225       0.02100762
C       -3.81187676      -3.08598256       4.96423166       0.00000000       0.00000000      -0.00296216      -0.00663701      -0.00448192      -0.11301272
C       -5.74309628      -4.34974502       4.08475051       0.00000000       0.00000000      -0.03562264       0.00361584      -0.01440410      -0.12472253
N        1.13554545      -2.51783171       0.08694094       0.00000000       0.00000000       0.06202149       0.03979376      -0.10961028      -0.14597786
N        2.89905491      -2.32379084      -2.94442252       0.00000000       0.00000000      -0.00348398       0.02608430       0.00400066      -0.22220311
C        2.69723701      -1.62196459      -4.02728342       0.00000000       0.00000000       0.04750945      -0.02235847      -0.06024751       0.12516235
C        1.78590108      -1.33750298      -6.13437226       0.00000000       0.00000000      -0.02686880       0.01893910       0.01979583       0.02058064
C        0.55696885      -2.16705893      -5.76859258       0.00000000       0.00000000      -0.04349176      -0.04294041      -0.00041386      -0.10619836
C        1.85398519      -1.24382354      -7.65166853       0.00000000       0.00000000       0.04214570       0.01614427       0.03397915      -0.12164905
H        4.58944375      -3.37360347      -5.33460171       0.00000000       0.00000000       0.00111058      -0.03603446      -0.00692842       0.06571607
H        3.74456551      -3.30316534      -6.88425124       0.00000000       0.00000000       0.00469747       0.00966525       0.08683620       0.07015110
H        2.94088681      -3.98776898      -5.45919742       0.00000000       0.00000000       0.01789940      -0.02142438      -0.02469292       0.05275176
H        4.56862473      -0.84134565      -6.67961945       0.00000000       0.00000000      -0.01290269       0.02972810      -0.01506456       0.07836043
H        4.85733550      -0.62962872      -4.96115911       0.00000000       0.00000000      -0.02423647       0.00716390      -0.00843000       0.04902655
H        3.17671378       1.06229544      -6.70768125       0.00000000       0.00000000       0.00111880       0.01331983      -0.00080802       0.07168484
H        3.49720002       1.32793850      -4.99961080       0.00000000       0.00000000       0.05249168       0.00319907       0.01841910       0.04559339
H        0.97032251       0.70290518      -5.61559600       0.00000000       0.00000000      -0.05622695       0.01803744       0.00552321       0.06188935
H        3.91383938      -3.90611957      -1.17067454       0.00000000       0.00000000       0.00330693      -0.06229797       0.02352198       0.09872138
H        3.46005943      -5.53818718       0.69142358       0.00000000       0.00000000       0.02747508       0.01149039       0.01614232       0.09416389
H        1.39367517      -5.20622893       2.07350213       0.00000000       0.00000000       0.02394147      -0.00802746       0.00416665       0.09731261
H       -2.23778176      -6.66384813       3.51680812       0.00000000       0.00000000      -0.05762571       0.02187206       0.04716924       0.06359366
H       -3.83646218      -6.63571596       4.28534820       0.00000000       0.00000000       0.08532570       0.00751487      -0.01673444       0.07091341
H       -2.50996001      -5.68657037       4.96395824       0.00000000       0.00000000       0.02276101      -0.03498401       0.00696349       0.06289575
H       -4.81775170      -6.02155150       2.06215700       0.00000000       0.00000000      -0.01737617       0.00105433       0.00307123       0.08125514
H       -3.34802945      -5.72156717       1.15886125       0.00000000       0.00000000      -0.02656788       0.06867590       0.02246776       0.04378598
H       -5.76205073      -4.03437897       1.21099690       0.00000000       0.00000000      -0.06265189      -0.01368802       0.01753399       0.07259843
H       -4.26510351      -3.62279533       0.38962337       0.00000000       0.00000000      -0.02365051       0.00271878      -0.03138003       0.02383919
H       -4.96115594      -2.03281508       2.45746819       0.00000000       0.00000000      -0.00608818      -0.01731606       0.03258519       0.05312053
H       -2.75104926      -2.86361209       4.87207360       0.00000000       0.00000000      -0.01009542       0.01457954      -0.09042805       0.02594079
H       -3.94032286      -3.69423167       5.85494278       0.00000000       0.00000000      -0.03420514      -0.02853527       0.00372602       0.06908241
H       -4.35678533      -2.15552354       5.11008805       0.00000000       0.00000000       0.01138007      -0.02079645       0.00612587       0.04896530
H       -6.19732529      -4.90335281       3.27234465       0.00000000       0.00000000      -0.05449711       0.00317651       0.00223684       0.05737542
H       -6.39009946      -3.51043621       4.32741975       0.00000000       0.00000000      -0.04227330      -0.03085897       0.03616405       0.06145989
H       -5.69452271      -5.00174057       4.95170789       0.00000000       0.00000000       0.02024873       0.00394171       0.02236630       0.06809716
H        0.43261283      -2.28365468      -4.69275572       0.00000000       0.00000000       0.00774824       0.02167045       0.02843521       0.01502754
H        0.63356426      -3.15675371      -6.20770371       0.00000000       0.00000000       0.02214196      -0.00187445      -0.05959179       0.06076797
H       -0.34042700      -1.69315824      -6.16262493       0.00000000       0.00000000       0.01472033      -0.01474516      -0.02025621       0.04471520
H        2.71483102      -0.68911828      -8.00416814       0.00000000       0.00000000       0.00703232       0.02492568      -0.01340134       0.06228366
H        0.95376681      -0.75658865      -8.02114876       0.00000000       0.00000000       0.04160840      -0.02022571      -0.03781616       0.05520347
H        1.90237121      -2.24148138      -8.08211947       0.00000000       0.00000000      -0.04574659       0.03154104       0.01115703       0.06518649
