87
Properties=species:S:1:pos:R:3:initial_charges:R:1:initial_magmoms:R:1:forces:R:3:charge:R:1 energy=-3472.011797758861 free_energy=-3472.011797758861 dipole="1.0615263449829575 -1.602925862971618 0.06740040233258755" pbc="F F F"
Er      -0.10442414       0.15027465       0.05871120       2.00000000       0.00000000       0.00996339       0.00486890      -0.03815383       0.85671794
C       -1.81471510      -5.81399896      -1.72658995       0.00000000       0.00000000       0.03336989       0.02828217       0.01315897      -0.12404732
C       -0.73541898      -4.93539054      -2.35330135       0.00000000       0.00000000       0.08951362       0.04839209      -0.00824150      -0.02100668
N       -0.03398789      -4.08225409      -1.40264522       0.00000000       0.00000000      -0.02281417       0.09997682       0.06999292      -0.03947648
C        1.03560084      -4.64382799      -0.58354318       0.00000000       0.00000000       0.02898393      -0.02535036       0.02781867      -0.01104791
C        0.53965323      -4.87260706       0.84281713       0.00000000       0.00000000       0.02859873      -0.02762821      -0.00523849      -0.12122025
C       -0.34949942      -2.82068396      -1.17138127       0.00000000       0.00000000       0.03561485       0.04279333       0.09868133       0.26406557
O        0.36996255      -2.05798197      -0.48299581       0.00000000       0.00000000      -0.06495879      -0.13080923      -0.13143173      -0.37498966
C       -1.71372068      -2.27338617      -1.60252934       0.00000000       0.00000000      -0.08878111       0.05231296       0.05861738       0.03655418
O       -1.97872488      -1.39988542      -0.51257156       0.00000000       0.00000000      -0.05567327       0.02334916      -0.02340424      -0.21953313
C       -3.30907325      -0.95620777      -0.29588911       0.00000000       0.00000000       0.03940435       0.02717479      -0.08573969       0.04040462
C       -3.15767676      -0.14212516       0.99724872       0.00000000       0.00000000       0.00990333      -0.00647722       0.00298514       0.26623215
O       -1.99827018       0.18135569       1.34486220       0.00000000       0.00000000       0.00718155      -0.02086874       0.00479974      -0.37264878
N       -4.21587255       0.12863515       1.73429556       0.00000000       0.00000000       0.03674474      -0.00192835       0.03869870      -0.03607237
C       -3.97416490       0.62327413       3.08718245       0.00000000       0.00000000      -0.01178579       0.04580232       0.06910088      -0.01202579
C       -3.41089000      -0.48173243       3.97466623       0.00000000       0.00000000       0.00327415      -0.01588264       0.01014920      -0.12090767
C       -5.59076263      -0.01519194       1.27974010       0.00000000       0.00000000       0.07934485       0.04652419      -0.00961607      -0.02201601
C       -6.26625561      -1.31190029       1.71589093       0.00000000       0.00000000       0.01695916       0.06216494       0.00086465      -0.12457946
H       -2.34180239      -6.35326138      -2.51139492       0.00000000       0.00000000       0.02617664       0.08114940       0.05635313       0.08102061
H       -2.53048879      -5.21944766      -1.16280139       0.00000000       0.00000000      -0.01382293      -0.07815632      -0.02727068       0.04784292
H       -1.37289215      -6.54861855      -1.06087700       0.00000000       0.00000000       0.00245564      -0.01024546       0.02780367       0.07269035
H       -1.14984759      -4.29606077      -3.13360633       0.00000000       0.00000000      -0.08712786      -0.02930921      -0.01726078       0.06357418
H        0.01509537      -5.57613399      -2.82073206       0.00000000       0.00000000       0.01393995      -0.01179192      -0.01135370       0.08954878
H        1.85885657      -3.92815861      -0.57184170       0.00000000       0.00000000       0.08456807      -0.01426203      -0.00259909       0.07607981
H        1.37385142      -5.57071538      -1.03566141       0.00000000       0.00000000      -0.01032246      -0.12265636      -0.04846330       0.08208363
H        0.34867529      -3.91811773       1.32845047       0.00000000       0.00000000      -0.02194308       0.00175930       0.01193385       0.05441381
H        1.28215728      -5.41319313       1.42037526       0.00000000       0.00000000       0.08947945       0.02560108      -0.02437363       0.07455933
H       -0.37321632      -5.46032700       0.84805812       0.00000000       0.00000000      -0.02008523      -0.00668519      -0.01925878       0.06318146
H       -2.46711830      -3.06534072      -1.65104037       0.00000000       0.00000000      -0.03908704       0.00803301      -0.05627289       0.08850694
H       -1.67187971      -1.71887738      -2.55094667       0.00000000       0.00000000       0.00370237       0.00638739      -0.02498272       0.10039464
H       -3.98269937      -1.81116622      -0.14398268       0.00000000       0.00000000       0.01237344       0.05884376      -0.03533113       0.08516382
H       -3.66350726      -0.33009248      -1.12889786       0.00000000       0.00000000       0.02479207      -0.03529030       0.02924337       0.10424986
H       -4.91695621       0.99270723       3.48499025       0.00000000       0.00000000      -0.02311396       0.00163135       0.03250680       0.08341746
H       -3.25920466       1.44691188       3.03792705       0.00000000       0.00000000       0.01086559       0.05766870      -0.02698651       0.08178698
H       -4.06818008      -1.34597173       3.97647245       0.00000000       0.00000000      -0.04302198      -0.01311490       0.04634200       0.06049483
H       -3.30754723      -0.12018427       4.99314040       0.00000000       0.00000000      -0.03282262       0.01927814      -0.00485089       0.07383261
H       -2.43063386      -0.79353555       3.62245086       0.00000000       0.00000000       0.02571404       0.02428756      -0.02739975       0.05603697
H       -5.60205850       0.07929045       0.19389563       0.00000000       0.00000000      -0.05610447      -0.03583223      -0.03735073       0.06408369
H       -6.14432624       0.83175951       1.69479744       0.00000000       0.00000000      -0.02806841      -0.04291794      -0.05871765       0.09153206
H       -5.73339031      -2.19378464       1.36723476       0.00000000       0.00000000      -0.00888803       0.05712547       0.01205391       0.04764438
H       -7.27060606      -1.32623155       1.30215185       0.00000000       0.00000000       0.00625579      -0.05845722       0.01186287       0.08045620
H       -6.34896015      -1.35817661       2.79667323       0.00000000       0.00000000       0.01676764      -0.02200529       0.04021310       0.07199454
C        1.60904012       3.47788972      -3.13304603       0.00000000       0.00000000       0.00059476      -0.00190222       0.03084892      -0.11920089
C        1.85104490       2.18009868      -3.89974674       0.00000000       0.00000000      -0.03772345       0.01955416       0.02993339      -0.01073947
N        2.75656375       1.29365644      -3.16468806       0.00000000       0.00000000       0.00787854       0.01782459      -0.09552856      -0.04122405
C        4.12679235       1.15410141      -3.63698660       0.00000000       0.00000000      -0.01604443       0.01859758       0.03057447      -0.02101247
C        5.05141241       2.26038427      -3.13804511       0.00000000       0.00000000       0.01522788       0.01152161      -0.01069616      -0.12392681
C        2.27608890       0.66465553      -2.10986482       0.00000000       0.00000000       0.00136972      -0.06753960       0.12309978       0.26052502
O        1.06119046       0.65192852      -1.82625911       0.00000000       0.00000000      -0.05349888      -0.00231138       0.00206046      -0.37995404
C        3.22602696      -0.06085000      -1.14533140       0.00000000       0.00000000      -0.06423056      -0.00111006       0.00676180       0.04075945
O        2.51532998      -0.22450580       0.07849038       0.00000000       0.00000000       0.00130896       0.02531936      -0.02036897      -0.21986809
C        3.22493352       0.08587585       1.27437697       0.00000000       0.00000000      -0.04027671       0.00014988      -0.03915295       0.03950294
C        2.19815645       0.74191641       2.21126844       0.00000000       0.00000000       0.13651872       0.02509077       0.04550914       0.26161551
O        0.98861427       0.57398544       1.95703719       0.00000000       0.00000000      -0.10622468      -0.05859040      -0.01498378      -0.34983538
N        2.62347149       1.47998962       3.22146193       0.00000000       0.00000000      -0.02946412      -0.07844472      -0.02785574      -0.03643958
C        1.64337709       2.29661782       3.93606185       0.00000000       0.00000000      -0.01333667       0.01176629      -0.01165391      -0.01277848
C        1.21171362       3.47832892       3.07420375       0.00000000       0.00000000      -0.00219274      -0.00301480      -0.00286535      -0.12506087
C        4.00339463       1.53256497       3.67760029       0.00000000       0.00000000       0.02999101       0.02410842      -0.00264678      -0.02265565
C        4.79192126       2.73487802       3.16159642       0.00000000       0.00000000      -0.01180823       0.02094844       0.00131489      -0.12423802
H        0.91565204       4.11037995      -3.68121034       0.00000000       0.00000000       0.03789684      -0.04935440      -0.02244375       0.07916797
H        2.53761010       4.02490129      -2.99184207       0.00000000       0.00000000      -0.02143742       0.01242130      -0.02782897       0.06260554
H        1.17705312       3.27623884      -2.15452586       0.00000000       0.00000000       0.00237941      -0.03168232       0.00721721       0.05390722
H        2.29312130       2.39351277      -4.87078506       0.00000000       0.00000000       0.01829498      -0.00892130      -0.02583307       0.08278456
H        0.90362791       1.65541797      -4.04610083       0.00000000       0.00000000      -0.01025038       0.00130371       0.00375700       0.07871547
H        4.09580952       1.18292239      -4.72882998       0.00000000       0.00000000       0.01660446      -0.01622794       0.02198930       0.09054715
H        4.49916627       0.17093269      -3.34183122       0.00000000       0.00000000       0.04654470       0.04783132      -0.00360298       0.05915736
H        4.73590519       3.22618340      -3.51936632       0.00000000       0.00000000      -0.01481644       0.01722615      -0.00219264       0.07380146
H        6.06050824       2.07607828      -3.49565172       0.00000000       0.00000000      -0.01078456      -0.01868971       0.00594883       0.07990834
H        5.07515392       2.30895052      -2.05219358       0.00000000       0.00000000      -0.00612648       0.00792317      -0.01620998       0.04434344
H        4.12918588       0.53110584      -0.99967690       0.00000000       0.00000000       0.12391744       0.01992951       0.03953485       0.08602064
H        3.49080476      -1.04556204      -1.55071793       0.00000000       0.00000000       0.03191661      -0.06037047       0.01924783       0.09073176
H        4.04728915       0.78263347       1.08307372       0.00000000       0.00000000       0.00170842      -0.01701453      -0.04693045       0.08558871
H        3.62589969      -0.83736203       1.71713374       0.00000000       0.00000000      -0.01495028      -0.00693348       0.00534696       0.09249907
H        2.11360193       2.64268171       4.85524763       0.00000000       0.00000000      -0.05498265       0.03604841       0.02776072       0.08270704
H        0.78199940       1.67359982       4.18736923       0.00000000       0.00000000      -0.01715782      -0.00594664      -0.03614533       0.08048391
H        2.07505242       4.08642726       2.81617945       0.00000000       0.00000000      -0.05342289       0.03935792      -0.01326963       0.06233877
H        0.50406259       4.09589534       3.61831881       0.00000000       0.00000000       0.00876091      -0.00762648       0.02814624       0.07580416
H        0.73351654       3.13461815       2.15711433       0.00000000       0.00000000       0.00135242      -0.01545942       0.01135795       0.07314004
H        4.50279503       0.60211570       3.40839455       0.00000000       0.00000000       0.03917342      -0.01192741      -0.01929708       0.06062035
H        3.96999071       1.58807874       4.76841415       0.00000000       0.00000000       0.05476129      -0.05743936      -0.00328027       0.09114877
H        4.79592153       2.80216091       2.07620350       0.00000000       0.00000000      -0.03415116      -0.07105248       0.01845854       0.04601682
H        5.81989957       2.64947347       3.50456373       0.00000000       0.00000000      -0.02216959       0.01284749      -0.02224426       0.07901593
H        4.38642737       3.66134294       3.55492236       0.00000000       0.00000000      -0.02737316       0.02068578       0.01774037       0.07331163
N       -1.15337646       2.19087388      -0.75399717       0.00000000       0.00000000      -0.04847842       0.07911202      -0.06147338       0.79304884
O       -1.77608743       3.16826218      -1.00032132       0.00000000       0.00000000      -0.00526952       0.02437562       0.02876178      -0.37097226
O       -1.46499348       1.08822852      -1.23211216       0.00000000       0.00000000      -0.08147459      -0.03703848      -0.01922470      -0.44109539
O       -0.15717939       2.22183260      -0.01000519       0.00000000       0.00000000       0.11391936       0.02091641       0.10147579      -0.43980929
