241
Properties=species:S:1:pos:R:3:initial_charges:R:1:initial_magmoms:R:1:forces:R:3:charge:R:1 energy=-8046.783826222118 free_energy=-8046.783826222118 dipole="-0.03823538486645334 -0.18521427127896195 -0.07843166212959275" pbc="F F F"
Er       0.00498576       0.05845883       0.02898337       3.00000000       0.00000000      -0.00470055      -0.06518994      -0.05326598       0.84352682
C        4.74947738      -0.67178868      -6.33152422       0.00000000       0.00000000       0.00789200       0.00456220      -0.01200720      -0.11075531
C        3.50162586       0.08552232      -5.89337893       0.00000000       0.00000000       0.02366617       0.00596884       0.00510539      -0.05232055
C        2.22794531      -0.61594875      -6.35768401       0.00000000       0.00000000      -0.00079747      -0.00112186      -0.01270076      -0.06445613
C        0.95637965       0.11319042      -5.92768212       0.00000000       0.00000000      -0.01765301       0.00653848      -0.00284791      -0.06037026
C       -0.31718114      -0.67664826      -6.23922963       0.00000000       0.00000000       0.00172147      -0.00265875      -0.02353109      -0.05694572
C       -0.62954443      -0.78381098      -7.72975197       0.00000000       0.00000000       0.01993090      -0.00029537      -0.00197731      -0.06488101
C       -1.91012381      -1.57314016      -8.00738084       0.00000000       0.00000000       0.02130035       0.00556950      -0.01467769      -0.06641934
C       -1.72481418      -3.08060307      -7.84557139       0.00000000       0.00000000      -0.03936997      -0.02000820      -0.01792754      -0.06200712
C       -3.01311330      -3.88774646      -8.04424309       0.00000000       0.00000000       0.00829701      -0.05065077      -0.08296474       0.07100540
C       -3.77114008      -3.50919595      -9.31381006       0.00000000       0.00000000       0.00644904       0.00260020       0.00627266      -0.11445133
C       -2.70709103      -5.37979307      -8.08951097       0.00000000       0.00000000      -0.02053679      -0.01534747      -0.00116225      -0.11004089
S       -4.17875924      -3.47965270      -6.64662849       0.00000000       0.00000000      -0.01464923      -0.01590465       0.03961835      -0.22911745
C       -3.69795255      -4.63582411      -5.29905163       0.00000000       0.00000000      -0.00591761       0.00194573      -0.00235117      -0.02020151
C       -3.77117190      -3.91507530      -3.96604261       0.00000000       0.00000000      -0.00077856      -0.00090686       0.00130931      -0.02284569
C       -2.82152231      -2.71521791      -3.90787667       0.00000000       0.00000000      -0.01610983      -0.00374885       0.07281011      -0.02091261
N       -2.53633082      -2.55469097      -2.49132949       0.00000000       0.00000000      -0.07122350      -0.05966979      -0.01845993      -0.03196122
C       -1.83453677      -1.57400617      -1.98564244       0.00000000       0.00000000       0.08813638       0.13227088       0.09287708       0.25128146
O       -1.52839617      -1.46429176      -0.77170386       0.00000000       0.00000000      -0.05912733      -0.03587511      -0.06196518      -0.39976484
C       -1.38331979      -0.49886576      -2.96928639       0.00000000       0.00000000      -0.01001560       0.01215092      -0.05441753       0.03552096
O       -0.73012518       0.49689625      -2.21063322       0.00000000       0.00000000       0.01014110      -0.00864192      -0.07832108      -0.21222829
C       -0.89612672       1.84909948      -2.60085314       0.00000000       0.00000000      -0.00298684       0.00646252      -0.00575978       0.03757261
C       -1.03777226       2.62825156      -1.28876743       0.00000000       0.00000000       0.06033027      -0.04248033      -0.02460540       0.25369607
O       -1.06252357       1.97850834      -0.21788117       0.00000000       0.00000000      -0.00736451       0.04148220       0.08579568      -0.38546109
N       -1.15432809       3.92768725      -1.36021111       0.00000000       0.00000000      -0.05082459       0.07245456       0.02884940      -0.01925074
C       -0.99425225       4.72155201      -2.56715062       0.00000000       0.00000000      -0.02599783      -0.00592982       0.05505720      -0.02565365
C       -1.29881165       6.15057501      -2.11034612       0.00000000       0.00000000       0.00076246       0.00793647       0.01608444      -0.02083578
C       -0.71911097       7.20126916      -3.04425364       0.00000000       0.00000000       0.01617907       0.00498393       0.04001495      -0.11874144
C       -0.85849030       6.14227245      -0.62624644       0.00000000       0.00000000       0.02634613       0.03184484      -0.03490000      -0.02713969
C        0.63982902       6.34074857      -0.35043803       0.00000000       0.00000000       0.01398730      -0.01121102      -0.01427171      -0.01650341
S        1.61262324       4.78504698      -0.18099354       0.00000000       0.00000000      -0.04818893      -0.03445779      -0.01026923      -0.27166318
C        3.30394897       5.15839123      -0.89102952       0.00000000       0.00000000       0.07348233       0.02860572      -0.03347022       0.06884725
C        3.22412060       4.94211514      -2.39997247       0.00000000       0.00000000       0.01686877       0.01748651       0.01897470      -0.10700939
C        3.74707575       6.58382072      -0.58791532       0.00000000       0.00000000      -0.01349854      -0.00561319       0.01098649      -0.11209719
C        4.30765818       4.19899340      -0.21870429       0.00000000       0.00000000      -0.00710952       0.01436041      -0.00899246      -0.07028969
C        3.85987474       2.74236708      -0.15199997       0.00000000       0.00000000       0.02047218      -0.00764619      -0.03418193      -0.06474870
C        4.94157069       1.77173211       0.32978257       0.00000000       0.00000000       0.01332732      -0.01329557       0.01812538      -0.06957771
C        4.32141703       0.44383525       0.78021326       0.00000000       0.00000000      -0.02176609      -0.00690636       0.01421826      -0.05847082
C        5.25580405      -0.76693020       0.73118352       0.00000000       0.00000000      -0.01377358       0.00798395       0.01728509      -0.06127514
C        5.80596353      -1.12626396      -0.65344852       0.00000000       0.00000000      -0.00511686      -0.00443289       0.02345987      -0.06731282
C        4.75784016      -1.10643895      -1.76857679       0.00000000       0.00000000       0.00747045       0.02548304      -0.00008869      -0.05665909
C        5.19495451      -1.93532388      -2.97130783       0.00000000       0.00000000       0.00684931       0.02085365       0.00783012      -0.11534996
C       -1.37578092       4.76996420      -0.18965866       0.00000000       0.00000000       0.02516003       0.05006462      -0.01167013      -0.01622327
C       -3.11386701      -3.63724292      -1.70379108       0.00000000       0.00000000       0.00119337      -0.03640826      -0.05474049      -0.01602313
C       -3.37398506      -4.74192314      -2.72619587       0.00000000       0.00000000       0.02853018      -0.05368004      -0.08652657      -0.02619106
C       -2.13355619      -5.60568136      -2.92774300       0.00000000       0.00000000       0.02311549      -0.04349987       0.00745165      -0.11832527
H        5.64315156      -0.19658788      -5.93704894       0.00000000       0.00000000       0.01274798       0.01663799      -0.01248600       0.04287704
H        4.82458942      -0.68851807      -7.41421975       0.00000000       0.00000000      -0.01479081       0.01697352      -0.02676723       0.05102134
H        4.72571075      -1.70110967      -5.98127144       0.00000000       0.00000000      -0.00732547      -0.00216310      -0.01892291       0.03604495
H        3.53520938       1.09397458      -6.30780902       0.00000000       0.00000000      -0.03210896       0.02299634      -0.00376225       0.03673738
H        3.49430348       0.17792480      -4.80210700       0.00000000       0.00000000      -0.00988802      -0.01077996       0.02708843       0.00651547
H        2.21354280      -1.63437825      -5.96009760       0.00000000       0.00000000       0.00220920      -0.01340164       0.01925589       0.02571872
H        2.25393269      -0.68835878      -7.44271315       0.00000000       0.00000000      -0.00861148      -0.01775988      -0.04391784       0.05222745
H        0.90599020       1.08139138      -6.42737544       0.00000000       0.00000000       0.02133518       0.02281537      -0.00532998       0.03903620
H        1.00466192       0.30051610      -4.84683127       0.00000000       0.00000000       0.01936840       0.00124709       0.01063244       0.00114675
H       -1.17172976      -0.18410674      -5.76421576       0.00000000       0.00000000       0.01524732      -0.00723180      -0.02138681       0.01121264
H       -0.21782709      -1.68172067      -5.81837811       0.00000000       0.00000000      -0.00473966       0.01396268      -0.00499795       0.01563961
H        0.19666405      -1.26120685      -8.25500646       0.00000000       0.00000000       0.01889454       0.00343152       0.00070572       0.04796898
H       -0.74103110       0.22551754      -8.12901709       0.00000000       0.00000000       0.00528339      -0.00465117      -0.02126375       0.04191002
H       -2.21238278      -1.37196284      -9.03307432       0.00000000       0.00000000       0.00490076       0.02146171      -0.01987794       0.05520089
H       -2.71476445      -1.23248659      -7.34972872       0.00000000       0.00000000       0.02329468      -0.00211287      -0.01058250       0.03594781
H       -1.33499895      -3.30209771      -6.84711572       0.00000000       0.00000000       0.02013998      -0.01209168      -0.02196092       0.01701290
H       -0.98366107      -3.42813895      -8.56920641       0.00000000       0.00000000      -0.02736878       0.00295203      -0.01024912       0.04730821
H       -3.11902035      -3.61609393     -10.17856406       0.00000000       0.00000000      -0.01416745       0.01824487       0.01820599       0.05510181
H       -4.14290342      -2.48885099      -9.27638048       0.00000000       0.00000000      -0.00347267      -0.00765227       0.03790013       0.05383384
H       -4.62604195      -4.16955589      -9.44325036       0.00000000       0.00000000       0.02981491       0.00644947       0.00223029       0.06054920
H       -2.16720497      -5.59894128      -9.00918419       0.00000000       0.00000000      -0.02248983      -0.00312096       0.02464347       0.05820862
H       -3.62520486      -5.96168632      -8.09146009       0.00000000       0.00000000      -0.02137201      -0.00036371      -0.00381951       0.05539113
H       -2.09085760      -5.71054320      -7.25548691       0.00000000       0.00000000       0.05243623       0.00988410      -0.06676473       0.02940660
H       -2.68736998      -4.98045944      -5.49384950       0.00000000       0.00000000       0.00036328       0.02201293      -0.00667058       0.05547635
H       -4.38789381      -5.47715723      -5.31730040       0.00000000       0.00000000       0.00765427      -0.03789177       0.00531234       0.06460284
H       -4.79084420      -3.54817715      -3.82421339       0.00000000       0.00000000      -0.04212842      -0.04295699      -0.01889629       0.06727812
H       -3.28512560      -1.82777366      -4.34094246       0.00000000       0.00000000       0.00408545      -0.03755145       0.00805586       0.07705107
H       -1.89163245      -2.91707773      -4.45028972       0.00000000       0.00000000      -0.08395669      -0.01580647      -0.01578680       0.07221071
H       -2.24901719      -0.09882848      -3.50550447       0.00000000       0.00000000      -0.09932221       0.06742244       0.04159185       0.08723823
H       -0.69743378      -0.92767896      -3.70981156       0.00000000       0.00000000       0.06970230      -0.03823254      -0.00077502       0.10357572
H       -1.79131086       1.99052977      -3.21542989       0.00000000       0.00000000      -0.07581116      -0.03289528       0.01277004       0.09100076
H       -0.02623118       2.19840978      -3.17282362       0.00000000       0.00000000       0.02857870      -0.03809553      -0.02251627       0.09946933
H       -1.67182759       4.39559351      -3.35803852       0.00000000       0.00000000       0.02212680      -0.01592196      -0.00157796       0.06598799
H        0.03791936       4.64600179      -2.92486829       0.00000000       0.00000000      -0.02540746      -0.00875621       0.00410706       0.07918133
H       -2.38502395       6.28234914      -2.10327729       0.00000000       0.00000000      -0.01172750       0.00790807       0.00280134       0.06194453
H        0.35902803       7.11487699      -3.14591164       0.00000000       0.00000000       0.00972687      -0.00802596      -0.00861649       0.04807537
H       -0.95774242       8.19984184      -2.69235904       0.00000000       0.00000000       0.02055756       0.01435007       0.04486200       0.07048410
H       -1.15945955       7.08351364      -4.03222961       0.00000000       0.00000000       0.03305860       0.01417796       0.03131671       0.06364899
H       -1.38283747       6.93719929      -0.09278381       0.00000000       0.00000000      -0.01017811      -0.01181572      -0.00781259       0.07139189
H        0.76737083       6.86739646       0.59467046       0.00000000       0.00000000      -0.00669102       0.00884121       0.00226343       0.05609093
H        1.09201231       6.93622001      -1.13610332       0.00000000       0.00000000       0.00386779      -0.01027528      -0.03360038       0.06940693
H        2.53073159       5.64823133      -2.85347608       0.00000000       0.00000000       0.02450788       0.01713733       0.01652291       0.04211277
H        2.88910855       3.93649739      -2.65101007       0.00000000       0.00000000       0.02508808       0.01604453       0.02353080       0.02403691
H        4.20395187       5.10466251      -2.84299702       0.00000000       0.00000000      -0.01555001      -0.00632689      -0.03701730       0.05949332
H        3.14239857       7.33036982      -1.09718525       0.00000000       0.00000000       0.01973101      -0.02655382      -0.00834837       0.04791537
H        4.77329188       6.70661384      -0.93167250       0.00000000       0.00000000      -0.03386218       0.01867797       0.03803929       0.06160851
H        3.72013840       6.78411020       0.48083697       0.00000000       0.00000000      -0.01572807       0.00377039      -0.00071863       0.05015913
H        4.51523397       4.55052898       0.79323773       0.00000000       0.00000000      -0.04865670       0.02880660      -0.00159040       0.04998033
H        5.24150708       4.26031353      -0.78265543       0.00000000       0.00000000      -0.00350875       0.00621257       0.01765096       0.05713231
H        3.58147856       2.44328657      -1.16503838       0.00000000       0.00000000       0.03806054       0.03623560      -0.05991780       0.02074047
H        2.98200547       2.66312968       0.49539177       0.00000000       0.00000000       0.00629848      -0.01358052      -0.04822751       0.05230726
H        5.49533024       2.20543590       1.16134410       0.00000000       0.00000000       0.00177408       0.04341376       0.03147675       0.04850061
H        5.65838854       1.60693733      -0.47346279       0.00000000       0.00000000      -0.00539079      -0.01990367      -0.01627791       0.05405238
H        3.43064736       0.22066657       0.17977757       0.00000000       0.00000000      -0.02256682       0.02895959      -0.00368461       0.03862559
H        3.97716613       0.56134010       1.81090935       0.00000000       0.00000000      -0.02362964       0.00031163       0.02710171       0.01992335
H        4.69446872      -1.62610551       1.11293077       0.00000000       0.00000000      -0.01440502      -0.01006733       0.00368224       0.01608689
H        6.09497906      -0.60757083       1.40840551       0.00000000       0.00000000       0.03269937       0.02878979      -0.01727948       0.05085931
H        6.22965792      -2.12913137      -0.57903600       0.00000000       0.00000000       0.03425394      -0.01347965      -0.02622702       0.04492603
H        6.62664912      -0.46235822      -0.92428705       0.00000000       0.00000000      -0.02047842       0.02541295       0.02535363       0.04888326
H        4.60791553      -0.07515792      -2.09450100       0.00000000       0.00000000      -0.01693544       0.04065740      -0.02392141       0.02240716
H        3.80321679      -1.48481179      -1.38749325       0.00000000       0.00000000       0.00738186       0.02291712       0.01859031       0.01698481
H        6.07996453      -1.50266211      -3.42678291       0.00000000       0.00000000       0.03345601       0.01043719       0.00556975       0.05734658
H        4.40963095      -1.96528790      -3.72161784       0.00000000       0.00000000      -0.00912325      -0.03578727       0.01091167       0.03862141
H        5.43884596      -2.95496250      -2.68172935       0.00000000       0.00000000      -0.02180418       0.00497836      -0.00034728       0.03776525
H       -2.45083935       4.80065332       0.01188377       0.00000000       0.00000000       0.03411575       0.03445889       0.03962877       0.07966038
H       -0.86177688       4.35579235       0.67975202       0.00000000       0.00000000      -0.01441113      -0.01682347      -0.04038759       0.10151762
H       -4.05387616      -3.29040043      -1.27188665       0.00000000       0.00000000      -0.00136187      -0.02645723       0.04395232       0.08747866
H       -2.43001974      -3.92814452      -0.90528400       0.00000000       0.00000000      -0.01371445       0.03535355      -0.00148224       0.07450134
H       -4.19991998      -5.37938224      -2.41004911       0.00000000       0.00000000       0.00543409      -0.00418632      -0.00109647       0.07035408
H       -1.27339876      -5.01163966      -3.23090618       0.00000000       0.00000000      -0.03252924      -0.00007732      -0.00106974       0.03642229
H       -2.31255649      -6.37061138      -3.67657085       0.00000000       0.00000000      -0.01458651       0.00479994      -0.00571754       0.06677269
H       -1.88995373      -6.11361289      -1.99858733       0.00000000       0.00000000       0.01951641      -0.01456147       0.02708034       0.05023693
C       -4.82007542      -4.46989623       4.77007180       0.00000000       0.00000000      -0.00860598      -0.00758883       0.00679156      -0.11025048
C       -3.50089191      -3.71295015       4.85861058       0.00000000       0.00000000      -0.02241625       0.01164630       0.00573798      -0.05268993
C       -2.30592130      -4.62799966       4.60514189       0.00000000       0.00000000       0.00024722      -0.00670536       0.00154901      -0.06381666
C       -0.97414745      -3.88733062       4.70466567       0.00000000       0.00000000       0.02431997       0.00045198       0.00729540      -0.06109418
C        0.22752506      -4.75667364       4.32808040       0.00000000       0.00000000       0.00195405      -0.01926036       0.01900280      -0.05687970
C        0.53490924      -5.84886158       5.34958507       0.00000000       0.00000000      -0.01790639      -0.00018307       0.00348183      -0.06476852
C        1.73860110      -6.70723165       4.95780686       0.00000000       0.00000000      -0.02189733      -0.00303619       0.01870945      -0.06619256
C        1.41720639      -7.70813781       3.84997352       0.00000000       0.00000000       0.03596606      -0.02793532      -0.00074456      -0.06252970
C        2.62604322      -8.52877093       3.38670073       0.00000000       0.00000000      -0.01149008      -0.08930225       0.02979748       0.07088616
C        3.40560473      -9.15582505       4.53958755       0.00000000       0.00000000      -0.00546663       0.00555543      -0.00185807      -0.11440587
C        2.18593867      -9.63591461       2.43685804       0.00000000       0.00000000       0.02201787      -0.00958768      -0.01227588      -0.10965100
S        3.83861156      -7.37222268       2.56825757       0.00000000       0.00000000       0.00946768       0.02262706      -0.03546177      -0.22621758
C        3.29109410      -7.27270678       0.81539318       0.00000000       0.00000000       0.00621301      -0.00068454       0.00330485      -0.02075153
C        3.35279589      -5.83173904       0.34639318       0.00000000       0.00000000      -0.00213294      -0.01336220       0.00088717      -0.02291705
C        2.37209858      -4.92146750       1.09131359       0.00000000       0.00000000       0.01940957       0.02368442      -0.05138460      -0.01921487
N        2.17194489      -3.81262039       0.17491922       0.00000000       0.00000000      -0.06317317       0.14798098       0.00978558      -0.03341414
C        1.53002960      -2.70287383       0.44939542       0.00000000       0.00000000       0.04114349      -0.12554703       0.08496109       0.25081733
O        1.32608899      -1.78653688      -0.38247251       0.00000000       0.00000000       0.02847116       0.07711477      -0.08296942      -0.39869617
C        1.02762074      -2.53590426       1.87950313       0.00000000       0.00000000       0.00149870      -0.01250961       0.03617949       0.03620104
O        0.57599518      -1.20169175       1.99073153       0.00000000       0.00000000      -0.02374008      -0.04132657       0.06187177      -0.21268758
C        0.90992862      -0.46710921       3.15566072       0.00000000       0.00000000      -0.01661457      -0.01354432       0.01240412       0.03793708
C        1.20481233       0.95446787       2.66508981       0.00000000       0.00000000      -0.07268254      -0.02021268      -0.02518765       0.25414829
O        1.24426281       1.16148313       1.42961282       0.00000000       0.00000000      -0.02616953       0.08801625       0.00256368      -0.38278625
N        1.40184321       1.88131598       3.56492648       0.00000000       0.00000000       0.05838460       0.05197753       0.01477585      -0.01847950
C        1.28002785       1.69501129       5.00046001       0.00000000       0.00000000       0.02896645       0.03035556      -0.03263967      -0.02608606
C        1.70933686       3.04538582       5.57904985       0.00000000       0.00000000       0.00072207       0.01386097       0.00246928      -0.02104384
C        1.21974042       3.26031039       7.00184945       0.00000000       0.00000000      -0.01983434       0.03335144      -0.01783468      -0.11920410
C        1.28210571       4.04331670       4.47561708       0.00000000       0.00000000      -0.02626531      -0.00244706       0.05185233      -0.02709622
C       -0.19733211       4.46009793       4.46386517       0.00000000       0.00000000      -0.01507562      -0.02306445       0.00262811      -0.01585702
S       -1.28474833       3.48486120       3.33929083       0.00000000       0.00000000       0.03602739      -0.03619080      -0.01541832      -0.27445577
C       -2.97234206       3.46331813       4.16152743       0.00000000       0.00000000      -0.06446238       0.01234244       0.04389193       0.06798627
C       -2.98792021       2.28063917       5.12679809       0.00000000       0.00000000      -0.01621632       0.03291411      -0.00318368      -0.10930758
C       -3.25618852       4.75761610       4.91258209       0.00000000       0.00000000       0.01394457       0.00426262      -0.01246640      -0.11209257
C       -4.03493708       3.32505305       3.05088036       0.00000000       0.00000000       0.00498472       0.00901026       0.01903283      -0.07075423
C       -3.74416054       2.23774214       2.02206663       0.00000000       0.00000000      -0.02618685      -0.02090376       0.02184247      -0.07131405
C       -4.89512748       1.93057109       1.05954305       0.00000000       0.00000000      -0.01624536       0.00255348      -0.02329541      -0.06954804
C       -4.38637082       1.16515403      -0.17044855       0.00000000       0.00000000       0.01952636       0.00314698      -0.01640654      -0.05871019
C       -5.40884536       0.23795482      -0.83315201       0.00000000       0.00000000       0.01462219       0.01899334      -0.00714852      -0.06152375
C       -5.94018905      -0.90493302       0.04070543       0.00000000       0.00000000       0.01074500       0.01293070      -0.01752665      -0.06710032
C       -4.86158644      -1.63779112       0.84125306       0.00000000       0.00000000       0.00103896       0.01649022       0.01641375      -0.05545333
C       -5.34743752      -2.99526403       1.33805674       0.00000000       0.00000000      -0.00188723       0.02016642       0.00595269      -0.11428019
C        1.70944528       3.26751799       3.22781774       0.00000000       0.00000000      -0.02340415       0.02895429       0.04600298      -0.01630397
C        2.76700527      -4.07787302      -1.12867147       0.00000000       0.00000000       0.02073071      -0.07988113      -0.00378080      -0.01717236
C        2.99953819      -5.58578721      -1.13339159       0.00000000       0.00000000      -0.02220852      -0.10938247       0.01472752      -0.02623518
C        1.75921140      -6.33294546      -1.61023894       0.00000000       0.00000000      -0.02046640      -0.03250291      -0.03579415      -0.11900504
H       -5.65850471      -3.79746257       4.92918389       0.00000000       0.00000000      -0.00507569       0.00327890       0.00677052       0.04300318
H       -4.86199110      -5.24803698       5.52609149       0.00000000       0.00000000       0.00702428      -0.00471918       0.02250415       0.05030078
H       -4.93671625      -4.94019172       3.79630792       0.00000000       0.00000000       0.00497043      -0.00618462      -0.00222879       0.03509820
H       -3.41042045      -3.26969478       5.85093354       0.00000000       0.00000000       0.01582186       0.01234294       0.02883758       0.03691931
H       -3.49857263      -2.89404335       4.13186501       0.00000000       0.00000000       0.00722788       0.01127024      -0.02884503       0.00863984
H       -2.39962727      -5.07890512       3.61379718       0.00000000       0.00000000      -0.00191854      -0.00068662      -0.03344735       0.02430935
H       -2.32945343      -5.43481694       5.33456559       0.00000000       0.00000000       0.00611237      -0.03050867       0.02325181       0.05151354
H       -0.84097017      -3.51982717       5.72288646       0.00000000       0.00000000      -0.01390075       0.01131470       0.02337671       0.04016136
H       -1.00832464      -3.01372023       4.04140082       0.00000000       0.00000000      -0.01891390       0.01276821       0.00356038       0.00140193
H        1.11699764      -4.12323563       4.24871082       0.00000000       0.00000000      -0.01652595      -0.02148832       0.00636416       0.00857862
H        0.04402276      -5.21266404       3.35112208       0.00000000       0.00000000      -0.00141949       0.00727915       0.02275234       0.01583462
H       -0.33047829      -6.49812245       5.47693911       0.00000000       0.00000000      -0.01486296       0.00475417       0.00360726       0.04787777
H        0.73818410      -5.37150608       6.30958186       0.00000000       0.00000000      -0.00803381      -0.01507322       0.01110535       0.04203954
H        2.05675999      -7.25988097       5.83946246       0.00000000       0.00000000      -0.00160128       0.00144073       0.02965744       0.05488102
H        2.57184120      -6.07154584       4.64545100       0.00000000       0.00000000      -0.02658755      -0.00751500       0.00505524       0.03590110
H        1.00993492      -7.18174441       2.98136260       0.00000000       0.00000000      -0.02084713      -0.02226706       0.00896188       0.01764049
H        0.64800982      -8.39801936       4.20507770       0.00000000       0.00000000       0.02215574      -0.00283949       0.00766877       0.04742740
H        2.74187038      -9.76953085       5.14556658       0.00000000       0.00000000       0.01113099       0.02533017      -0.00529575       0.05502635
H        3.86604741      -8.40304263       5.17366852       0.00000000       0.00000000       0.00422108       0.01834709      -0.03060737       0.05416469
H        4.19847677      -9.78915632       4.14730878       0.00000000       0.00000000      -0.03038127       0.00513184       0.00179873       0.06044137
H        1.63351595     -10.38446087       3.00257830       0.00000000       0.00000000       0.02229009       0.01923241      -0.02382353       0.05854089
H        3.04654287     -10.12267838       1.98525833       0.00000000       0.00000000       0.02451104      -0.00607032       0.00335174       0.05527905
H        1.53627931      -9.27496884       1.64120974       0.00000000       0.00000000      -0.05147051      -0.03373470       0.05984289       0.02877644
H        2.27988944      -7.66009247       0.74795557       0.00000000       0.00000000       0.00233004       0.00701089       0.01100674       0.05643657
H        3.96594369      -7.88983669       0.22524931       0.00000000       0.00000000      -0.01437032      -0.03138014      -0.03016644       0.06508598
H        4.36354220      -5.45411277       0.52390203       0.00000000       0.00000000       0.03862307      -0.04659801      -0.00635837       0.06675844
H        2.78006933      -4.60504349       2.05227937       0.00000000       0.00000000      -0.00227744      -0.01874452      -0.04698364       0.07735762
H        1.41538503      -5.42402498       1.26967341       0.00000000       0.00000000       0.07930283      -0.03253232       0.01946183       0.07033434
H        1.82669102      -2.76004339       2.59013117       0.00000000       0.00000000       0.09699580       0.06977915       0.02546711       0.08964632
H        0.19656936      -3.22546853       2.07560673       0.00000000       0.00000000      -0.02942019      -0.05450236      -0.02863010       0.10430719
H        1.78106113      -0.88322035       3.67282813       0.00000000       0.00000000       0.08710453      -0.01026990      -0.06524983       0.09192381
H        0.06627519      -0.45753844       3.85860074       0.00000000       0.00000000      -0.04719124      -0.04971203       0.00190932       0.10137129
H        1.91534504       0.88057073       5.35213102       0.00000000       0.00000000      -0.02540646      -0.01048363       0.01132774       0.06664548
H        0.23926301       1.47668800       5.26273520       0.00000000       0.00000000       0.02486164       0.00912517      -0.01612258       0.07967190
H        2.80296859       3.07198478       5.60313480       0.00000000       0.00000000       0.01437119       0.01213222       0.00380820       0.06225906
H        0.13857421       3.19697916       7.08424324       0.00000000       0.00000000      -0.02030146      -0.01076858      -0.00628885       0.04844539
H        1.54194632       4.22705396       7.37478643       0.00000000       0.00000000      -0.01681631       0.04714416      -0.01681992       0.07063698
H        1.64993285       2.49588819       7.64538730       0.00000000       0.00000000      -0.03382662       0.03170612      -0.00493980       0.06420304
H        1.86503866       4.96096301       4.57550270       0.00000000       0.00000000       0.00538235      -0.02340682      -0.00678598       0.07191631
H       -0.28208291       5.49216851       4.12495867       0.00000000       0.00000000       0.01362764       0.00045558       0.00399029       0.05597175
H       -0.61063145       4.39408054       5.46483562       0.00000000       0.00000000      -0.00554375      -0.03000438       0.01385557       0.06922293
H       -2.25117612       2.41986034       5.91609734       0.00000000       0.00000000      -0.02139042       0.02801703      -0.00281978       0.04243815
H       -2.76639625       1.33906009       4.62643434       0.00000000       0.00000000      -0.02164083       0.03361080      -0.00371152       0.02800850
H       -3.96718769       2.20594053       5.59367218       0.00000000       0.00000000       0.00995541      -0.03116131       0.02278750       0.06041184
H       -2.60921768       4.89669232       5.77526122       0.00000000       0.00000000      -0.02343742      -0.02587159      -0.01112282       0.04810494
H       -4.28181821       4.72525632       5.27777158       0.00000000       0.00000000       0.03752670       0.03526861      -0.01524615       0.06234931
H       -3.15623067       5.62113401       4.25880703       0.00000000       0.00000000       0.01612259       0.00243713       0.00262057       0.04975035
H       -4.14312437       4.28133476       2.53703201       0.00000000       0.00000000       0.04431505       0.02167866       0.02235818       0.04935052
H       -4.98681107       3.10780015       3.54061318       0.00000000       0.00000000       0.00127777       0.01740150      -0.00294561       0.05857439
H       -3.55017114       1.32120457       2.58001953       0.00000000       0.00000000      -0.03273253      -0.00814608       0.06702785       0.03012218
H       -2.85947579       2.52738116       1.44544225       0.00000000       0.00000000      -0.00913496      -0.03992511       0.03044446       0.04695078
H       -5.37593333       2.85185944       0.73414337       0.00000000       0.00000000       0.00470400       0.05071975      -0.00118712       0.04806308
H       -5.65111005       1.34884539       1.58479547       0.00000000       0.00000000      -0.00809564      -0.02119277      -0.00952389       0.05507965
H       -3.50037642       0.57242021       0.08846997       0.00000000       0.00000000       0.02090969       0.02188043       0.02259236       0.03345786
H       -4.06121084       1.89581711      -0.91559379       0.00000000       0.00000000       0.02740438       0.00915782      -0.02837090       0.01965004
H       -4.92896234      -0.19858115      -1.71524449       0.00000000       0.00000000       0.01551900      -0.00270959      -0.00724914       0.01583128
H       -6.25493956       0.82611424      -1.18857599       0.00000000       0.00000000      -0.02980417       0.00841682       0.03047367       0.05172754
H       -6.43534422      -1.61378124      -0.62517080       0.00000000       0.00000000      -0.02547197      -0.02632633       0.01646062       0.04461294
H       -6.70425715      -0.54137588       0.72782964       0.00000000       0.00000000       0.02718126       0.04576108      -0.00480542       0.04875719
H       -4.59245846      -1.02947526       1.70794141       0.00000000       0.00000000       0.01022608       0.01016883       0.04594455       0.01933996
H       -3.96500301      -1.76864331       0.22693121       0.00000000       0.00000000       0.00487225       0.02593754       0.00665539       0.01815689
H       -6.18843926      -2.87137348       2.01338186       0.00000000       0.00000000      -0.02462407       0.00930896       0.00532025       0.05648303
H       -4.55696568      -3.51373475       1.87461127       0.00000000       0.00000000       0.00877985      -0.01142383      -0.01873936       0.03803728
H       -5.67567595      -3.62380284       0.51335104       0.00000000       0.00000000       0.01745753       0.01052919      -0.00206875       0.03818251
H        2.78802322       3.35215975       3.06486768       0.00000000       0.00000000      -0.03308778       0.05635383      -0.01355301       0.08076270
H        1.18725068       3.56628789       2.31692820       0.00000000       0.00000000       0.00529558      -0.05933676       0.01528972       0.10154417
H        3.71849204      -3.54925262      -1.18712571       0.00000000       0.00000000       0.00822948       0.01118501      -0.05832135       0.08823218
H        2.10504699      -3.73012654      -1.92284206       0.00000000       0.00000000       0.00873258       0.01958388       0.02008678       0.07386325
H        3.83929592      -5.84795956      -1.77751960       0.00000000       0.00000000      -0.00817108      -0.01347764       0.00099634       0.06944162
H        0.88452683      -6.09067961      -1.00951907       0.00000000       0.00000000       0.04023819      -0.00431081      -0.00150360       0.03670724
H        1.91902837      -7.40586569      -1.57826683       0.00000000       0.00000000       0.01076799      -0.00401581       0.00878415       0.06686719
H        1.55091564      -6.06521649      -2.64260078       0.00000000       0.00000000      -0.02462733      -0.00496712      -0.02844602       0.05104135
O       -1.70438020      -0.12208778       1.82370091       0.00000000       0.00000000       0.09553321      -0.00379834      -0.11096617      -0.51374509
H       -2.46510177      -0.72753844       1.82395040       0.00000000       0.00000000      -0.01619744       0.05898817      -0.03159463       0.35174294
H       -2.02717880       0.74612260       2.13052640       0.00000000       0.00000000      -0.00735515      -0.01630688      -0.02237200       0.35874975
O        1.73097812       0.79552802      -1.65544643       0.00000000       0.00000000      -0.08591966      -0.06453590       0.06909890      -0.50840968
H        2.35628918       0.17351069      -2.06239454       0.00000000       0.00000000       0.05770272       0.03468328       0.04292505       0.35255170
H        2.20609902       1.63770327      -1.52972554       0.00000000       0.00000000       0.03969921      -0.07497907       0.06419077       0.34875526
