243
Properties=species:S:1:pos:R:3:initial_charges:R:1:initial_magmoms:R:1:forces:R:3:charge:R:1 energy=-7948.117187231638 free_energy=-7948.117187231638 dipole="-2.344166895172787 -2.213165094074912 1.3392877077021492" pbc="F F F"
Er       0.26611703       0.19565380      -0.36042133       2.00000000       0.00000000       0.05854570      -0.00178972       0.02957636       0.83779714
C       -1.29876097      -5.17395304      -3.39146923       0.00000000       0.00000000      -0.02162857       0.04283488       0.00991912      -0.10613401
C       -1.63361548      -3.68735820      -3.51019128       0.00000000       0.00000000       0.00483809       0.02321526      -0.03923413      -0.04885978
C       -1.96630561      -3.28059603      -4.95351282       0.00000000       0.00000000       0.01636577      -0.01922842      -0.00660849      -0.06185854
C       -0.82589376      -2.73795646      -5.82698879       0.00000000       0.00000000       0.00552498      -0.01601852       0.02525810      -0.06601477
C        0.44850262      -3.57586843      -5.97872115       0.00000000       0.00000000      -0.00874431      -0.01052324      -0.00057246      -0.06311544
C        1.44735331      -3.53966546      -4.81414119       0.00000000       0.00000000      -0.00502827       0.01359181      -0.01757370      -0.06290829
C        1.85025419      -2.12470944      -4.40219255       0.00000000       0.00000000       0.01341441      -0.01990023       0.00128171      -0.06945386
C        2.92863778      -2.12223255      -3.31941434       0.00000000       0.00000000       0.00224178       0.00858626       0.00160452      -0.01004990
N        2.53178858      -2.81333196      -2.08883629       0.00000000       0.00000000      -0.01021473      -0.01517070       0.00077844      -0.03870722
C        3.27467512      -4.02245024      -1.77414654       0.00000000       0.00000000       0.05799151      -0.01801674      -0.00952338      -0.02264063
C        4.75332061      -3.76890321      -1.44503363       0.00000000       0.00000000       0.03406605      -0.01878214       0.03256160      -0.07083266
C        5.40612846      -5.02687168      -0.86316030       0.00000000       0.00000000      -0.01825875      -0.02788118       0.02662922      -0.07047598
C        4.97972488      -5.31058698       0.57822200       0.00000000       0.00000000      -0.00469092      -0.04383900      -0.00012216      -0.06062415
C        5.46751197      -6.66485566       1.09949880       0.00000000       0.00000000      -0.01729913      -0.02399861      -0.01880628      -0.06495878
C        4.77915561      -7.84561369       0.40993283       0.00000000       0.00000000       0.01088904      -0.01110955       0.02078657      -0.05899098
C        5.12580073      -9.20077691       1.03300478       0.00000000       0.00000000       0.00837949       0.02657861      -0.01723453      -0.05728546
C        4.60069448      -9.37590954       2.45441168       0.00000000       0.00000000       0.02109415       0.00759876      -0.04769037      -0.10510814
C        1.54270869      -2.31685444      -1.36958653       0.00000000       0.00000000       0.06513478      -0.15260692      -0.07816693       0.25721345
O        0.82727672      -1.36803247      -1.76843017       0.00000000       0.00000000       0.10462018       0.06006670      -0.09025308      -0.39881255
C        1.17608112      -2.89526735       0.01391310       0.00000000       0.00000000      -0.06842334       0.01198813      -0.11366604       0.09265736
C        2.21751476      -2.57030472       1.08323812       0.00000000       0.00000000      -0.03637499      -0.02896810      -0.04717461      -0.13835969
O       -0.04560347      -2.25036600       0.38655463       0.00000000       0.00000000      -0.00187603      -0.02601135      -0.03514975      -0.24666929
C       -1.23372931      -3.04351215       0.20357589       0.00000000       0.00000000      -0.01361921       0.07072764      -0.09764885       0.09273824
C       -1.49428276      -3.70976570       1.55001193       0.00000000       0.00000000       0.01889172       0.06737947      -0.06289241      -0.13259155
C       -2.30577798      -2.06858830      -0.33658257       0.00000000       0.00000000       0.02679920       0.04031486      -0.04569214       0.25501199
O       -1.90753722      -0.90929515      -0.59376127       0.00000000       0.00000000       0.01563577      -0.00248388       0.08619504      -0.41253865
N       -3.56924594      -2.42644837      -0.54594508       0.00000000       0.00000000      -0.05437151      -0.01610273       0.04273732      -0.05011674
C       -4.09537347      -3.78721147      -0.47217080       0.00000000       0.00000000      -0.02051375      -0.02137860      -0.01574580      -0.01954650
C       -5.19640826      -4.03535589       0.57266812       0.00000000       0.00000000      -0.01331217      -0.00258700       0.03366468      -0.07408266
C       -4.73186261      -3.95600159       2.02682762       0.00000000       0.00000000      -0.02911582       0.01629722       0.02725433      -0.06424980
C       -5.87429418      -4.01944687       3.04717098       0.00000000       0.00000000      -0.01938808       0.01310438      -0.00344112      -0.06586384
C       -6.73784086      -2.75941380       3.14536802       0.00000000       0.00000000       0.00768641       0.01925414      -0.01087057      -0.06394138
C       -6.00096999      -1.49827040       3.60877208       0.00000000       0.00000000       0.00936616      -0.01881047       0.00232463      -0.05864155
C       -5.48649106      -1.58714064       5.04707896       0.00000000       0.00000000      -0.00887301      -0.00429259      -0.04438948      -0.05888812
C       -4.80245283      -0.29657580       5.48656346       0.00000000       0.00000000      -0.01997774      -0.04331121      -0.00455972      -0.10220751
C       -4.55466653      -1.40958512      -0.94935718       0.00000000       0.00000000      -0.00116641      -0.04768712       0.02829482      -0.01362157
C       -5.05930958      -1.44842263      -2.40086463       0.00000000       0.00000000       0.01611964       0.00781394       0.04273188      -0.06547679
C       -6.13665039      -0.36459244      -2.58359780       0.00000000       0.00000000       0.02829008       0.00868122      -0.01523276      -0.06203428
C       -6.55032775      -0.09361001      -4.03820905       0.00000000       0.00000000       0.00597689      -0.00068869      -0.01354062      -0.06421451
C       -5.54595245       0.68970020      -4.89212890       0.00000000       0.00000000       0.00095839       0.00721051       0.00328649      -0.06591346
C       -5.43947317       2.19502646      -4.60607047       0.00000000       0.00000000      -0.02534076      -0.02092760       0.01264646      -0.06294521
C       -6.50289177       3.07790751      -5.26303553       0.00000000       0.00000000       0.02321042      -0.04376033       0.01449052      -0.05803003
C       -6.13069367       4.55181195      -5.10993429       0.00000000       0.00000000      -0.03410192      -0.04900003      -0.01690945      -0.10476395
H       -1.02986594      -5.44206861      -2.36924862       0.00000000       0.00000000       0.01006959       0.00736339       0.00831767       0.00852418
H       -0.47652466      -5.44663478      -4.04506287       0.00000000       0.00000000      -0.03125625      -0.02438962       0.02195831       0.05326009
H       -2.15662834      -5.77668816      -3.67980096       0.00000000       0.00000000      -0.02714079       0.02765362       0.01895623       0.04540576
H       -0.81869064      -3.06816051      -3.12507709       0.00000000       0.00000000      -0.01556274      -0.00414820      -0.02479066       0.02256023
H       -2.50814925      -3.48238674      -2.88360602       0.00000000       0.00000000       0.02954566      -0.02207725      -0.03672027       0.00655350
H       -2.72247951      -2.49040305      -4.92357800       0.00000000       0.00000000      -0.00943933      -0.05465215      -0.02654304       0.02591656
H       -2.42358291      -4.13792867      -5.45039833       0.00000000       0.00000000       0.03569883      -0.01182960      -0.01760498       0.04626526
H       -0.55237161      -1.73975272      -5.48775297       0.00000000       0.00000000      -0.00449222      -0.02038163       0.03307564       0.03764137
H       -1.25088568      -2.62184168      -6.82763641       0.00000000       0.00000000       0.02937409       0.01158206       0.01765301       0.04394579
H        0.96823268      -3.20770533      -6.86589342       0.00000000       0.00000000       0.00362484       0.01143616       0.00425390       0.04421712
H        0.17819033      -4.61350398      -6.17932250       0.00000000       0.00000000      -0.01353839      -0.02265394       0.00784928       0.04445222
H        2.34173188      -4.08505636      -5.12876870       0.00000000       0.00000000      -0.02063207       0.01284074      -0.03084788       0.03682584
H        1.04020601      -4.05866316      -3.94655630       0.00000000       0.00000000       0.02011216       0.04303724      -0.01051786       0.03108435
H        0.98265863      -1.58364195      -4.02615355       0.00000000       0.00000000       0.02524214       0.00790613      -0.05992927       0.06035327
H        2.25109553      -1.58208977      -5.25986364       0.00000000       0.00000000      -0.04584837      -0.02866529      -0.01562706       0.06213219
H        3.18109636      -1.09169412      -3.05501796       0.00000000       0.00000000      -0.01454039       0.03408842      -0.02193795       0.06894538
H        3.82499861      -2.61199671      -3.69653641       0.00000000       0.00000000      -0.01854115      -0.00135146       0.02309929       0.08003683
H        3.21094712      -4.68438139      -2.64317576       0.00000000       0.00000000       0.03676430       0.03202171      -0.03740488       0.08151439
H        2.80370278      -4.54082130      -0.94156752       0.00000000       0.00000000      -0.01080607       0.04755904      -0.00729884       0.05982921
H        4.84951203      -2.94350864      -0.73781769       0.00000000       0.00000000      -0.04975585       0.02321188       0.00858569       0.04864594
H        5.29378065      -3.48772598      -2.34849595       0.00000000       0.00000000      -0.02402303       0.01988311      -0.00709221       0.05688205
H        6.49084838      -4.91328728      -0.89212926       0.00000000       0.00000000      -0.04218666       0.03362474       0.02253489       0.05890316
H        5.15451299      -5.87589262      -1.49881143       0.00000000       0.00000000      -0.01759600      -0.00361601       0.00453438       0.04925231
H        3.88825836      -5.30316056       0.65563205       0.00000000       0.00000000       0.01467705       0.00730720       0.01478790       0.01538599
H        5.36589930      -4.51871600       1.22683179       0.00000000       0.00000000       0.00112185      -0.02438291      -0.04086617       0.03149076
H        5.25726296      -6.70533932       2.16975124       0.00000000       0.00000000       0.02008665      -0.01038385      -0.02846130       0.04246770
H        6.54813816      -6.74388493       0.96933211       0.00000000       0.00000000      -0.03264311      -0.00247034      -0.01113719       0.04368664
H        5.07453377      -7.87484209      -0.64169601       0.00000000       0.00000000      -0.01972029       0.00347102       0.03999435       0.02967782
H        3.69312135      -7.70695723       0.44672148       0.00000000       0.00000000       0.04114496       0.00837944       0.02287114       0.02150092
H        6.20983632      -9.32992903       1.02797147       0.00000000       0.00000000      -0.01863411       0.00252231       0.00922785       0.03927393
H        4.69697090      -9.98269749       0.40114165       0.00000000       0.00000000       0.02483107       0.01064064       0.02499927       0.03624133
H        5.08695972      -8.68631392       3.14015176       0.00000000       0.00000000      -0.02212328      -0.02263091       0.00697250       0.03483852
H        4.80064121     -10.38745861       2.79806753       0.00000000       0.00000000      -0.01177148       0.01786425       0.00768997       0.04379356
H        3.52532883      -9.20751798       2.49105950       0.00000000       0.00000000       0.02574734      -0.00324532       0.00127830       0.03008432
H        1.01075196      -3.97895252      -0.04909346       0.00000000       0.00000000       0.03143399       0.02284232       0.02489735       0.06407052
H        2.34062770      -1.48888101       1.17733124       0.00000000       0.00000000      -0.03792772      -0.00158452      -0.04971529       0.11386586
H        3.17426093      -3.01315002       0.83262295       0.00000000       0.00000000       0.05036793       0.00801205       0.02372287       0.08951604
H        1.87445568      -2.97942097       2.03028435       0.00000000       0.00000000       0.04884188       0.01725045       0.07923561       0.08127128
H       -1.06542576      -3.79918305      -0.57713291       0.00000000       0.00000000       0.02219131       0.03010442      -0.01424720       0.06416479
H       -1.75725023      -2.94955134       2.27888917       0.00000000       0.00000000      -0.07008066      -0.03965437       0.06663897       0.06951347
H       -0.56567671      -4.17590595       1.87138856       0.00000000       0.00000000      -0.02951225      -0.06033216       0.03421915       0.07525145
H       -2.26211865      -4.46980354       1.50201823       0.00000000       0.00000000       0.04386909       0.02726281       0.04302497       0.07897934
H       -3.27952854      -4.48821863      -0.31354489       0.00000000       0.00000000       0.04398260       0.03628885       0.01353933       0.05905494
H       -4.51763226      -4.00985378      -1.45516872       0.00000000       0.00000000      -0.05655447      -0.00444576      -0.05019273       0.07833909
H       -5.57729982      -5.03932789       0.37832181       0.00000000       0.00000000      -0.02125762      -0.00087438       0.01803643       0.06452281
H       -6.02997434      -3.35152723       0.42031472       0.00000000       0.00000000       0.02793186       0.02661561      -0.04027099       0.06001601
H       -4.16518024      -3.03643187       2.17871796       0.00000000       0.00000000      -0.00052834      -0.01084396       0.00715783       0.03295197
H       -4.07764204      -4.80505122       2.23579097       0.00000000       0.00000000      -0.01725667       0.03019567      -0.01371741       0.03387937
H       -5.44269860      -4.22402571       4.02798258       0.00000000       0.00000000       0.00043252       0.00473067      -0.01756489       0.04629844
H       -6.51823764      -4.86605514       2.80391859       0.00000000       0.00000000      -0.01777333       0.01682116      -0.03545507       0.04542343
H       -7.54561462      -2.96436016       3.84993838       0.00000000       0.00000000       0.01175491       0.01324815      -0.00938719       0.04883559
H       -7.20358350      -2.55852956       2.17844853       0.00000000       0.00000000      -0.00036980       0.00871505      -0.01588139       0.02971907
H       -6.69568979      -0.65629105       3.53878745       0.00000000       0.00000000       0.02969033      -0.03279627       0.01522581       0.03588966
H       -5.16584299      -1.28341521       2.93332903       0.00000000       0.00000000      -0.01479481      -0.01805863       0.02207675       0.01327909
H       -4.77730245      -2.41304432       5.14047081       0.00000000       0.00000000      -0.03574777       0.02276491       0.00093148       0.03198808
H       -6.32752118      -1.79013602       5.71289871       0.00000000       0.00000000       0.04040614      -0.00214949      -0.03433139       0.04574717
H       -3.90672574      -0.11421667       4.89087443       0.00000000       0.00000000      -0.01583402       0.00854755       0.02274932       0.01065078
H       -4.50624163      -0.36152743       6.53001132       0.00000000       0.00000000       0.00190739       0.00722161       0.00514977       0.04347958
H       -5.47813740       0.54888470       5.37559451       0.00000000       0.00000000       0.03593243       0.00252635      -0.00159902       0.03997150
H       -4.11589452      -0.42613956      -0.76606062       0.00000000       0.00000000       0.03046295      -0.10258595      -0.03414168       0.06344164
H       -5.41243008      -1.53078588      -0.28418446       0.00000000       0.00000000      -0.01213087       0.04648312       0.00314288       0.07441924
H       -5.49823326      -2.42103580      -2.62935588       0.00000000       0.00000000       0.02315043       0.03344747      -0.01582671       0.04973644
H       -4.23097735      -1.28355840      -3.09177095       0.00000000       0.00000000       0.00710424       0.00813228       0.05301197       0.04502645
H       -5.79472798       0.56676381      -2.12767199       0.00000000       0.00000000       0.02990059       0.00259357      -0.02457398       0.03376129
H       -7.02916229      -0.67898159      -2.03692773       0.00000000       0.00000000       0.03983639       0.01932067       0.00339619       0.04436833
H       -7.49240189       0.45578779      -4.03012820       0.00000000       0.00000000      -0.00838002      -0.00832608       0.01529476       0.05002977
H       -6.74297899      -1.05118747      -4.52512830       0.00000000       0.00000000       0.00197266      -0.01619122       0.00110847       0.03949728
H       -5.82482407       0.56573564      -5.94029050       0.00000000       0.00000000      -0.01792289      -0.01237611       0.01390288       0.04507110
H       -4.56048152       0.23629736      -4.77177858       0.00000000       0.00000000       0.00032389      -0.00423190       0.00985949       0.02597420
H       -4.47308697       2.54579113      -4.98058331       0.00000000       0.00000000      -0.05187164      -0.03575126       0.02801759       0.02972309
H       -5.45617973       2.37341795      -3.52954577       0.00000000       0.00000000       0.00997890      -0.01482259      -0.01229899       0.02657786
H       -7.47919337       2.90324136      -4.80714110       0.00000000       0.00000000       0.02131364      -0.01467108      -0.05482437       0.03617166
H       -6.57901647       2.83566688      -6.32495057       0.00000000       0.00000000       0.02075944      -0.01108595       0.03429330       0.03977587
H       -6.06429040       4.82358448      -4.05744381       0.00000000       0.00000000      -0.01483836       0.00674335      -0.03602606       0.02626361
H       -6.87619913       5.18732024      -5.57778991       0.00000000       0.00000000      -0.03808929      -0.01311067       0.00656123       0.04567065
H       -5.17116829       4.76228655      -5.58026471       0.00000000       0.00000000      -0.02310296      -0.04446593       0.00552685       0.03411621
C        2.04733642       7.11085511       5.87686910       0.00000000       0.00000000      -0.02123414      -0.03904903      -0.01864049      -0.10742870
C        1.27224444       5.98756028       5.19809024       0.00000000       0.00000000       0.00665363      -0.03410118      -0.00356249      -0.05367033
C        1.77870875       4.58555556       5.55321943       0.00000000       0.00000000       0.01197696       0.01724444       0.00005654      -0.05427269
C        3.23745324       4.30273110       5.17988769       0.00000000       0.00000000      -0.01988200      -0.00479826      -0.00308790      -0.06020348
C        3.57812663       4.48847043       3.69935437       0.00000000       0.00000000      -0.00987398      -0.03388295       0.00627002      -0.06601485
C        2.80725550       3.62240696       2.69333281       0.00000000       0.00000000      -0.03657561      -0.00796622       0.01716457      -0.06025389
C        3.28766633       2.17624122       2.50960392       0.00000000       0.00000000      -0.01604513       0.00494922       0.03619941      -0.06696610
C        2.88735328       1.13726815       3.56761571       0.00000000       0.00000000      -0.01980734      -0.01163737      -0.00547544      -0.01040617
N        1.45192732       0.99847613       3.85553533       0.00000000       0.00000000       0.02830724       0.04967870       0.03325338      -0.04905174
C        1.14045524       0.80675975       5.26578480       0.00000000       0.00000000       0.00879698       0.00795204       0.03740871      -0.02312996
C        1.71005135      -0.52747724       5.76927467       0.00000000       0.00000000      -0.01561939      -0.01918288       0.05332337      -0.06823777
C        1.26676905      -0.85981547       7.19738582       0.00000000       0.00000000      -0.04231782      -0.00712741       0.02953462      -0.06565362
C       -0.23656344      -1.05893212       7.41747878       0.00000000       0.00000000      -0.01864593      -0.02124994      -0.01830480      -0.06547475
C       -0.95268805      -2.08588700       6.53080040       0.00000000       0.00000000       0.02014394      -0.00756221      -0.02687913      -0.05750677
C       -0.60222318      -3.56004169       6.77899429       0.00000000       0.00000000       0.00763201       0.02263851      -0.00039179      -0.06421691
C        0.65110817      -4.09835714       6.08104715       0.00000000       0.00000000      -0.02117899       0.02339252       0.02843377      -0.05913391
C        0.52800668      -4.14909445       4.56027049       0.00000000       0.00000000       0.00385096       0.00118935       0.05533322      -0.09976725
C        0.59749367       0.78979951       2.86643012       0.00000000       0.00000000       0.01428528       0.01731478      -0.03765788       0.25689554
O        0.99018824       0.54540602       1.70485205       0.00000000       0.00000000      -0.07718552       0.05293615      -0.00254370      -0.37664471
C       -0.92946902       0.94110785       3.09459040       0.00000000       0.00000000       0.12623316      -0.04116868      -0.05398875       0.09739303
C       -1.20576324       2.36155328       3.58911889       0.00000000       0.00000000       0.01367729      -0.06949141      -0.08133047      -0.12731487
O       -1.51062141       0.57123461       1.82960748       0.00000000       0.00000000       0.00483708       0.00160245      -0.00609189      -0.28146923
C       -2.63486350       1.23699188       1.23887394       0.00000000       0.00000000       0.04724549       0.03627351      -0.10448664       0.08729710
C       -3.76489196       1.65046153       2.16613025       0.00000000       0.00000000       0.00932144      -0.03058884      -0.07358284      -0.13614383
C       -2.10638983       2.10910439       0.06568134       0.00000000       0.00000000      -0.09964436       0.00769944       0.04587137       0.27734487
O       -0.88559008       2.09461083      -0.11498545       0.00000000       0.00000000       0.00344896      -0.17338813      -0.01475038      -0.32993878
N       -2.99809839       2.56076773      -0.88656452       0.00000000       0.00000000       0.00822365       0.06109943       0.03901728      -0.15276676
C       -2.87491865       2.06731140      -2.28957043       0.00000000       0.00000000       0.01912546       0.01893786       0.08231106      -0.00906021
C       -1.55599837       1.45368801      -2.76006006       0.00000000       0.00000000       0.02430596       0.02622948      -0.02321664      -0.07456963
C       -1.65862410       0.47502176      -3.94450417       0.00000000       0.00000000       0.02252201      -0.00574747      -0.00721206      -0.05905743
C       -1.90759607       1.01302274      -5.35690482       0.00000000       0.00000000       0.04426078       0.03732718       0.01772279      -0.06836309
C       -0.79649528       1.89854049      -5.91817288       0.00000000       0.00000000       0.00504591       0.03798746      -0.00293145      -0.06104742
C       -0.85254436       2.08496635      -7.44238397       0.00000000       0.00000000      -0.02923588      -0.01180673       0.01758771      -0.06385790
C       -2.13452179       2.71331634      -8.00985517       0.00000000       0.00000000       0.02328670       0.00725828       0.04635885      -0.05639251
C       -3.27559236       1.73188670      -8.27560442       0.00000000       0.00000000       0.05555313       0.03853250       0.00528405      -0.10779589
C       -3.54308305       3.92661650      -0.76221064       0.00000000       0.00000000      -0.06905989       0.05176947       0.02494991      -0.00198983
C       -4.70763288       4.11154193       0.20556184       0.00000000       0.00000000      -0.09830468      -0.05442369       0.02697406      -0.07979889
C       -5.92132814       3.24296359      -0.15110305       0.00000000       0.00000000      -0.04899817      -0.02383127      -0.03317917      -0.06329961
C       -6.88372978       3.95684277      -1.10364576       0.00000000       0.00000000      -0.02219114      -0.01338873       0.00428931      -0.06275418
C       -7.88461272       3.02251294      -1.78829597       0.00000000       0.00000000      -0.01474352      -0.01631290       0.03833479      -0.06651648
C       -8.67222569       2.10720562      -0.85227668       0.00000000       0.00000000      -0.01148021      -0.01458181      -0.01340894      -0.06157074
C       -9.65707880       1.24900501      -1.65098204       0.00000000       0.00000000       0.00700146       0.02610675       0.03370436      -0.05626624
C      -10.32831009       0.18034996      -0.79686993       0.00000000       0.00000000       0.00651424       0.03449638      -0.01252808      -0.10485438
H        1.59055141       8.06814245       5.63795022       0.00000000       0.00000000       0.01474243      -0.00294911       0.02219997       0.04173503
H        3.08034135       7.13736777       5.54048849       0.00000000       0.00000000      -0.01147971       0.00171894       0.01056843       0.04119976
H        2.03507859       6.98511288       6.95708860       0.00000000       0.00000000       0.01239524      -0.00105804      -0.01239267       0.04086152
H        1.30254824       6.12733000       4.11502365       0.00000000       0.00000000       0.00730054      -0.00783191       0.02244164       0.03000203
H        0.22367951       6.05093429       5.50442163       0.00000000       0.00000000       0.02479132      -0.00058570      -0.01447614       0.02684478
H        1.12627771       3.85525189       5.06210506       0.00000000       0.00000000       0.03513539       0.02875837       0.01617046       0.00400695
H        1.67360235       4.43943680       6.63193439       0.00000000       0.00000000      -0.00339797       0.01915448      -0.01584251       0.03226269
H        3.49037053       3.28813023       5.49787097       0.00000000       0.00000000      -0.01308664       0.00218325      -0.00096093       0.01917483
H        3.87780309       4.97396159       5.75417978       0.00000000       0.00000000      -0.01439492      -0.00548370      -0.01909554       0.04956356
H        4.64849622       4.31852007       3.56768416       0.00000000       0.00000000      -0.00374895      -0.05123752      -0.00962391       0.04113328
H        3.39643531       5.53368016       3.44226142       0.00000000       0.00000000      -0.00680566      -0.03594678      -0.00137926       0.04977951
H        2.92529900       4.10412676       1.71982819       0.00000000       0.00000000      -0.02460233      -0.01760230      -0.00286431       0.04436887
H        1.74210813       3.63955774       2.92598328       0.00000000       0.00000000      -0.04139642      -0.04032630       0.02045037       0.02873407
H        4.38004927       2.17131539       2.50126073       0.00000000       0.00000000      -0.01446693       0.01435983      -0.04016932       0.06599014
H        2.96011876       1.83379031       1.52396475       0.00000000       0.00000000      -0.02941164      -0.03728329       0.06584555       0.05409448
H        3.35708577       1.39948090       4.51459598       0.00000000       0.00000000       0.01604425      -0.01468828      -0.04503969       0.08153933
H        3.27185538       0.16590158       3.24016599       0.00000000       0.00000000       0.03569536       0.00641547       0.00107606       0.06350578
H        0.06610587       0.81665118       5.42574055       0.00000000       0.00000000      -0.02485497      -0.01355922      -0.05319503       0.06570915
H        1.57737116       1.62885547       5.83435953       0.00000000       0.00000000       0.00555149       0.03654096       0.05312167       0.07948636
H        2.79984789      -0.48430711       5.76994355       0.00000000       0.00000000      -0.00252852      -0.00707172      -0.04095895       0.04984155
H        1.41441341      -1.32703149       5.08908820       0.00000000       0.00000000      -0.04483533       0.03096623       0.00331660       0.04569532
H        1.59412924      -0.05500329       7.85920800       0.00000000       0.00000000      -0.00448844      -0.00032122      -0.00557351       0.04528456
H        1.79263750      -1.76143647       7.51268842       0.00000000       0.00000000      -0.00263349       0.02309102      -0.01325304       0.05696037
H       -0.74787853      -0.09931697       7.29678167       0.00000000       0.00000000       0.02125113      -0.00418421      -0.00903227       0.02541086
H       -0.37446645      -1.35241334       8.45992409       0.00000000       0.00000000       0.00156866      -0.00992461      -0.02047826       0.05164336
H       -0.80386975      -1.84019148       5.47724559       0.00000000       0.00000000       0.01405118      -0.00142394      -0.01594267       0.01705116
H       -2.02135368      -1.97209976       6.73474528       0.00000000       0.00000000       0.02894051       0.00224479      -0.02114044       0.03447839
H       -1.44950903      -4.16885932       6.45020440       0.00000000       0.00000000       0.02095071       0.01399891       0.00067661       0.03444491
H       -0.49815399      -3.71693014       7.85385276       0.00000000       0.00000000       0.02141925       0.02665741      -0.01037134       0.04542507
H        0.81891847      -5.11564660       6.44186102       0.00000000       0.00000000      -0.00097588       0.03164958      -0.00544334       0.04214372
H        1.52655749      -3.51058213       6.35573239       0.00000000       0.00000000      -0.01845561      -0.00324591      -0.01909241       0.03866622
H       -0.32941332      -4.75599943       4.27489189       0.00000000       0.00000000       0.01627645       0.00715752       0.01102657       0.03386325
H        1.42661859      -4.59310742       4.13526888       0.00000000       0.00000000      -0.02082012      -0.00151736      -0.01191079       0.02940236
H        0.40252305      -3.15175233       4.13819406       0.00000000       0.00000000      -0.00843670      -0.02866940      -0.00351570       0.01507251
H       -1.28504903       0.18952266       3.81912626       0.00000000       0.00000000       0.06409341       0.10543611       0.01954238       0.06158356
H       -1.18444938       3.04768970       2.74594139       0.00000000       0.00000000      -0.00792428       0.05212419      -0.00640503       0.06760852
H       -0.43664185       2.67187365       4.29293140       0.00000000       0.00000000      -0.05528231       0.00256698      -0.06523951       0.07123357
H       -2.16388648       2.41958154       4.09585735       0.00000000       0.00000000       0.05123238       0.05415379       0.02856796       0.07533526
H       -3.04979766       0.41828581       0.62789886       0.00000000       0.00000000      -0.02272293      -0.03621233       0.05467618       0.11095594
H       -3.61556571       2.60336694       2.65726147       0.00000000       0.00000000      -0.01136507       0.00496786      -0.03535246       0.07358754
H       -3.89836391       0.87709219       2.91760725       0.00000000       0.00000000       0.03870479       0.00190858       0.07865466       0.07979207
H       -4.67515253       1.68545711       1.58073637       0.00000000       0.00000000      -0.10366903       0.09444134       0.00642557       0.08410190
H       -3.13377623       2.89406207      -2.95188460       0.00000000       0.00000000       0.03114699      -0.09071552      -0.01616321       0.08283668
H       -3.65853954       1.30266491      -2.36636782       0.00000000       0.00000000       0.06030467       0.00952837      -0.08887477       0.07068994
H       -1.14823635       0.82212183      -1.95218180       0.00000000       0.00000000       0.02369470       0.04745146      -0.02716036       0.11096476
H       -0.84501566       2.24554989      -2.99911387       0.00000000       0.00000000       0.08977293       0.00301115       0.02295641       0.09164733
H       -2.43708467      -0.25756398      -3.71507537       0.00000000       0.00000000      -0.00271984       0.00496622       0.02854346       0.03409683
H       -0.70846364      -0.06474742      -3.95802661       0.00000000       0.00000000       0.04018481      -0.00881248      -0.00475569       0.04979203
H       -2.84554226       1.56166852      -5.38592004       0.00000000       0.00000000       0.04644930      -0.01299849       0.01947434       0.04892236
H       -1.99999692       0.13893477      -6.00850233       0.00000000       0.00000000      -0.06879340       0.07104745       0.02010588       0.04878220
H        0.17341189       1.45438543      -5.67674522       0.00000000       0.00000000      -0.01511582       0.00681371       0.02164317       0.02955662
H       -0.83347629       2.88081244      -5.44484400       0.00000000       0.00000000      -0.00982411       0.03017836       0.02102334       0.03140977
H       -0.68309442       1.12506634      -7.93569454       0.00000000       0.00000000      -0.02574481      -0.01493436       0.04088624       0.03650486
H       -0.01440936       2.73590911      -7.70636988       0.00000000       0.00000000      -0.03008412      -0.04914933      -0.00329480       0.03854837
H       -1.87901641       3.18657987      -8.96152146       0.00000000       0.00000000      -0.00745585      -0.02483900       0.05090856       0.03967549
H       -2.47920150       3.50577764      -7.34172338       0.00000000       0.00000000       0.00022906      -0.00827747       0.02092942       0.02942688
H       -2.93927028       0.92290092      -8.92064876       0.00000000       0.00000000       0.01274730       0.01760054       0.01020378       0.03562109
H       -4.09009131       2.24692835      -8.78112624       0.00000000       0.00000000       0.02216514      -0.00677998       0.01435397       0.03875063
H       -3.66607773       1.30110862      -7.35848978       0.00000000       0.00000000      -0.00985865       0.00218275      -0.05364030       0.03259861
H       -3.89216782       4.20722062      -1.75308947       0.00000000       0.00000000      -0.03604377       0.03990837      -0.03920024       0.07857160
H       -2.73685602       4.61654121      -0.49164042       0.00000000       0.00000000       0.04377831      -0.00610969       0.02697949       0.04567535
H       -4.99833901       5.16421327       0.16023948       0.00000000       0.00000000       0.03091769      -0.05667948      -0.00662217       0.06711087
H       -4.38009905       3.91877668       1.22269707       0.00000000       0.00000000      -0.00282445       0.03808172       0.00593788       0.04170805
H       -6.46899396       2.97701830       0.75469218       0.00000000       0.00000000       0.03575296       0.04088257       0.00029877       0.03929843
H       -5.57483042       2.31603542      -0.61545390       0.00000000       0.00000000       0.03936335       0.00857352       0.00227794       0.02787188
H       -6.30608236       4.45558965      -1.88543297       0.00000000       0.00000000      -0.02172276       0.02716690       0.02417226       0.03320981
H       -7.42161976       4.72848280      -0.55130630       0.00000000       0.00000000       0.00163109      -0.00933595       0.01829718       0.04184815
H       -7.35109295       2.39616442      -2.50413986       0.00000000       0.00000000      -0.02458923       0.01275914       0.03268275       0.03823692
H       -8.59484399       3.63258761      -2.35077002       0.00000000       0.00000000       0.04932729      -0.00087895       0.00165754       0.04313295
H       -9.21662326       2.70403500      -0.11680521       0.00000000       0.00000000       0.01271847      -0.03209314      -0.03545450       0.03706115
H       -7.98894568       1.44836947      -0.30842777       0.00000000       0.00000000      -0.01602422       0.01902211      -0.02501435       0.01925976
H       -9.12696259       0.76307930      -2.47647042       0.00000000       0.00000000      -0.03562499       0.04941750       0.05163273       0.02530615
H      -10.42177145       1.89675034      -2.08430808       0.00000000       0.00000000       0.02338287      -0.03840943      -0.00821722       0.03948538
H       -9.58916861      -0.49371666      -0.36492793       0.00000000       0.00000000      -0.01049782       0.02853135       0.00743305       0.02278889
H      -11.01251531      -0.40812692      -1.40250506       0.00000000       0.00000000      -0.01632540       0.00264243       0.02357797       0.04230964
H      -10.89147012       0.63914186       0.01150325       0.00000000       0.00000000      -0.00034758      -0.02150270       0.01504411       0.04161653
N        2.37250049       1.20827456      -1.27958389       0.00000000       0.00000000      -0.08155717      -0.01899348      -0.02009147       0.78427980
O        3.31986787       1.85292878      -1.58568636       0.00000000       0.00000000       0.03313992      -0.05389444       0.03629102      -0.37759614
O        2.45632759       0.24718348      -0.49159946       0.00000000       0.00000000       0.00587645       0.00462248       0.11217316      -0.45890638
O        1.24158727       1.44239503      -1.73964890       0.00000000       0.00000000      -0.03709808       0.01192071       0.04501099      -0.43951886
