156
Properties=species:S:1:pos:R:3:initial_charges:R:1:initial_magmoms:R:1:forces:R:3:charge:R:1 energy=-5417.893406156471 free_energy=-5417.893406156471 dipole="0.8988569998550271 -2.6581194069053318 0.639072559801984" pbc="F F F"
Eu      -0.29633859      -0.04770980      -0.29580038       3.00000000       0.00000000      -0.05201314       0.03103754       0.06256553       0.83219613
C        2.95098640      -7.28802427      -0.17966127       0.00000000       0.00000000      -0.00144216      -0.03200732      -0.01011975      -0.11074836
C        3.84895375      -6.07451658      -0.38391701       0.00000000       0.00000000       0.04155869       0.03833851       0.08123551      -0.05374833
C        4.29721638      -5.87957475      -1.82903864       0.00000000       0.00000000      -0.00998336      -0.01364147      -0.01814662      -0.06409739
C        3.15245972      -5.73953476      -2.83041811       0.00000000       0.00000000      -0.05321856       0.03999115      -0.08789720      -0.06882304
C        2.13699746      -4.62822030      -2.53967190       0.00000000       0.00000000       0.00390130      -0.04210588       0.00964997      -0.05398698
C        1.24246840      -4.41520186      -3.76142964       0.00000000       0.00000000       0.00000647       0.02529996       0.02466548      -0.07538539
C        0.26722401      -3.23612076      -3.64432015       0.00000000       0.00000000       0.00131915       0.01881645      -0.03482817      -0.07132300
C       -1.17746359      -3.62142907      -3.30856906       0.00000000       0.00000000      -0.04804576       0.00889075       0.07496166      -0.01773565
N       -1.42669776      -3.84326772      -1.88278470       0.00000000       0.00000000       0.03322546      -0.08341924      -0.06070218      -0.03186414
C       -1.46592809      -5.21328079      -1.37760625       0.00000000       0.00000000       0.05926330      -0.02007978       0.04227905      -0.02691053
C       -2.81971994      -5.73509524      -0.89544350       0.00000000       0.00000000       0.04829922       0.02047464       0.05306159      -0.08027911
C       -3.88744553      -5.95270952      -1.96551121       0.00000000       0.00000000       0.00746402      -0.02683142       0.03014636      -0.06752218
C       -5.29395086      -5.95081606      -1.35581940       0.00000000       0.00000000      -0.00040288      -0.01783150       0.03778627      -0.06580945
C       -5.48016933      -6.90001075      -0.16016899       0.00000000       0.00000000      -0.00544038      -0.00785402      -0.00521685      -0.07146487
C       -5.31671223      -6.22987888       1.20781872       0.00000000       0.00000000      -0.02364309      -0.05234811      -0.00484632      -0.05849549
C       -5.81128558      -7.10004509       2.36513476       0.00000000       0.00000000      -0.02584094      -0.05082840       0.01643522      -0.05883101
C       -4.94938271      -8.33689327       2.59587528       0.00000000       0.00000000      -0.00833886       0.01585853      -0.01168183      -0.10766070
C       -1.48197352      -2.77120224      -1.11917387       0.00000000       0.00000000      -0.01228279       0.04524651       0.04454474       0.25722117
O       -1.18201796      -1.62936164      -1.55605251       0.00000000       0.00000000       0.00516635       0.12759849       0.01148835      -0.39150036
C       -1.99720341      -2.88904738       0.31339452       0.00000000       0.00000000       0.00562469      -0.07919468       0.04754148       0.03950100
O       -1.83354806      -1.66344699       1.02854373       0.00000000       0.00000000      -0.05292105      -0.06053799      -0.08948275      -0.22350012
C       -3.04014449      -1.04610355       1.47310540       0.00000000       0.00000000      -0.08469770       0.04252053       0.02266947       0.03712822
C       -3.00454014       0.38328004       0.94354104       0.00000000       0.00000000       0.04761195      -0.01404357      -0.07847264       0.27261785
O       -2.61521077       0.53285906      -0.23135624       0.00000000       0.00000000      -0.03665146      -0.02401350       0.10588199      -0.36918359
N       -3.40948919       1.40667621       1.70493464       0.00000000       0.00000000       0.04985256       0.06310925       0.05173951      -0.04782320
C       -3.01457840       1.45569435       3.10173232       0.00000000       0.00000000      -0.03448164       0.05008396       0.15960747      -0.03271260
C       -1.46170848       1.63071328       3.08402656       0.00000000       0.00000000      -0.10892203      -0.01481122      -0.02266737       0.04974038
O       -1.02211990       1.88742287       1.74839343       0.00000000       0.00000000       0.15085613      -0.02750891      -0.01703535      -0.26353733
C       -1.69691241       3.03782602       1.22603536       0.00000000       0.00000000       0.02063438      -0.03708431      -0.05456506       0.05284013
C       -3.21567447       2.72217326       1.10826943       0.00000000       0.00000000      -0.03155179      -0.03290763      -0.01357404      -0.02804422
H        2.74723483      -7.44492144       0.87823660       0.00000000       0.00000000       0.01008642      -0.01792027      -0.01688406       0.03003122
H        3.43527326      -8.18307421      -0.56038611       0.00000000       0.00000000       0.00328694       0.03096039       0.00455552       0.06114845
H        2.00266404      -7.16730530      -0.69708806       0.00000000       0.00000000      -0.01573300      -0.02094826       0.01396460       0.03127733
H        4.73664414      -6.18759371       0.24407297       0.00000000       0.00000000      -0.00113788      -0.00332557      -0.04419706       0.03499798
H        3.32922129      -5.16697555      -0.06376598       0.00000000       0.00000000       0.00150696      -0.00296280      -0.00571278       0.00225593
H        4.89771345      -6.73518474      -2.13595169       0.00000000       0.00000000       0.02817731      -0.02078047       0.01509345       0.05760157
H        4.94031813      -4.99785725      -1.87934220       0.00000000       0.00000000      -0.00575999       0.04294882      -0.00947392       0.02668115
H        2.61867224      -6.68568860      -2.89572191       0.00000000       0.00000000      -0.01650415      -0.05478329      -0.03355020       0.05054041
H        3.59540429      -5.55074244      -3.81045746       0.00000000       0.00000000      -0.00707474      -0.01875217       0.01096140       0.04652333
H        2.65551941      -3.69264796      -2.30660643       0.00000000       0.00000000       0.04543012      -0.01782693      -0.01054982       0.01269369
H        1.52518767      -4.89552256      -1.67408743       0.00000000       0.00000000       0.02149279       0.02486782      -0.00629184       0.01715275
H        0.68724386      -5.33025828      -3.96761524       0.00000000       0.00000000       0.03927116      -0.03084567      -0.01378725       0.05234821
H        1.89198092      -4.24605301      -4.62023949       0.00000000       0.00000000       0.00630026       0.01674857      -0.01536935       0.05823298
H        0.22449294      -2.72045610      -4.60319965       0.00000000       0.00000000       0.01257696      -0.00854600      -0.04038568       0.06454145
H        0.62731187      -2.51410160      -2.90312931       0.00000000       0.00000000       0.01238517       0.01085069       0.01154298       0.05299866
H       -1.46731132      -4.52329438      -3.84570828       0.00000000       0.00000000       0.00471684       0.00784655      -0.01277138       0.09411824
H       -1.83821006      -2.80572845      -3.61618301       0.00000000       0.00000000       0.00674926      -0.01440703      -0.01221620       0.07416200
H       -0.76443871      -5.27964157      -0.53837135       0.00000000       0.00000000       0.03369103      -0.02301532      -0.03664633       0.05315380
H       -1.09639949      -5.85644589      -2.17300212       0.00000000       0.00000000       0.00399349      -0.03911888      -0.06345229       0.09862192
H       -3.21719037      -5.05983580      -0.14701544       0.00000000       0.00000000      -0.06939961       0.01069142       0.05225283       0.04196893
H       -2.62291963      -6.68531785      -0.39601869       0.00000000       0.00000000      -0.01219686       0.02776207      -0.02443879       0.07655702
H       -3.71637699      -6.91134495      -2.45211304       0.00000000       0.00000000       0.01907332      -0.00502448      -0.08858558       0.05687167
H       -3.83573481      -5.17049485      -2.72563916       0.00000000       0.00000000       0.00938454       0.00944707       0.00757827       0.03101622
H       -5.99230886      -6.24039547      -2.13931464       0.00000000       0.00000000      -0.00011517       0.01405830      -0.05051325       0.05622716
H       -5.55654174      -4.93298499      -1.05399519       0.00000000       0.00000000      -0.00479686      -0.00204063       0.00806075       0.02374564
H       -4.79294915      -7.74150340      -0.25272658       0.00000000       0.00000000      -0.04593841       0.01298465       0.00107993       0.04522612
H       -6.49279082      -7.30281195      -0.20098354       0.00000000       0.00000000       0.01463663      -0.00390000       0.00593751       0.05635090
H       -5.89310363      -5.30134428       1.20619522       0.00000000       0.00000000      -0.02100845       0.03228292       0.01224763       0.02031998
H       -4.27141541      -5.98038648       1.40471600       0.00000000       0.00000000       0.01605532       0.01123074      -0.01472245       0.01088555
H       -6.84133874      -7.40494423       2.17534243       0.00000000       0.00000000       0.02313341      -0.00156576      -0.00044255       0.04639159
H       -5.81096700      -6.49446211       3.27500611       0.00000000       0.00000000      -0.00796884      -0.01258228       0.00299893       0.03091621
H       -5.00305280      -9.01577693       1.74945032       0.00000000       0.00000000      -0.00034012       0.01055342      -0.00013361       0.04309602
H       -5.29289204      -8.87446661       3.47601522       0.00000000       0.00000000       0.00342528       0.02763283      -0.02567743       0.04966797
H       -3.90803527      -8.05585941       2.75229239       0.00000000       0.00000000      -0.01596975      -0.01603535       0.00252386       0.02351332
H       -1.45828801      -3.67945345       0.84886217       0.00000000       0.00000000      -0.00633051       0.03754395       0.00257376       0.10867423
H       -3.05677947      -3.15282178       0.26766575       0.00000000       0.00000000      -0.01908681      -0.03216182      -0.00646376       0.10285434
H       -3.11257903      -1.12303460       2.56199354       0.00000000       0.00000000       0.03786530      -0.03306326      -0.01735200       0.09851722
H       -3.92347616      -1.52553894       1.02874603       0.00000000       0.00000000       0.00247114       0.04868404       0.04182374       0.11078623
H       -3.32389467       0.57775352       3.66930890       0.00000000       0.00000000       0.04920717       0.01323961      -0.11466205       0.08740842
H       -3.50925249       2.31352399       3.56070548       0.00000000       0.00000000       0.02162863       0.01289344      -0.01906090       0.10916512
H       -0.95197834       0.71378528       3.38313601       0.00000000       0.00000000       0.00237178      -0.02711687       0.03286042       0.09076657
H       -1.16499061       2.44365453       3.75829890       0.00000000       0.00000000       0.02208312       0.01372513      -0.09542408       0.08575118
H       -1.23880520       3.24231722       0.25660825       0.00000000       0.00000000      -0.02092974      -0.00455027      -0.01900258       0.10059026
H       -1.53079427       3.89782469       1.88074171       0.00000000       0.00000000       0.02078505      -0.00750288       0.08114050       0.08473729
H       -3.55488880       2.68701292       0.07269128       0.00000000       0.00000000       0.03928279       0.02865963       0.01343650       0.10081300
H       -3.82470324       3.43779421       1.65937334       0.00000000       0.00000000       0.00192176       0.02999954      -0.04239600       0.10476867
C       -0.45643961       0.39736808       6.83640293       0.00000000       0.00000000       0.00022754       0.01287479       0.01299755      -0.11045711
C       -0.56124664      -1.09346741       6.53045392       0.00000000       0.00000000      -0.00419951       0.02129843       0.02625991      -0.06334231
C       -0.72784737      -1.32461806       5.03099203       0.00000000       0.00000000       0.02220932       0.01782011       0.00784070      -0.05180183
C       -0.83299777      -2.78360132       4.58934238       0.00000000       0.00000000       0.04598535      -0.03167404       0.05936581      -0.06379228
C        0.45756020      -3.57131030       4.83031835       0.00000000       0.00000000      -0.00157223       0.01686905      -0.01189723      -0.06506119
C        0.49072941      -4.93820522       4.13620755       0.00000000       0.00000000       0.04629996      -0.00147263       0.08934751      -0.06911300
C        0.24496510      -4.88855068       2.62726209       0.00000000       0.00000000      -0.00858228      -0.02476032       0.01421530      -0.06817982
C        1.43569767      -4.49085739       1.74881406       0.00000000       0.00000000      -0.01901022      -0.05940663      -0.05642486      -0.01561738
N        2.19672187      -3.29290022       2.12510404       0.00000000       0.00000000       0.02769352       0.02576021      -0.05336207      -0.03882590
C        3.56227828      -3.64875823       2.56121218       0.00000000       0.00000000       0.03011832      -0.00671060      -0.00997947      -0.03230044
C        4.41371229      -2.79747936       3.49544029       0.00000000       0.00000000       0.03311950       0.02077111       0.03796962      -0.07281819
C        5.82770928      -3.40794311       3.55025007       0.00000000       0.00000000      -0.03044891      -0.05082335      -0.01557221      -0.07176571
C        6.57510448      -3.46003152       2.21123889       0.00000000       0.00000000       0.00965734       0.00319419       0.04772744      -0.07084402
C        6.69425704      -2.12399470       1.47888686       0.00000000       0.00000000       0.00628838       0.00567696       0.00071819      -0.05395352
C        7.57974887      -1.13414039       2.23158348       0.00000000       0.00000000       0.02325242       0.06866836      -0.00665818      -0.06841690
C        7.80803444       0.17254460       1.47376180       0.00000000       0.00000000      -0.00901387       0.05583955      -0.02690846      -0.06183857
C        6.54520616       1.02251353       1.36028199       0.00000000       0.00000000       0.00247316      -0.00829378       0.00438929      -0.09691611
C        1.78615128      -2.13775095       1.63078272       0.00000000       0.00000000      -0.02601005       0.10789758      -0.08925643       0.25514471
O        0.76928306      -2.01923110       0.89319849       0.00000000       0.00000000       0.10777916      -0.02764701       0.03219567      -0.40817342
C        2.54825382      -0.83459166       1.91581265       0.00000000       0.00000000       0.03167796      -0.01879400      -0.01210030       0.04769983
O        1.82421831       0.18414089       1.22257536       0.00000000       0.00000000      -0.02517316      -0.00627045      -0.00159993      -0.24342094
C        2.54989379       1.38471050       0.93019801       0.00000000       0.00000000       0.05173773       0.02538584      -0.04937240       0.03675868
C        1.98505669       1.80143455      -0.43063098       0.00000000       0.00000000      -0.02062896      -0.00367665       0.05789657       0.27298605
O        0.75237345       1.99017751      -0.49323847       0.00000000       0.00000000       0.08645432       0.00773424       0.04266330      -0.36671589
N        2.78255378       1.90175504      -1.49846540       0.00000000       0.00000000       0.03970877       0.00091960      -0.05353430      -0.03513143
C        3.87374763       0.96316411      -1.69163001       0.00000000       0.00000000       0.08497156       0.00115140      -0.03161289      -0.03607725
C        3.18721900      -0.40641285      -1.98591135       0.00000000       0.00000000       0.04941150      -0.08562238      -0.01641073       0.05848762
O        1.78846643      -0.21050348      -2.20576013       0.00000000       0.00000000       0.00494595      -0.00258813      -0.06248960      -0.25072238
C        1.64503314       0.73593724      -3.27699623       0.00000000       0.00000000      -0.16544089      -0.05639801       0.00860352       0.04264148
C        2.12116845       2.13000457      -2.77840567       0.00000000       0.00000000       0.08477373      -0.06297710      -0.00924621      -0.03182525
H       -0.36528101       0.56429399       7.90544592       0.00000000       0.00000000      -0.00448351      -0.04371133      -0.01086523       0.06384477
H       -1.34126470       0.92794203       6.48697167       0.00000000       0.00000000       0.00264322      -0.01044980       0.01510039       0.02683629
H        0.41941109       0.82978478       6.35428060       0.00000000       0.00000000      -0.01380532      -0.00221597      -0.00024551       0.02724386
H       -1.41943642      -1.51263403       7.05555091       0.00000000       0.00000000       0.00275460      -0.01481521       0.00989623       0.05122484
H        0.33245478      -1.59656925       6.89478326       0.00000000       0.00000000       0.03120611      -0.02035295      -0.00353945       0.04774406
H        0.11973603      -0.86512296       4.50453444       0.00000000       0.00000000      -0.04030904       0.00505111       0.00111969       0.00636710
H       -1.64410544      -0.80961671       4.72357574       0.00000000       0.00000000       0.00684460      -0.01081123      -0.01213156       0.00835572
H       -1.06656419      -2.77281898       3.51977940       0.00000000       0.00000000      -0.00498197       0.04886154       0.05770162       0.01492834
H       -1.66066875      -3.26860650       5.10794316       0.00000000       0.00000000       0.01693927      -0.00645192       0.01622745       0.04969238
H        0.56950763      -3.74512043       5.90098484       0.00000000       0.00000000       0.01889695       0.02576788      -0.03415458       0.05964273
H        1.30854510      -2.96729440       4.50486785       0.00000000       0.00000000      -0.00507922      -0.00989497      -0.02897247       0.02194768
H       -0.27533692      -5.57510560       4.58827202       0.00000000       0.00000000       0.02355069       0.09842361      -0.08823167       0.06261168
H        1.45307840      -5.41378845       4.34237729       0.00000000       0.00000000      -0.06674046       0.02034215      -0.02931564       0.05168282
H       -0.59971966      -4.22870007       2.43592437       0.00000000       0.00000000       0.03738642      -0.02943144       0.01443665       0.04207941
H       -0.03701176      -5.88906356       2.28788199       0.00000000       0.00000000      -0.01401138       0.04453352       0.02959493       0.06151771
H        1.08285993      -4.33074463       0.72621364       0.00000000       0.00000000      -0.07852431      -0.01684896      -0.06765200       0.05586325
H        2.13150444      -5.32618415       1.74104817       0.00000000       0.00000000      -0.01241210      -0.02413967      -0.01742739       0.09097160
H        4.12679242      -3.81014156       1.63405552       0.00000000       0.00000000      -0.02343596       0.03227597       0.07020608       0.07979414
H        3.47597588      -4.61450984       3.06236594       0.00000000       0.00000000      -0.03657701       0.03447945      -0.03680895       0.09657747
H        3.99911178      -2.81273712       4.50229349       0.00000000       0.00000000      -0.06038889       0.02375629       0.03544270       0.05733195
H        4.50719485      -1.76312811       3.18762939       0.00000000       0.00000000       0.01292453       0.05769313      -0.02749624       0.03835048
H        5.76390253      -4.42700915       3.93520421       0.00000000       0.00000000      -0.01164928       0.02139135       0.02125914       0.05386898
H        6.41777858      -2.83365375       4.26360278       0.00000000       0.00000000      -0.04112546       0.00986764      -0.00801044       0.06738604
H        6.11401532      -4.19348655       1.54705122       0.00000000       0.00000000      -0.00856539      -0.02600244      -0.00668108       0.03024498
H        7.58163196      -3.82244183       2.41825287       0.00000000       0.00000000       0.01538588      -0.02157015       0.00033654       0.06540247
H        5.69770265      -1.69972450       1.30996791       0.00000000       0.00000000       0.02777273      -0.01115859       0.00121736      -0.00554973
H        7.13510270      -2.30438064       0.49537645       0.00000000       0.00000000       0.00592959      -0.02295266       0.02580802       0.03961978
H        8.54780961      -1.60592711       2.39715807       0.00000000       0.00000000       0.00865447      -0.00443362       0.02491614       0.05578135
H        7.15029582      -0.90639671       3.20841101       0.00000000       0.00000000      -0.01441284      -0.00646016       0.00550854       0.03848805
H        8.18809865      -0.04694183       0.47421364       0.00000000       0.00000000       0.01005198       0.01283584       0.00898301       0.04250909
H        8.56913531       0.75241344       1.99586495       0.00000000       0.00000000      -0.01407345      -0.01317489       0.00311064       0.05734686
H        5.80690478       0.51446868       0.73365175       0.00000000       0.00000000       0.00736476       0.01443860       0.02591729      -0.01014334
H        6.77315595       1.98677308       0.91183019       0.00000000       0.00000000      -0.00588791      -0.03848592       0.00080469       0.04348275
H        6.11523921       1.19450383       2.34633072       0.00000000       0.00000000       0.00540071       0.01116845      -0.01937665       0.03358454
H        3.57438612      -0.90819627       1.52673482       0.00000000       0.00000000      -0.07775356       0.01290561       0.03178900       0.08083692
H        2.57723529      -0.61678081       2.99260745       0.00000000       0.00000000      -0.00444975      -0.04370503      -0.06668415       0.09516869
H        3.63093130       1.22182318       0.93852218       0.00000000       0.00000000      -0.05891166       0.00394984      -0.01507544       0.09197100
H        2.30935899       2.15920490       1.67155590       0.00000000       0.00000000      -0.06222006       0.00705643      -0.01532468       0.11178119
H        4.55481828       0.90687575      -0.84373047       0.00000000       0.00000000      -0.08050992       0.02102538       0.02513497       0.09127678
H        4.46799832       1.30387127      -2.54088087       0.00000000       0.00000000      -0.04022196       0.00083887      -0.02992384       0.11175283
H        3.27532386      -1.09996720      -1.14731791       0.00000000       0.00000000      -0.01721805      -0.00490196       0.06397450       0.07397071
H        3.64137640      -0.87174610      -2.87247745       0.00000000       0.00000000      -0.05759966       0.00652512       0.06279363       0.08926075
H        0.58755886       0.73528101      -3.55470097       0.00000000       0.00000000       0.10350892       0.01793544       0.00905563       0.12002494
H        2.23928579       0.40896138      -4.13620805       0.00000000       0.00000000       0.02103345      -0.04861809       0.01928943       0.08889996
H        1.29703852       2.82443487      -2.63088988       0.00000000       0.00000000      -0.06537217       0.00270974       0.00301454       0.10743595
H        2.84304291       2.56767125      -3.47113914       0.00000000       0.00000000      -0.05961256       0.04045393       0.07291931       0.10896915
O       -1.22042821       1.13690750      -2.42137743       0.00000000       0.00000000       0.17777726      -0.04504595       0.07155552      -0.49151630
H       -1.88781500       0.63488594      -2.90937868       0.00000000       0.00000000      -0.10048185      -0.04965138       0.00966218       0.35838492
H       -1.53147641       2.05180010      -2.41889581       0.00000000       0.00000000      -0.06152201       0.05919844      -0.00211691       0.35161915
