415
 energy: -479.968958970392 gnorm: 0.003655976870 xtb: 6.7.1 (edcfbbe)
Eu          -0.06968315955983        0.66813796854245        0.44523270402936
C            7.11522218437653        5.25850507654259        4.96682742518824
C            6.05086775066824        5.02274323530657        3.90010331676842
C            5.46284766141687        3.59169363905982        4.01587389633452
C            4.66675211993664        3.19256811500215        2.82854563467001
C            3.16254188091043        3.26426654863654        2.82696738027867
C            2.69428086195143        4.73457797750956        3.07255794401737
C            3.06443381337425        5.69911256141742        1.95027640485405
C            2.62505463178256        2.72704999570121        1.53088998162252
N            2.25312256393812        1.33842378171866        1.30042982825868
C            2.48471882226783        0.50842476809878        2.51658178510460
C            2.32687542691710       -0.93929824112074        2.08157049410077
O            1.44947724444063       -1.13284974866341        1.21546905218531
N            3.09248241514932       -1.87578937602856        2.65759569642070
C            2.79297657745405       -3.30397637455820        2.39801736604992
C            3.24689433217591       -4.26023372007393        3.51830952981192
C            2.64443529840160       -3.90772888800637        4.89082095799013
C            3.56308029750763       -4.31214933952895        6.04330952620477
C            2.91069222306721       -5.71937873851815        3.16572540606374
C            3.79081760303540       -6.30811064261562        2.05813827304032
C            3.55425787174543       -7.81115980384372        1.85754093243241
C            4.13589933388056       -8.65838369489038        2.98756473081929
C            4.31796317773561       -1.53844249274065        3.40709728224635
C            5.53736814033853       -1.21272234827600        2.50406368909301
C            6.17899966940418        0.12534624298811        2.91871904621677
C            6.80092986457250        0.10420661988893        4.31485019038855
C            6.62448497430845       -2.30693173484503        2.52054988181717
C            6.33074373572422       -3.51094377957092        1.62327082666170
C            7.55867453395090       -4.41516065257775        1.44866629412373
C            8.59337013102460       -3.83644997787791        0.48616672083321
C            3.11447273299719        0.84402168080240        0.24953665115815
C            2.65649663632202        0.96214072403064       -1.08173799984148
O            1.49040255634272        1.43520828476418       -1.26782658246714
N            3.46242770736866        0.59728823834113       -2.12886131084980
C            2.96647724610674        0.76389778303133       -3.50441155698773
C            4.08476668996815        1.14366961106510       -4.51010156925749
C            4.44791679767008       -0.02317701026759       -5.45041506810630
C            3.35542340823829       -0.52823900628437       -6.39181954640111
C            3.87758450380976        2.47849994217254       -5.25354765344474
C            2.58033213757908        2.68580691140153       -6.03708855541998
C            2.63857238875822        4.00230506125395       -6.82231761863025
C            1.43900482414606        4.15561128068545       -7.75376879279502
C            4.65423788983617       -0.21827460432602       -1.93416824406764
C            4.39620379070838       -1.73043129580572       -2.11612145098652
C            3.32880412784970       -2.21483670050813       -1.12924413757909
C            2.98043625685017       -3.69274442798106       -1.29995255584672
C            5.74529143709885       -2.44754180167650       -1.92742270019392
C            6.65770905714397       -2.41985276665279       -3.16011544343870
C            6.21642318030919       -3.38374467326977       -4.26748786142591
C            6.43378711736055       -4.85044799588555       -3.89873919015093
H            7.97168931485529        4.60323502375622        4.80431310630765
H            7.45604905321674        6.29417691854628        4.91943687962255
H            6.71214939645453        5.06806573984523        5.96281496159872
H            5.24354445552258        5.75250314545772        4.01677162929119
H            6.48550789094309        5.15474097902204        2.90396360931025
H            4.86906871558873        3.51650460487788        4.93159181354231
H            6.31717833257912        2.91225241027426        4.11385796267076
H            5.16638154779609        3.20514066063521        1.86745113545681
H            5.84924945406044        2.42296144640979       -0.25873594456218
H            2.76390621342425        2.69871851577979        3.67934814061471
H            3.15307361964048        5.06826886130171        4.00582224144898
H            1.61185639199075        4.73692200647612        3.23110658087238
H            4.11838077820054        5.60040318620679        1.68999991713092
H            2.46899344343397        5.51056487786757        1.05587660898101
H            2.88190870295297        6.72429861292762        2.27146246597470
H            3.04649179472517        3.17827818297252        0.63855618635382
H            2.51497543837716        5.16601232553653       -2.30204260589869
H            1.69844773248572        0.72699750234234        3.24818318684950
H            3.45698037007793        0.75228653546394        2.93886766068258
H            3.28069428509852       -3.59418820165526        1.46291974215970
H            1.71048719053536       -3.36605373108145        2.24965412245099
H            4.33748112400276       -4.20695360788112        3.60304928784671
H            1.68774587216220       -4.42677420811382        5.00535080203421
H            2.45211852221911       -2.83167601329160        4.95129164759656
H            3.77516393667838       -5.38052243968859        6.01295888976256
H            3.08402484046710       -4.08192317952264        6.99489056848156
H            4.50767929607736       -3.76945739862494        5.99029371770855
H            3.04361461778017       -6.31473070425431        4.07342593111165
H            1.01346955008850       -6.44961537976930        1.08762524077851
H            3.59193073136129       -5.78863126871511        1.11444198475125
H            4.84425566771812       -6.14865382587265        2.31004279805295
H            4.02195436826174       -8.10721891385033        0.91337134836209
H            2.48032958253618       -8.00604045857144        1.76842095138028
H            3.65035306858575       -8.43555355980521        3.93817762347460
H            5.20547801278284       -8.47273522191401        3.09232245142223
H            3.98766517096008       -9.71538837283663        2.76786293122822
H            4.56399808834338       -2.37242152153728        4.05979119601923
H            4.09366370231682       -0.69846876330425        4.06650867303026
H            5.17771419316550       -1.10146576772038        1.47173069191519
H            6.95215114602060        0.37627367617202        2.18570676297750
H            5.42488525151801        0.92206736081898        2.87130160402415
H            7.59694882105220       -0.63646234020728        4.37797072521585
H            7.23435179887333        1.07912594299003        4.53764549535871
H            6.05444699753397       -0.12120263047683        5.07724057235911
H            7.55762890730241       -1.84517341350028        2.18346858049888
H            6.78643693860326       -2.65358416725734        3.54604735567900
H            5.52708891944696       -4.10356066767086        2.06194827605871
H            5.98309546407945       -3.16828969108281        0.64470562278068
H            7.22109824143091       -5.38314410521460        1.06586356980906
H            8.02050616451718       -4.58915016557954        2.42521691178714
H            8.95398100568727       -2.86632276377744        0.82753531371532
H            8.16162321842258       -3.71528971337236       -0.50800827065644
H            9.44576738092107       -4.51106756778425        0.41074883863646
H            4.02740481831511        0.37092099042072        0.57626085651334
H           -0.11327212537851        2.31026597677097       -0.17344900736171
H            2.48865620675927       -0.17802626479873       -3.80085577679287
H            2.18110809985844        1.52098482714722       -3.46730937800201
H            4.99503659717402        1.33272101724608       -3.92717426201753
H            4.77280328649088       -0.85955561204989       -4.82578815254813
H            5.31399550989122        0.28122283052499       -6.04585555823412
H            3.62635335898856       -1.52140378712845       -6.75096114070507
H            2.39172275862969       -0.60146495383676       -5.88653958776941
H            3.24591816484373        0.11895125450291       -7.26029653553436
H            4.71998394424116        2.57916066461922       -5.94629098692901
H            3.97716480172384        3.28732079099419       -4.52225351273336
H            2.42184691181029        1.86729188000679       -6.74132120806505
H            1.72713865165653        2.70672029793492       -5.35219607370374
H            3.55780371558630        4.02607810137374       -7.41582988432676
H            2.67392101177569        4.84478046773071       -6.12319660506013
H            0.50668075981551        4.14219775042671       -7.18687056508442
H            1.50289373911425        5.10096988838795       -8.29191854356711
H            1.41220901822496        3.34299015832207       -8.48037938502810
H            5.06307201374026       -0.03572062627459       -0.94005226096849
H            5.41642111514085        0.09450009486939       -2.64910925124055
H            4.02369313100503       -1.90542459842034       -3.13226169771623
H            2.41747666125925       -1.62551270216523       -1.27620938680218
H            3.67283785959919       -2.03514800362221       -0.10628383500690
H            2.83754754110328       -3.93556323513559       -2.35290498676087
H            3.76386591602797       -4.33820739765676       -0.90364612737890
H            2.05553292165253       -3.90814822339663       -0.76542739211399
H            5.56406487619447       -3.48786484100193       -1.64996112169025
H            6.27329894061491       -1.97828939198907       -1.09071123219939
H            7.66965989799794       -2.68672984246423       -2.83909411005468
H            6.70586253040265       -1.40305878156864       -3.56348148877082
H            6.79172735870461       -3.15511101939234       -5.16972288065281
H            5.15873318616958       -3.22044648189837       -4.50195126985835
H            6.17820786590767       -5.48476384486266       -4.74738067205807
H            5.80852296691721       -5.14276144901719       -3.05392712725504
H            7.47712623280146       -5.02749025503367       -3.63642600163201
C           -1.93394322332786        6.08557752554666       -6.24003540759629
C           -1.39450942205246        6.34460197883995       -4.83606934377688
C           -0.61946708490195        5.13476615624935       -4.30603216241374
C           -0.18372054700611        5.34329875695421       -2.85374665545129
C            0.60583882011614        4.14166996190903       -2.30309458464729
C            2.06229486183310        4.28422498928362       -2.75754861154647
C            5.72025261046981        3.09419283974854       -1.10580855801967
C            0.64329790921143        4.13169029007187       -0.76904772041053
N           -0.33866678627662        3.27894401483924        0.02598418281091
C           -1.74410420738519        3.58770191114412       -0.39801668316426
C           -2.10696896532569        2.59882581516781       -1.47882790210386
O           -1.57847351840493        1.45662830089856       -1.30994730971392
N           -2.95923248722019        2.91241600871490       -2.47052760609713
C           -3.52807148484524        1.84592109874811       -3.30034323121544
C           -2.89989685781136        1.70912825929260       -4.69302996947684
C           -1.44245564669702        1.24370478316900       -4.56587195025744
C           -0.68584795914387        1.32228180436263       -5.88810412901657
C           -3.73405120781454        0.69093188468564       -5.49210457657236
C           -5.06854965566515        1.24986636319686       -5.99638914667667
C           -5.92864775606715        0.17224213987729       -6.66843620790377
C           -5.31696035447324       -0.36778845679839       -7.95977960373340
C           -3.60633921557315        4.21667670791906       -2.63856300541827
C           -4.97003839726704        4.29203567936660       -1.90993649039078
C           -4.91525508137534        5.30023116246617       -0.74521504116930
C           -4.69481666288572        6.75927929139970       -1.13905333894508
C           -6.22224037120630        4.51893343147377       -2.80485867803175
C           -6.03137047488406        4.77695516339806       -4.30549792177739
C           -5.49229785921894        6.16799977330767       -4.66613947138377
C           -6.55819638954021        7.25666422851860       -4.55561074619655
C           -0.14547509644967        3.76241925248179        1.42778085837941
C           -1.23133334369807        3.28653666886068        2.36593883171058
O           -1.18721539779281        1.88537339148019        2.25396244212337
N           -1.12593434360048        3.87037049702266        3.64096119125357
C           -1.45329958236367        3.07583953815104        4.83480976949908
C           -0.92098492989247        3.73399065962946        6.12446796181038
C           -1.76577344116738        3.37146960427746        7.36184627566369
C           -1.62921052153730        1.95722819978042        7.91576294971354
C            0.59577210483919        3.55211768600117        6.31506967740602
C            1.14881966482129        2.13385750945830        6.13058442752675
C            2.57592966888037        2.03565491630606        6.67884189122963
C            3.11053806547862        0.60908136443264        6.59287842515434
C           -1.49405953154566        5.29684699871501        3.67398323122625
C           -2.97272534305878        5.55825425726321        4.02969000793043
C           -3.87817938482405        5.11278974807080        2.87195257826317
C           -5.32473807487672        4.89214185690226        3.30881909953511
C           -3.16150435645385        7.05585314640879        4.33410649169595
C           -2.67834982286526        7.47454025763890        5.72948504347030
C           -3.52699493242979        6.92590989782976        6.88388810009621
C           -4.94189656286587        7.50080290235927        6.91715460087818
H           -2.58095724729956        5.20642209765942       -6.24462723375502
H           -2.51046115812426        6.94426886963256       -6.58252720683059
H           -1.11526662717602        5.91658143384090       -6.93972069554886
H           -0.73812684069293        7.21987287311657       -4.84779715648737
H           -2.22825353871449        6.56562257093608       -4.16022672060100
H            0.25870393599221        4.96325363006260       -4.93417653333054
H           -1.24796769684856        4.24059578181901       -4.36710965394930
H            0.44259100917227        6.23901206046424       -2.78477890485346
H           -1.06705371218532        5.53676044849291       -2.24105675717591
H            0.19426263907716        3.19769286059350       -2.67430801401628
H            2.10454439325751        4.40202458626069       -3.83677018599540
H            2.64270980725003        3.41036988985655       -2.47220778813925
H            4.67474090361514        3.09488955216329       -1.40843624306580
H            6.01547510252327        4.10013292967043       -0.82191375644389
H            6.33768865243698        2.75612603891859       -1.93317647173641
H            0.52169402980288        5.15738801801821       -0.41408524133693
H            1.62029692275960        3.77793686370020       -0.44710697563331
H           -1.80743633622743        4.64255304965948       -0.64892547985358
H           -2.37977132629439        3.40631477621217        0.48098615991973
H           -4.59614906774560        2.05235969342117       -3.39818569853874
H           -3.41187836586643        0.90249108508517       -2.76754710502100
H           -2.92621548858084        2.68237475890362       -5.19994313306264
H           -1.42584030508390        0.21821046592165       -4.18173664492829
H           -0.92965203519745        1.86808068026694       -3.82810386100620
H           -1.17221544817960        0.73723173708597       -6.66769667122739
H            0.32259282705195        0.93305097508829       -5.75457792158010
H           -0.62286636109061        2.35635245863842       -6.22699850117700
H           -3.15076600082626        0.35098629573080       -6.35079207505898
H           -3.91977927258955       -0.18678039293525       -4.86042625981012
H           -5.63798963441801        1.66559755112520       -5.15840603274228
H           -4.87611632391248        2.06445348649680       -6.70205699887657
H           -6.90701832093843        0.60833839068977       -6.89211487328104
H           -6.08789333882230       -0.65208255752781       -5.96379242109692
H           -4.38877062655972       -0.90565926774971       -7.76174330214847
H           -5.10645705258912        0.44663678530492       -8.65368793577818
H           -6.01460315107025       -1.05628198129591       -8.43617359144844
H           -3.70929768867055        4.36600204124580       -3.71310020046718
H           -2.93964386437765        4.99539865176727       -2.27151343024947
H           -5.10840504928747        3.31444277517224       -1.42998306191525
H           -5.85269602231232        5.22186495103274       -0.18583087281643
H           -4.11045276102922        4.99079941069174       -0.06771622281772
H           -5.53033261264730        7.13507842177687       -1.72679122203782
H           -4.61377669166570        7.36652381203198       -0.23734734819928
H           -3.77837141353418        6.88458481743296       -1.71696079522444
H           -6.84792968505114        3.62505824556197       -2.71345044823864
H           -6.80357430981564        5.34463947087555       -2.38583860606958
H           -5.38632227504860        4.00728102122559       -4.74138991353482
H           -7.01363477569044        4.65688269011728       -4.77422283423700
H           -5.12801588571559        6.13533514691695       -5.69801671159856
H           -4.64058421768852        6.42421258582399       -4.02730792566961
H           -6.94128947994665        7.33140990629091       -3.53739022869636
H           -7.39281521323992        7.03946347966751       -5.22259050416354
H           -6.13272270907122        8.22043693610460       -4.83478173360336
H           -0.11193261828026        4.84923194408495        1.39693828396650
H            0.85129386803794        3.38121839194188        1.73115811022024
H           -2.54069395491807        2.95261618717873        4.90238805804136
H           -1.01462668080183        2.08251978374738        4.70222767932799
H           -1.07223227827353        4.81415300525349        6.02728866614824
H           -2.81576764137717        3.55274062190613        7.10716761939788
H           -1.50385324966649        4.08036781540822        8.15351323213080
H           -2.41156847660087        1.78494898321492        8.65506972737652
H           -1.73679937362959        1.21611496766655        7.12533814995713
H           -0.66696007116503        1.81661226639873        8.40634642027380
H            0.84571706684176        3.90386834983425        7.32093405872617
H            1.10932812013983        4.21317231379901        5.60756132891061
H            0.52336122047688        1.40144120534019        6.64441489428774
H            1.15168322430890        1.86855610640420        5.06578905968281
H            2.58817620295784        2.36280410070375        7.72269782008930
H            3.22986867827014        2.70861347374306        6.11367836231953
H            3.03486360650304        0.23535749658396        5.56928243095261
H            4.15627953241891        0.57788778964333        6.89869354336613
H            2.53910359098675       -0.05532234349552        7.24203974497771
H           -1.29363452950653        5.72095589026437        2.68652048235979
H           -0.83585424986142        5.80486161874458        4.38174825022102
H           -3.23709748842421        4.97874292593104        4.92045163658787
H           -3.48549589621491        4.17553146174486        2.45497625878297
H           -3.84106368975839        5.86378143256512        2.07561301500021
H           -5.37598723390707        4.12432576468106        4.08179746949171
H           -5.75749328582498        5.81037329990189        3.70448206685463
H           -5.92387723321032        4.57040064203780        2.45670779968933
H           -4.22147104900268        7.30315025813474        4.23509790046595
H           -2.62537405283920        7.64204466787751        3.57984040836476
H           -2.68699465841982        8.56792775392029        5.77369338942315
H           -1.64014148790207        7.15412131808882        5.87067184020409
H           -3.01979533617574        7.17699896211246        7.82068058448343
H           -3.57945176172479        5.83266257061841        6.82736290112798
H           -5.46247421131578        7.14284543796112        7.80520347437978
H           -5.51327436484621        7.19416160937158        6.04020251456522
H           -4.91125772683823        8.59006755312424        6.94913559882779
C           -8.27509193166895        0.68452836748789       -3.04289922540401
C           -7.38232075932850       -0.18326585718270       -2.15934165190774
C           -6.49782360200665        0.67812977779968       -1.25261509480664
C           -5.54487376012757       -0.18309374413232       -0.41798017316875
C           -4.43617887902961        0.63095634435958        0.27568607128314
C           -5.01003569943331        1.67248018764761        1.25596387681228
C           -6.01471930926136        1.11015438203700        2.26002454192378
C           -3.46435762775632       -0.29739789328609        1.02292314121910
N           -2.21034587635056       -0.72827152012808        0.26513098857824
C           -2.52602338775116       -1.16210172592200       -1.11484874567827
C           -1.20376398624816       -1.49841963839241       -1.78846803396024
O           -0.15181972466704       -1.07579232507229       -1.27545999741055
N           -1.24016136556984       -2.23219231292894       -2.90027850911905
C            0.08051310635140       -2.56639177721186       -3.48521516409777
C            0.06384558713458       -3.26931589622317       -4.84874466494809
C           -0.31486634452953       -2.29252662951076       -5.98238126911503
C           -1.21976986710252       -2.90383757054289       -7.05224556618143
C            1.44886310361992       -3.90828605690723       -5.06812290620311
C            1.46794053233408       -4.88123217906399       -6.25230815041610
C            2.79955891976780       -5.63245558492361       -6.37148434098260
C            3.90033443550540       -4.77245551605519       -6.98870468630075
C           -2.51407098359687       -2.62547216707814       -3.51315571931113
C           -3.21117932738885       -3.84783419437372       -2.86920052412106
C           -4.73828109855338       -3.66896220527468       -2.97958750793696
C           -5.25178120568183       -3.58101036383633       -4.41626283737777
C           -2.77010095735879       -5.19308048843094       -3.47723499389266
C           -1.57062040281043       -5.79373855942916       -2.73605503399071
C           -0.97404645420682       -7.00750952948532       -3.45787649170145
C           -1.91162748768454       -8.21301792583641       -3.46689324634437
C           -1.73372553430854       -1.87500202372916        0.93480475060147
C           -1.19848367118920       -1.68112983362783        2.23736527136820
O           -0.72055003254420       -0.53574465371260        2.50523103558412
N           -1.23668632436852       -2.70725642133696        3.11595509732056
C           -0.61624963836026       -2.52876592506324        4.43039820495127
C           -1.44962813630600       -3.04281460188269        5.61349449534462
C           -0.63084164935178       -2.95233232052492        6.91570091342756
C           -0.28515868536423       -1.54879285640881        7.40529998318914
C           -2.85664391704738       -2.42211903145345        5.71950959730469
C           -2.98161530334163       -0.93569815153700        5.37219109377981
C           -4.42357222314601       -0.46874263996037        5.60242908635331
C           -4.56331283531982        1.04467281744670        5.46204102346446
C           -1.93942725992935       -3.95577837187527        2.80810547402310
C           -1.01880726049773       -5.12834987766926        2.40696872831181
C           -0.58344491045777       -4.98497829721909        0.93682104906192
C            0.23169199455877       -6.15725217094627        0.39028784306365
C           -1.75685991222141       -6.45751786579886        2.65456846587819
C           -1.93239488441439       -6.83497960264274        4.13233087286290
C           -0.62403566633830       -7.06296126417264        4.89962885551516
C            0.19339669410796       -8.23595812335974        4.36164582566760
H           -7.66818184427762        1.33116720715610       -3.67929775613032
H           -8.89587405583417        0.05554479411602       -3.68009200365082
H           -8.92564374670104        1.31105575494449       -2.43229131976118
H           -8.00075038629356       -0.84408462106569       -1.54453020240463
H           -6.74593508143900       -0.81353338075769       -2.79120553742560
H           -7.12914451716461        1.28685653477526       -0.59934680876168
H           -5.91269817674876        1.36090636877542       -1.87643077192790
H           -6.11444901500845       -0.74398492032142        0.32854057933676
H           -5.08282442428833       -0.92042043997308       -1.08031740871883
H           -3.88242005043035        1.19315980502949       -0.48256492014907
H           -5.49184810803806        2.46780383660267        0.67946299001051
H           -4.17156305143387        2.12917004152970        1.79520770020686
H           -6.94413830881703        0.82639605630127        1.76812990126555
H           -5.61171384961942        0.23563161578978        2.77021209687362
H           -6.24855465254027        1.87067935104064        3.00434624892381
H           -3.99131886366734       -1.21038508638554        1.32174823137006
H           -3.10280132716283        0.19097807472424        1.93213260810935
H           -3.00593062858617       -0.35539770415395       -1.66168728193290
H           -3.20332345970612       -2.01623714645322       -1.08262732668833
H            0.58844968089838       -3.19896340385353       -2.74960023671133
H            0.64413788403375       -1.62778429114638       -3.55230083566432
H           -0.66325517243535       -4.08701596262757       -4.81804116541938
H            0.59540988766959       -1.91242525755082       -6.45589197231879
H           -0.83115510317482       -1.43117744873126       -5.54974782156771
H           -0.74161539619311       -3.74933908650500       -7.54295264198688
H           -1.44697930551805       -2.15154725750719       -7.80797557336887
H           -2.15951593843713       -3.24790556519313       -6.61825677036964
H            2.19804435985991       -3.12187994500024       -5.20523357565518
H            1.72025887210409       -4.46563720322939       -4.16428691884843
H            0.66084131403755       -5.60912440858912       -6.11743213693968
H            1.27945399568678       -4.34176735529506       -7.18441640516931
H            2.64401868063341       -6.51259564409890       -7.00262988868637
H            3.11325651071485       -5.98614429344166       -5.38325415337694
H            4.07778026011472       -3.87691641898629       -6.39104435569158
H            3.62284965079610       -4.46324861333108       -7.99722426815657
H            4.82962495107486       -5.33918510447553       -7.04382668533861
H           -2.34365974959649       -2.81542191422364       -4.56999350933555
H           -3.17744936894282       -1.75627239708341       -3.45232753515991
H           -2.96368038432153       -3.87105623987695       -1.79908367678209
H           -5.22077963776150       -4.51192403361495       -2.47607420662568
H           -5.02859355837966       -2.75955968645872       -2.43994669135078
H           -4.97868023563724       -4.46997214627761       -4.98383109301476
H           -6.33851408590492       -3.49902446075347       -4.40848287543195
H           -4.84775603587184       -2.70540662947221       -4.92624542900465
H           -3.60602762128142       -5.89542662457020       -3.41325494241030
H           -2.53634827908461       -5.06990744715095       -4.53884043404606
H           -0.79108980078788       -5.03418629585311       -2.62086127591881
H           -1.89069963577504       -6.08858978447341       -1.73086411355125
H           -0.04145542675616       -7.28119788347686       -2.95347030029865
H           -0.72264549785027       -6.72917963096792       -4.48699714788964
H           -2.81792853350383       -7.99964343963723       -4.03364927134028
H           -2.19353851114638       -8.48564017297377       -2.44907257338950
H           -1.41203040362969       -9.06472149105617       -3.92794931545416
H           -1.57577973337965        1.44602086371642        3.02964871252424
H           -1.71309649289011       -2.80345551953526        0.38713227938498
H            0.33336192263523       -3.06882658971703        4.42160302575660
H           -0.39485623515758       -1.46307051062705        4.53100546092402
H           -1.59788987435463       -4.12049938252096        5.46761929945724
H            0.29769098597663       -3.51350517103574        6.76543922048923
H           -1.19286651253070       -3.46857791949283        7.70002315117532
H            0.40786289964555       -1.62077307602069        8.24382039530565
H            0.18905533995580       -0.95776980928878        6.62076372217494
H           -1.17689414794751       -1.02774660615708        7.75072847627573
H           -3.21666450302180       -2.57694913612969        6.74151074082387
H           -3.53357813106869       -2.97685830533516        5.06091676236991
H           -2.30396159150693       -0.34191673862829        5.99023288818220
H           -2.70734627009913       -0.76129799535103        4.32572356488248
H           -4.74670459779661       -0.76433621435069        6.60511027476626
H           -5.08115303823031       -0.96703125914041        4.88251652018208
H           -4.15092630384944        1.38275594725142        4.50879290207055
H           -5.61322866332418        1.33293283180791        5.50942523844776
H           -4.03385165592647        1.55304394091151        6.26777657807444
H           -2.66927090921874       -3.75516056142719        2.01792963987725
H           -2.51179144505296       -4.24035721571197        3.69150733842987
H           -0.12151897733435       -5.09165229710901        3.03516535556480
H            0.01649254067618       -4.07200007579957        0.84817105159020
H           -1.47369620002720       -4.86584560938500        0.30824471811680
H            1.85709368089163       -5.79461260440973        2.88437277611118
H           -0.40000005522185       -7.02293731657084        0.19604084801055
H            0.70191658321500       -5.86406467160898       -0.54868159630007
H           -1.20906662061567       -7.26220971361823        2.16028498320898
H           -2.74512417959615       -6.40595408842587        2.18525469975233
H           -2.52416037616334       -7.75510441044361        4.16673655045360
H           -2.51251010173615       -6.06409268054684        4.65036064311759
H           -0.88103721557970       -7.26083937045620        5.94493474732855
H           -0.01300529660436       -6.15280756520281        4.88574836391339
H            1.06345068984669       -8.40135478563641        4.99736963485231
H            0.54412477647070       -8.03972654760130        3.34766202098652
H           -0.40548779797885       -9.14689489914947        4.35065036222843
