373
Properties=species:S:1:pos:R:3:initial_charges:R:1:initial_magmoms:R:1:forces:R:3:charge:R:1 energy=-11939.314069153488 free_energy=-11939.314069153488 dipole="0.2532747638387524 -1.4127939655592483 -0.11656023240671308" pbc="F F F"
Eu       0.09792465      -0.07616913      -0.00499413       3.00000000       0.00000000       0.07113652      -0.12891657      -0.02766145       0.81459185
C        5.33762621      -7.67179286      -0.47582253       0.00000000       0.00000000      -0.01874943      -0.00147238      -0.00144258      -0.09889303
C        6.58111847      -7.89800931       0.37968220       0.00000000       0.00000000      -0.03441309       0.00314215      -0.05418786      -0.05852677
C        6.55825477      -7.22717257       1.75697648       0.00000000       0.00000000       0.02404641      -0.03668183      -0.03086127      -0.06189990
C        5.53369587      -7.77793734       2.75562793       0.00000000       0.00000000      -0.01526562      -0.01327597      -0.01037069      -0.06406848
C        4.12944720      -7.18390438       2.64301334       0.00000000       0.00000000      -0.02587762       0.01469121       0.01747066      -0.06478295
C        4.09953646      -5.70149977       3.00894033       0.00000000       0.00000000      -0.07098668       0.01104010       0.01163841      -0.06630027
C        2.72120343      -5.07341092       2.80474914       0.00000000       0.00000000      -0.07081807      -0.03050725      -0.03129479      -0.06680577
C        2.34671998      -5.13568621       1.31893895       0.00000000       0.00000000      -0.03879611       0.03660678      -0.01930691      -0.01536971
N        1.17928394      -4.34759915       0.96330862       0.00000000       0.00000000       0.03322096       0.05149663       0.04443448      -0.06745662
C       -0.05317165      -5.01531341       0.55826507       0.00000000       0.00000000       0.08917554       0.01774849      -0.01060465      -0.00662794
C       -1.21056581      -4.91423506       1.54171883       0.00000000       0.00000000       0.00601869       0.02337514      -0.01495186      -0.06397804
C       -0.88718420      -5.46904309       2.92375558       0.00000000       0.00000000      -0.00684982      -0.01121092       0.01015002      -0.06250264
C       -2.16884939      -5.78224433       3.69113214       0.00000000       0.00000000      -0.00699971      -0.00495850       0.00392353      -0.05989121
C       -1.93415456      -6.02379648       5.18030360       0.00000000       0.00000000      -0.00907256       0.00310123      -0.00544262      -0.06153410
C       -0.95456580      -7.15428272       5.48555219       0.00000000       0.00000000       0.00189412      -0.03405677       0.00659115      -0.06211355
C       -1.40623554      -8.51945805       4.97323302       0.00000000       0.00000000       0.02183740      -0.06273498      -0.00047768      -0.05482285
C       -0.44691766      -9.61517181       5.42333776       0.00000000       0.00000000       0.01038037      -0.01115234       0.00575503      -0.10733678
C        1.20390917      -3.02481158       0.87040946       0.00000000       0.00000000       0.11977005       0.11521850       0.10315459       0.26809490
O        0.15859868      -2.37001230       0.72014394       0.00000000       0.00000000      -0.00648292       0.04637579       0.02835870      -0.40375985
C        2.55279295      -2.31094943       0.79955796       0.00000000       0.00000000      -0.03593486       0.00451381       0.03011070      -0.01786462
N        2.44635385      -0.90971625       1.23873399       0.00000000       0.00000000      -0.06655840      -0.05126645       0.08653669      -0.11378605
C        3.54041501      -0.08674283       0.71616065       0.00000000       0.00000000      -0.04192760      -0.07282471       0.00838377      -0.02954168
C        3.21250173       0.41347112      -0.67587987       0.00000000       0.00000000      -0.00313514      -0.13260744      -0.11139460       0.26506145
O        2.02946644       0.43722418      -1.04248255       0.00000000       0.00000000      -0.04807102      -0.00697192      -0.09721301      -0.39320325
N        4.19087008       0.83404464      -1.46557279       0.00000000       0.00000000       0.03249308      -0.00396760      -0.02484293      -0.06595400
C        3.89146761       1.16614460      -2.85537941       0.00000000       0.00000000       0.05637085       0.01449727       0.05074264      -0.00450286
C        3.42315908      -0.01627924      -3.71694053       0.00000000       0.00000000       0.00899996       0.08258658       0.02329479      -0.06943508
C        4.41059418      -1.17591296      -3.85222559       0.00000000       0.00000000      -0.01468651       0.03697451       0.01873832      -0.05935188
C        3.94898868      -2.16326428      -4.92993279       0.00000000       0.00000000      -0.01491387       0.03700663       0.01436606      -0.06492152
C        4.63393685      -3.52765150      -4.82809570       0.00000000       0.00000000      -0.00890343       0.03524110       0.00357388      -0.05938589
C        6.13367136      -3.50265951      -5.11929241       0.00000000       0.00000000       0.02865608       0.01274325      -0.03086832      -0.06219726
C        6.46992367      -3.08713557      -6.54918723       0.00000000       0.00000000       0.06095550       0.01802699      -0.04721168      -0.05551478
C        7.96550454      -3.19122249      -6.82392150       0.00000000       0.00000000       0.01846113      -0.00206488       0.00097440      -0.10808489
C        5.53749448       1.05605495      -0.97960488       0.00000000       0.00000000       0.01464456      -0.00948931      -0.03188398      -0.01714695
C        6.41356408      -0.18228988      -1.10955050       0.00000000       0.00000000      -0.02395708       0.01774080      -0.04757493      -0.06834541
C        7.80415718       0.09388267      -0.55560192       0.00000000       0.00000000      -0.04325461       0.02371406      -0.04484189      -0.06382259
C        8.65271306      -1.17414915      -0.55937055       0.00000000       0.00000000       0.00577957       0.05814546      -0.00160467      -0.06539964
C        8.20454927      -2.20499519       0.47632346       0.00000000       0.00000000       0.04490454      -0.00352638      -0.02540432      -0.05927818
C        8.40219895      -1.72605449       1.91296390       0.00000000       0.00000000       0.00908089      -0.03488017       0.03067192      -0.06100183
C        8.07948212      -2.80411255       2.94511177       0.00000000       0.00000000      -0.05222670      -0.05126849       0.03715385      -0.05951719
C        6.58976207      -3.11158734       3.03801834       0.00000000       0.00000000      -0.01785829      -0.00995266       0.00916607      -0.09827246
C        2.46800342      -0.90680276       2.68498106       0.00000000       0.00000000       0.11821744      -0.01176652       0.06301487       0.06032924
C        1.26919294      -1.10368160       3.35251514       0.00000000       0.00000000      -0.03358523       0.08089399       0.03834805      -0.05121404
C        1.23870928      -1.18825965       4.73504162       0.00000000       0.00000000       0.00821666       0.01383304      -0.01075063      -0.02787642
C        2.41167758      -1.07344632       5.46554020       0.00000000       0.00000000       0.02867993      -0.03348676      -0.04668918      -0.02733509
C        3.60803511      -0.83848196       4.80509299       0.00000000       0.00000000      -0.06044314      -0.05946148       0.03488702      -0.02649999
C        3.64378812      -0.76319830       3.41995450       0.00000000       0.00000000      -0.04650804       0.04109391       0.11688993      -0.05175428
H        5.52204714      -7.99495369      -1.49853612       0.00000000       0.00000000       0.02345686      -0.01162365       0.03442105       0.03684765
H        5.06762002      -6.61505818      -0.50231879       0.00000000       0.00000000       0.02353544      -0.01757758       0.01746957       0.01299848
H        4.49634614      -8.24580948      -0.09732069       0.00000000       0.00000000       0.00305151      -0.00915972      -0.01117833       0.03501179
H        7.44238688      -7.50519584      -0.16565671       0.00000000       0.00000000       0.02673762      -0.00440476       0.03110994       0.03536627
H        6.73643932      -8.97148760       0.49929843       0.00000000       0.00000000      -0.00981223       0.02616415       0.02824480       0.04367266
H        6.42493119      -6.15120016       1.62848825       0.00000000       0.00000000       0.01472419      -0.02483326      -0.01083414       0.02542190
H        7.54661436      -7.37451915       2.19128426       0.00000000       0.00000000       0.06080645       0.01478901       0.02667261       0.04194172
H        5.89068210      -7.59360644       3.77091016       0.00000000       0.00000000       0.04606755       0.00880333      -0.01552210       0.03824497
H        5.47209396      -8.85815109       2.62789673       0.00000000       0.00000000      -0.01047745      -0.04546994      -0.00572251       0.04873571
H        3.45715097      -7.72199290       3.31378560       0.00000000       0.00000000       0.03674689      -0.04555618       0.05010404       0.03480855
H        3.75624806      -7.32210348       1.63145660       0.00000000       0.00000000       0.07062762      -0.02978248      -0.00840992       0.03507337
H        4.82196433      -5.16302893       2.39522199       0.00000000       0.00000000      -0.03812462      -0.01879875       0.04334884       0.03915945
H        4.39522476      -5.58293098       4.05181674       0.00000000       0.00000000      -0.00585670      -0.01024465      -0.00048250       0.04932819
H        2.71931234      -4.04123904       3.16795981       0.00000000       0.00000000       0.02406788      -0.02577564      -0.06847765       0.02708887
H        1.97986596      -5.61904134       3.38525722       0.00000000       0.00000000      -0.01447939      -0.04005726       0.04265569       0.05643805
H        2.12594341      -6.16818014       1.05657988       0.00000000       0.00000000       0.00388061       0.00658757       0.03953372       0.08318812
H        3.19909581      -4.81117648       0.71411071       0.00000000       0.00000000       0.02907968      -0.09616955       0.00735701       0.05044888
H        0.18414938      -6.05781525       0.37015844       0.00000000       0.00000000       0.01002921      -0.10253091       0.08273000       0.08298298
H       -0.34917587      -4.55460355      -0.38897252       0.00000000       0.00000000      -0.07769368       0.02025006       0.00280640       0.04838704
H       -2.03865404      -5.47628498       1.10507676       0.00000000       0.00000000      -0.04600735      -0.04252615       0.04025111       0.04525388
H       -1.51033970      -3.87182630       1.63081586       0.00000000       0.00000000      -0.04084486       0.06514317       0.02227876       0.03486530
H       -0.29146676      -4.74032254       3.47755309       0.00000000       0.00000000      -0.00186586       0.00310337       0.01159934       0.03064563
H       -0.30069546      -6.38102182       2.82125759       0.00000000       0.00000000      -0.00711184      -0.03825565      -0.00844367       0.04950506
H       -2.64436638      -6.65559515       3.24508307       0.00000000       0.00000000      -0.01214120      -0.01547248       0.03052135       0.04686494
H       -2.86176183      -4.94400941       3.58154556       0.00000000       0.00000000       0.01390523      -0.00398448       0.01522258       0.01318728
H       -2.89360556      -6.25170650       5.64667913       0.00000000       0.00000000      -0.01018925      -0.00241830       0.02264004       0.04375871
H       -1.55427985      -5.10186365       5.62873498       0.00000000       0.00000000      -0.00022831       0.00989996       0.03389412       0.02385577
H       -0.83777341      -7.21732950       6.56774928       0.00000000       0.00000000       0.00279046       0.00714590       0.04287561       0.04395949
H        0.02682572      -6.91586130       5.07038768       0.00000000       0.00000000       0.02298985      -0.00491203       0.00711687       0.02433039
H       -1.45813878      -8.51998411       3.88256096       0.00000000       0.00000000       0.00310942       0.01835112      -0.01356423       0.02467744
H       -2.40581860      -8.73768183       5.35286901       0.00000000       0.00000000      -0.00012936       0.01871038       0.01158090       0.03774875
H        0.55789501      -9.42450985       5.04892642       0.00000000       0.00000000      -0.01815074      -0.00904590       0.00533187       0.03005675
H       -0.77030294     -10.58650898       5.05719423       0.00000000       0.00000000      -0.00193174       0.02789970       0.00782096       0.04421434
H       -0.40215095      -9.65665782       6.50894483       0.00000000       0.00000000       0.00003545      -0.01741364      -0.01604615       0.04342559
H        2.79188162      -2.33786469      -0.27322614       0.00000000       0.00000000       0.14463213       0.06056261       0.05517237       0.09180623
H        3.32179189      -2.82933267       1.38467589       0.00000000       0.00000000       0.03872998       0.05326256      -0.11038391       0.06965136
H        4.48956207      -0.62237754       0.74241534       0.00000000       0.00000000       0.12472470      -0.03463998      -0.04807244       0.06874096
H        3.58531097       0.79102361       1.36040682       0.00000000       0.00000000       0.14339599       0.04878335       0.01602901       0.10894448
H        4.80164391       1.58521163      -3.28439948       0.00000000       0.00000000      -0.04232337       0.00978406      -0.04423315       0.07516864
H        3.11267167       1.94031436      -2.84926711       0.00000000       0.00000000       0.04004973      -0.06222814      -0.07953632       0.05085965
H        3.25151391       0.39606944      -4.71243244       0.00000000       0.00000000      -0.04339169      -0.02566573      -0.06021808       0.05400636
H        2.47321588      -0.39682316      -3.33180758       0.00000000       0.00000000       0.02893996      -0.00320320       0.05330911       0.05112906
H        4.49717151      -1.69730116      -2.89616828       0.00000000       0.00000000       0.00401072      -0.01689457       0.01575415       0.02405015
H        5.39424661      -0.79377280      -4.12477649       0.00000000       0.00000000       0.00070287       0.02374829       0.01027102       0.04856593
H        4.13692263      -1.73732158      -5.91465638       0.00000000       0.00000000      -0.00934832       0.01208564       0.00194878       0.04928494
H        2.86876156      -2.30414662      -4.84453223       0.00000000       0.00000000      -0.00345414       0.00905444       0.02703275       0.01985626
H        4.15516672      -4.21359369      -5.53002112       0.00000000       0.00000000       0.00101937       0.01997602      -0.01172253       0.03760130
H        4.47903977      -3.92404166      -3.82057221       0.00000000       0.00000000      -0.00814210      -0.02113540       0.01509095       0.01748153
H        6.53107062      -4.50492044      -4.95258273       0.00000000       0.00000000       0.00055902      -0.03252825       0.01910896       0.04165410
H        6.63718307      -2.83528532      -4.41774536       0.00000000       0.00000000       0.01415082       0.02091588       0.01020238       0.02852378
H        6.15434028      -2.05782891      -6.72726870       0.00000000       0.00000000      -0.01291895       0.01566885       0.00309659       0.02781316
H        5.93051757      -3.72698298      -7.25035096       0.00000000       0.00000000      -0.01078869      -0.00671192       0.02133823       0.03592057
H        8.52644841      -2.55075925      -6.14541230       0.00000000       0.00000000      -0.00626721      -0.01343993      -0.01362476       0.03418559
H        8.18671425      -2.88519020      -7.84358508       0.00000000       0.00000000      -0.00588597      -0.01430754       0.03060457       0.04591818
H        8.31077249      -4.21407821      -6.69175680       0.00000000       0.00000000      -0.00772228       0.01597645      -0.00477305       0.04194536
H        5.49753759       1.38380474       0.06315064       0.00000000       0.00000000       0.02323085       0.02020408      -0.06654007       0.05318410
H        5.96653193       1.86727193      -1.57075888       0.00000000       0.00000000       0.07172919       0.02141229       0.07327254       0.07309794
H        6.48371208      -0.46771169      -2.15734845       0.00000000       0.00000000       0.07137494       0.01489235      -0.03152554       0.05646526
H        5.95559227      -1.01878652      -0.57953527       0.00000000       0.00000000       0.03894276       0.02241133      -0.00920879       0.03450173
H        7.71589797       0.49806146       0.45435167       0.00000000       0.00000000       0.09015827      -0.03073300      -0.01925858       0.03887117
H        8.27073443       0.86044511      -1.17474859       0.00000000       0.00000000       0.10855489      -0.02473074       0.01223453       0.04391885
H        9.68981206      -0.90545877      -0.36579054       0.00000000       0.00000000       0.04399919      -0.02431081       0.01939233       0.05351866
H        8.60175160      -1.61398309      -1.55844497       0.00000000       0.00000000       0.06296829      -0.03719492       0.04524423       0.04011923
H        8.79424342      -3.10878623       0.32811662       0.00000000       0.00000000       0.03685733      -0.05760608       0.01666819       0.04587837
H        7.15896251      -2.47395735       0.30792854       0.00000000       0.00000000       0.03214452      -0.00336549      -0.00112511       0.01696623
H        7.78233874      -0.84919874       2.11486927       0.00000000       0.00000000      -0.00650734      -0.00044719       0.00294595       0.02094324
H        9.44251658      -1.42765286       2.03524242       0.00000000       0.00000000       0.04823357       0.02138652       0.00150972       0.04475267
H        8.42538114      -2.47765025       3.92655212       0.00000000       0.00000000       0.03185072       0.01632557      -0.00400139       0.04125152
H        8.61571368      -3.71924875       2.69227319       0.00000000       0.00000000       0.03055769      -0.00223648       0.00759690       0.04422059
H        6.02495266      -2.22226030       3.31185022       0.00000000       0.00000000       0.04036619      -0.00714900       0.00924678       0.02022172
H        6.41013896      -3.86863038       3.79673796       0.00000000       0.00000000       0.01731231       0.00360090      -0.01366411       0.04064208
H        6.21198112      -3.48258664       2.08608921       0.00000000       0.00000000       0.02362847       0.01819992       0.01610444       0.01666316
H        0.36561578      -1.15234059       2.75628984       0.00000000       0.00000000      -0.00617113      -0.03925834       0.10289072       0.07815216
H        0.29547666      -1.34083270       5.23806946       0.00000000       0.00000000       0.04625193      -0.00657885       0.05554149       0.04959568
H        2.40001317      -1.17091814       6.54047150       0.00000000       0.00000000      -0.03056339       0.05940202      -0.05483704       0.06663234
H        4.51993762      -0.72604308       5.37428747       0.00000000       0.00000000      -0.04994425      -0.01218535      -0.07227130       0.06411884
H        4.59175117      -0.56352976       2.94085359       0.00000000       0.00000000      -0.09160805      -0.09461440       0.04326584       0.04587851
C       -5.86280507      -6.96465766       3.42302967       0.00000000       0.00000000       0.01780913       0.00879042       0.01162455      -0.10078370
C       -7.07894199      -7.22384177       2.53992556       0.00000000       0.00000000       0.05606283      -0.00914329       0.04470991      -0.05776927
C       -7.64589186      -5.97156535       1.86375066       0.00000000       0.00000000       0.02000868      -0.03785426       0.01148686      -0.06102753
C       -8.16093469      -4.88809630       2.82054155       0.00000000       0.00000000       0.03531784       0.00926362       0.01118125      -0.06478808
C       -7.11690891      -3.84018343       3.22474355       0.00000000       0.00000000       0.04299465       0.04030802      -0.02518614      -0.06549687
C       -6.80008057      -2.86936801       2.08496189       0.00000000       0.00000000       0.01684615       0.05484066      -0.02204082      -0.06782296
C       -5.62443189      -1.92812110       2.37764880       0.00000000       0.00000000       0.02553329      -0.03447883       0.01670103      -0.06239947
C       -4.29485068      -2.69546441       2.38038545       0.00000000       0.00000000      -0.02136882       0.02267201       0.04892256      -0.01833619
N       -3.11050907      -1.85677770       2.48483419       0.00000000       0.00000000      -0.02606309       0.09275223      -0.01773026      -0.06109389
C       -2.56728253      -1.64441274       3.82545048       0.00000000       0.00000000      -0.01263786      -0.02815845      -0.02666085      -0.00951448
C       -3.06608318      -0.39922635       4.55933134       0.00000000       0.00000000       0.00923886      -0.03683435       0.00049704      -0.07103614
C       -2.54647926       0.89547084       3.94127694       0.00000000       0.00000000      -0.03137321      -0.00140521      -0.01255039      -0.05628286
C       -2.97363379       2.15959831       4.69001040       0.00000000       0.00000000       0.00900911      -0.01017439       0.00861814      -0.06219871
C       -4.33150433       2.73773008       4.27986963       0.00000000       0.00000000       0.02883277       0.00048237       0.00756563      -0.06050054
C       -5.55162098       1.83887342       4.47053602       0.00000000       0.00000000      -0.02190764       0.00323929       0.02407312      -0.05924548
C       -5.80203261       1.41652522       5.91653334       0.00000000       0.00000000      -0.05275172      -0.03270072       0.03547948      -0.05802158
C       -7.03445529       0.52526618       6.02927615       0.00000000       0.00000000      -0.01059017      -0.00142108      -0.00182946      -0.10570350
C       -2.48431373      -1.33949210       1.43358906       0.00000000       0.00000000       0.05656002      -0.00455156      -0.02419383       0.26485726
O       -1.51620769      -0.55909596       1.54615812       0.00000000       0.00000000       0.09719535       0.06288492      -0.03367482      -0.40483863
C       -3.03418095      -1.70144488       0.06490757       0.00000000       0.00000000       0.01266276      -0.02520759      -0.01961555      -0.02139678
N       -2.29545358      -1.17924041      -1.11097972       0.00000000       0.00000000      -0.08803011       0.02068029      -0.07954343      -0.12628027
C       -1.81682712      -2.27413230      -1.99332586       0.00000000       0.00000000      -0.03950083      -0.00343800      -0.01643739      -0.02422132
C       -0.32151538      -2.53583587      -2.14369967       0.00000000       0.00000000       0.05071419       0.05340478       0.08397979       0.26335140
O        0.53856332      -1.78741133      -1.66026068       0.00000000       0.00000000       0.00112761      -0.00971247      -0.06179424      -0.38739859
N       -0.01531756      -3.65069473      -2.82687749       0.00000000       0.00000000       0.01358731      -0.00136073       0.01287700      -0.08391396
C        1.38738467      -4.01497296      -3.05783460       0.00000000       0.00000000      -0.03151703      -0.01005386       0.00860362      -0.01144437
C        1.91494458      -5.24502102      -2.29159655       0.00000000       0.00000000      -0.01074793       0.02517581      -0.01084469      -0.07245549
C        1.14850016      -6.56527506      -2.44811189       0.00000000       0.00000000      -0.01327192       0.03199237      -0.02979214      -0.07093632
C        1.67977372      -7.66407925      -1.50149855       0.00000000       0.00000000       0.04910687       0.02751942      -0.06865380      -0.07154918
C        0.59122378      -8.42622268      -0.71926708       0.00000000       0.00000000       0.03773044       0.02160038      -0.09069930      -0.05782757
C        0.32707215      -9.83439183      -1.25839861       0.00000000       0.00000000       0.00725177      -0.03656661      -0.01982355      -0.06473012
C        1.41288170     -10.85299002      -0.90739463       0.00000000       0.00000000       0.01567096      -0.05316096      -0.01455122      -0.05459813
C        0.93587003     -12.28257059      -1.14863061       0.00000000       0.00000000       0.00298213       0.01418669      -0.01259909      -0.10842011
C       -0.97101174      -4.35877329      -3.68103506       0.00000000       0.00000000       0.08564316      -0.04114368      -0.01301007      -0.02878430
C       -2.09181646      -5.14818148      -3.00148090       0.00000000       0.00000000       0.04333121      -0.00065320      -0.02191993      -0.06664561
C       -2.55772218      -6.29829275      -3.89638232       0.00000000       0.00000000       0.01641854       0.01481360       0.00836897      -0.06527349
C       -3.46859778      -7.26421628      -3.13771136       0.00000000       0.00000000       0.02728357       0.00718331      -0.03830150      -0.06483926
C       -4.63755686      -6.59327704      -2.41682001       0.00000000       0.00000000       0.01533384      -0.04760112      -0.00803588      -0.05969631
C       -5.57993506      -5.83571607      -3.34972233       0.00000000       0.00000000      -0.02835156      -0.00157729       0.02394907      -0.06175474
C       -6.82193095      -5.31504431      -2.62628655       0.00000000       0.00000000      -0.02818034       0.03438918       0.05235403      -0.05972565
C       -6.50974313      -4.23323228      -1.59882277       0.00000000       0.00000000      -0.01265190       0.01522077       0.00887569      -0.09694381
C       -3.29129347      -0.42681774      -1.88850627       0.00000000       0.00000000      -0.10010496      -0.15031158       0.00900504       0.05443321
C       -3.12818761       0.91218724      -2.16271669       0.00000000       0.00000000       0.07296890       0.01359606       0.02721717      -0.04986111
C       -4.09080448       1.60788002      -2.87560421       0.00000000       0.00000000       0.00143873       0.03879355      -0.00570625      -0.02383033
C       -5.24806526       0.97478303      -3.28425243       0.00000000       0.00000000      -0.04743130      -0.01804111       0.02045787      -0.02253336
C       -5.44234862      -0.36721146      -2.98587248       0.00000000       0.00000000       0.10592943       0.09098813       0.02234074      -0.02276190
C       -4.45654614      -1.06643391      -2.31415239       0.00000000       0.00000000      -0.03535465       0.03021965      -0.02806218      -0.05160179
H       -5.41371444      -7.90486762       3.73671542       0.00000000       0.00000000      -0.04618658       0.00305355      -0.01291776       0.03767237
H       -5.10858304      -6.39517411       2.87944928       0.00000000       0.00000000      -0.01195221      -0.01503990      -0.00041517       0.01625207
H       -6.14394080      -6.41617778       4.31831508       0.00000000       0.00000000       0.01817249      -0.01056577      -0.00131380       0.03717195
H       -6.79300673      -7.93217485       1.75783870       0.00000000       0.00000000      -0.03764239       0.02022478      -0.01502319       0.03196131
H       -7.85686087      -7.70106007       3.13743631       0.00000000       0.00000000      -0.00878776       0.04415988      -0.00123778       0.04317668
H       -6.88559339      -5.55484207       1.20065677       0.00000000       0.00000000       0.01242647       0.00352015       0.00086660       0.02328105
H       -8.47526264      -6.29948252       1.23697204       0.00000000       0.00000000      -0.02776358       0.02067579      -0.03996748       0.03925126
H       -8.99930787      -4.36453543       2.35670401       0.00000000       0.00000000       0.00682705      -0.01598929      -0.01026155       0.03803178
H       -8.54507831      -5.37609841       3.71589233       0.00000000       0.00000000       0.00535346       0.02044835       0.04046683       0.05067984
H       -7.49784937      -3.26733989       4.07278250       0.00000000       0.00000000      -0.02334157      -0.01838207      -0.00486004       0.03743648
H       -6.20615025      -4.33915625       3.54783784       0.00000000       0.00000000      -0.00130861      -0.03669966      -0.00016214       0.03723031
H       -6.58482635      -3.42541734       1.17186092       0.00000000       0.00000000       0.01025463      -0.01176228       0.01607505       0.03951976
H       -7.68590091      -2.26583546       1.88807739       0.00000000       0.00000000      -0.03329672       0.03896254       0.01239506       0.05111073
H       -5.60007575      -1.13727887       1.62044889       0.00000000       0.00000000       0.01206908      -0.05592354       0.06343527       0.02558078
H       -5.77158735      -1.45835061       3.35123336       0.00000000       0.00000000      -0.02203090       0.00036561      -0.04429532       0.05618329
H       -4.27931786      -3.35940269       3.24443368       0.00000000       0.00000000      -0.09553623      -0.05766303      -0.02627184       0.08013717
H       -4.23001596      -3.31322769       1.48156016       0.00000000       0.00000000      -0.08081235      -0.03937391       0.12429072       0.05301779
H       -2.83938088      -2.52480773       4.40875305       0.00000000       0.00000000       0.13572062      -0.01507217       0.06879929       0.07029113
H       -1.48216340      -1.59073767       3.72098414       0.00000000       0.00000000      -0.02616834      -0.03120900       0.05655814       0.06734257
H       -4.15093718      -0.40120090       4.60174882       0.00000000       0.00000000      -0.00231222      -0.03689996      -0.07473589       0.06926158
H       -2.70999843      -0.47168647       5.58829073       0.00000000       0.00000000       0.04686064      -0.00666922       0.02863536       0.05546173
H       -1.45188428       0.83376836       3.92447257       0.00000000       0.00000000      -0.02889142       0.05744668      -0.03900480       0.02109840
H       -2.89082439       0.96940069       2.91120741       0.00000000       0.00000000      -0.01586330       0.02973471      -0.02149206       0.03225896
H       -2.94741596       1.96940925       5.76208274       0.00000000       0.00000000      -0.05647563      -0.00452581       0.00856153       0.04829745
H       -2.23524194       2.93929430       4.49091877       0.00000000       0.00000000      -0.00776509       0.00468471      -0.00137833       0.02281537
H       -4.48794375       3.65311922       4.85402035       0.00000000       0.00000000      -0.00611461       0.00304523       0.01267417       0.04343609
H       -4.27788925       3.01983604       3.22401147       0.00000000       0.00000000      -0.00319690       0.02672905      -0.01541098       0.01541643
H       -6.42703229       2.39250387       4.12760734       0.00000000       0.00000000      -0.02925941       0.03164347      -0.03415745       0.03921520
H       -5.46720560       0.95982857       3.82780208       0.00000000       0.00000000      -0.00496143      -0.00190307      -0.00514170       0.01844589
H       -4.94201617       0.87953316       6.31892238       0.00000000       0.00000000       0.00477152       0.01346262      -0.01565108       0.03028988
H       -5.94796359       2.30744760       6.52808333       0.00000000       0.00000000       0.00635962       0.01197758      -0.00936623       0.04430439
H       -6.91378308      -0.38237593       5.43679642       0.00000000       0.00000000      -0.01377337       0.02901202       0.02303002       0.02144536
H       -7.20336857       0.23537913       7.06360293       0.00000000       0.00000000       0.01050494       0.01821936      -0.03530455       0.04716926
H       -7.91922779       1.04862700       5.67390339       0.00000000       0.00000000       0.01664730      -0.01949444       0.00597860       0.04292415
H       -3.11195017      -2.79023755       0.01587979       0.00000000       0.00000000       0.05390007      -0.10242068      -0.03746081       0.06966312
H       -4.05415939      -1.30370067       0.04533164       0.00000000       0.00000000      -0.03998434      -0.01681655      -0.02521912       0.08888644
H       -2.25225491      -3.21582698      -1.66446539       0.00000000       0.00000000      -0.04018225      -0.04616492       0.05830408       0.07377090
H       -2.17368211      -2.08781520      -3.01128820       0.00000000       0.00000000      -0.05332898       0.07170405      -0.05267889       0.09012436
H        1.50898325      -4.18860013      -4.12986881       0.00000000       0.00000000       0.02170326       0.01572762       0.01943738       0.06595368
H        1.99747408      -3.14989967      -2.78214324       0.00000000       0.00000000      -0.06464155      -0.04361189       0.02001169       0.06692686
H        2.93079101      -5.40577268      -2.65891635       0.00000000       0.00000000       0.01957380       0.01419015       0.02699804       0.05830095
H        1.99093971      -5.00400029      -1.23402020       0.00000000       0.00000000      -0.08745814       0.08265044      -0.01243738       0.03130517
H        0.09431355      -6.41417505      -2.23671570       0.00000000       0.00000000      -0.01485547       0.06534889       0.02079979       0.04342079
H        1.22937969      -6.88901764      -3.48501674       0.00000000       0.00000000      -0.01607062      -0.07701954      -0.01628559       0.04389411
H        2.25151443      -8.38855718      -2.07411009       0.00000000       0.00000000       0.07610191      -0.01516056      -0.05264287       0.05848741
H        2.38011628      -7.20928223      -0.80175496       0.00000000       0.00000000       0.02010219       0.01211782      -0.00005567       0.02568190
H        0.87667382      -8.50929832       0.33530677       0.00000000       0.00000000      -0.04108597       0.00115275      -0.08661702       0.02611773
H       -0.34935406      -7.87091800      -0.77467528       0.00000000       0.00000000      -0.01342132      -0.00046613       0.08675264       0.01915568
H       -0.61670217     -10.19745741      -0.84782696       0.00000000       0.00000000      -0.03110051       0.04237946       0.05086424       0.03958450
H        0.21032643      -9.77785882      -2.34151153       0.00000000       0.00000000      -0.02161242      -0.05497784      -0.03743314       0.03728154
H        2.30772110     -10.67432670      -1.50585103       0.00000000       0.00000000       0.02499583       0.04059715       0.01595109       0.03040293
H        1.69151071     -10.75026684       0.14493699       0.00000000       0.00000000      -0.03934343       0.04087946      -0.01691158       0.03022185
H        0.66481399     -12.43109262      -2.19177847       0.00000000       0.00000000       0.00841138       0.02682486       0.01635190       0.04003542
H        1.72037898     -12.99272623      -0.89670119       0.00000000       0.00000000      -0.02754556       0.03831404      -0.00970367       0.04562307
H        0.06457642     -12.50371893      -0.53430769       0.00000000       0.00000000       0.03724355       0.00465973      -0.02082223       0.03863673
H       -1.39274382      -3.65931828      -4.40932613       0.00000000       0.00000000      -0.00653083      -0.03275581       0.06345710       0.06165950
H       -0.36539670      -5.07609326      -4.22791546       0.00000000       0.00000000      -0.04237790      -0.07589051      -0.15610214       0.08753141
H       -1.73837729      -5.55195659      -2.04962124       0.00000000       0.00000000      -0.03632961      -0.00255026      -0.00380184       0.03606423
H       -2.96013877      -4.51980647      -2.81301059       0.00000000       0.00000000      -0.00349959      -0.06432483      -0.04058877       0.04437345
H       -3.07446925      -5.87781009      -4.75938238       0.00000000       0.00000000      -0.02603902      -0.07720874       0.00199267       0.04819766
H       -1.69689503      -6.85791016      -4.26695766       0.00000000       0.00000000      -0.01682574      -0.00040471       0.01408902       0.04245829
H       -3.85391567      -7.99730569      -3.84533728       0.00000000       0.00000000      -0.02267482      -0.02566592       0.01492322       0.05388804
H       -2.86512898      -7.80043118      -2.39961547       0.00000000       0.00000000      -0.04405193      -0.02027409      -0.01805683       0.03514014
H       -5.20877989      -7.37066005      -1.90943190       0.00000000       0.00000000      -0.03266049      -0.03074217       0.02572127       0.04580841
H       -4.24590780      -5.92561132      -1.64538207       0.00000000       0.00000000      -0.04456178      -0.01858303       0.01323525       0.01354541
H       -5.06288503      -4.99808496      -3.82417571       0.00000000       0.00000000       0.00092354       0.00661867       0.00594903       0.02519492
H       -5.90174348      -6.51234319      -4.14092032       0.00000000       0.00000000       0.00670097      -0.01874330      -0.02824038       0.04538951
H       -7.51295965      -4.89992596      -3.36127685       0.00000000       0.00000000      -0.00996358      -0.03624391      -0.01841398       0.04209110
H       -7.32362523      -6.14378504      -2.12638602       0.00000000       0.00000000      -0.01868850      -0.02374809      -0.01956224       0.04450955
H       -6.01662841      -3.39273021      -2.08132043       0.00000000       0.00000000      -0.03291350      -0.02177400      -0.02471804       0.01979361
H       -7.42537365      -3.86387607      -1.14368155       0.00000000       0.00000000      -0.01662852      -0.04618758      -0.00830815       0.04095045
H       -5.86324440      -4.61393876      -0.80876216       0.00000000       0.00000000      -0.02174181      -0.01223240      -0.02961179       0.01712641
H       -2.25203794       1.40935337      -1.79542345       0.00000000       0.00000000      -0.12722459      -0.00720030      -0.14711334       0.07399715
H       -3.91918012       2.65383418      -3.08015612       0.00000000       0.00000000      -0.12273263      -0.00405404      -0.03786749       0.04400472
H       -6.00654250       1.51224915      -3.82496656       0.00000000       0.00000000      -0.05059126       0.07387920      -0.03693218       0.06660174
H       -6.36235194      -0.85379202      -3.27562900       0.00000000       0.00000000       0.10835722       0.00135729       0.01937098       0.06773720
H       -4.60267640      -2.11568379      -2.10190949       0.00000000       0.00000000       0.01780397       0.03476855      -0.03211488       0.04120171
C       -5.79354278      -1.89979270      -6.16263926       0.00000000       0.00000000      -0.03447756       0.00929613       0.00207335      -0.10682684
C       -4.72167649      -2.77649843      -6.80329948       0.00000000       0.00000000      -0.07792842       0.03693614       0.00572236      -0.05973506
C       -3.40677933      -2.84671924      -6.01901641       0.00000000       0.00000000      -0.03935761       0.02074057      -0.03568065      -0.05588862
C       -2.40967001      -1.72071558      -6.30920610       0.00000000       0.00000000       0.01321361       0.04765149       0.01002668      -0.06176361
C       -2.87237568      -0.35613081      -5.80829751       0.00000000       0.00000000      -0.00449539       0.04007979      -0.00094313      -0.06336867
C       -1.79627095       0.73269198      -5.78171081       0.00000000       0.00000000      -0.00926016      -0.00854391       0.02543171      -0.06939160
C       -0.63610106       0.43762851      -4.83133350       0.00000000       0.00000000      -0.01839191       0.02302607       0.04251705      -0.06752372
C        0.28565681       1.61957099      -4.50235595       0.00000000       0.00000000      -0.00398000       0.05089746       0.04390221      -0.01443296
N       -0.15823763       2.61124677      -3.50537798       0.00000000       0.00000000       0.02802481       0.02951232      -0.03359176      -0.06211153
C       -0.28843266       3.97383821      -4.00957704       0.00000000       0.00000000      -0.01021399       0.02699395      -0.02351696      -0.01302381
C       -1.34030378       4.01944706      -5.12270045       0.00000000       0.00000000       0.03598884      -0.03464866       0.01011142      -0.07059510
C       -1.54824799       5.38396988      -5.77563468       0.00000000       0.00000000       0.04587539      -0.04262750       0.04392756      -0.06323100
C       -2.46454655       5.24699652      -7.00089015       0.00000000       0.00000000       0.02345802       0.02528795       0.03775013      -0.06468876
C       -1.76848409       4.62571732      -8.21453502       0.00000000       0.00000000       0.00445107       0.00761615       0.01392896      -0.06028736
C       -2.67951534       4.47946394      -9.43709787       0.00000000       0.00000000      -0.04003393      -0.02715345       0.01226871      -0.06392679
C       -3.79109711       3.43401630      -9.31198636       0.00000000       0.00000000      -0.01248233      -0.06578328       0.00368699      -0.05631041
C       -3.27726209       2.00534908      -9.15806148       0.00000000       0.00000000       0.00595264      -0.00484319       0.01183846      -0.10280418
C       -0.18118054       2.20502191      -2.23843778       0.00000000       0.00000000       0.03320987       0.12661801      -0.04176988       0.25836941
O       -0.21693640       0.98979000      -1.97392640       0.00000000       0.00000000      -0.01162977      -0.08764681       0.12316743      -0.37519741
C       -0.06468696       3.17075042      -1.05474692       0.00000000       0.00000000      -0.01432972       0.03379339      -0.00877061      -0.01173892
N       -0.79516380       2.67317131       0.12679533       0.00000000       0.00000000      -0.02089629       0.04371612       0.04812734      -0.13782488
C       -0.33685833       3.31844914       1.37480528       0.00000000       0.00000000       0.04161375       0.02596140       0.08411350      -0.01568189
C        0.91107686       2.66717288       1.95473669       0.00000000       0.00000000      -0.05903670      -0.01260400      -0.04742477       0.25490023
O        1.31436906       1.60846535       1.43618745       0.00000000       0.00000000       0.01514196      -0.10634804      -0.06079742      -0.40699757
N        1.51911587       3.24584932       2.98513854       0.00000000       0.00000000      -0.01348642       0.02959884      -0.04196139      -0.05714153
C        2.75801443       2.66784951       3.50683152       0.00000000       0.00000000      -0.05709003       0.05919139      -0.01296234      -0.01408057
C        4.02884160       2.98783523       2.71295151       0.00000000       0.00000000       0.02070729       0.00576113      -0.01991108      -0.06488519
C        4.53175689       4.43417635       2.76390096       0.00000000       0.00000000      -0.02228909       0.00530382      -0.02189474      -0.06781168
C        3.77771769       5.40260989       1.84925817       0.00000000       0.00000000      -0.00368749       0.00507246       0.06112468      -0.06576446
C        3.75629610       4.97357601       0.38306319       0.00000000       0.00000000      -0.00155854      -0.00906378       0.05924837      -0.05490035
C        3.13591002       6.05569260      -0.49484963       0.00000000       0.00000000      -0.01720919      -0.00263929      -0.03518337      -0.06384523
C        2.90670529       5.60535329      -1.93639002       0.00000000       0.00000000       0.04884579      -0.02505035      -0.08579276      -0.05166014
C        4.20618296       5.29393031      -2.67076293       0.00000000       0.00000000       0.01891744      -0.00161128      -0.01716131      -0.10882716
C        0.90984226       4.25335709       3.84536348       0.00000000       0.00000000       0.03551737      -0.01300274      -0.01943672      -0.02016253
C        0.49384011       3.64915604       5.19464641       0.00000000       0.00000000       0.05727420       0.01782880      -0.05046191      -0.06844742
C       -0.36366492       4.62573161       5.99642873       0.00000000       0.00000000       0.02316255      -0.00141938      -0.06571505      -0.06313380
C       -0.62504074       4.08778446       7.40223092       0.00000000       0.00000000       0.01775863      -0.01002305      -0.03299388      -0.06226932
C       -1.54665129       4.99106990       8.22450472       0.00000000       0.00000000      -0.01963478      -0.02680550      -0.00907904      -0.06472266
C       -3.03165118       4.85233850       7.86125666       0.00000000       0.00000000      -0.03516922      -0.02733904       0.01556915      -0.06163335
C       -3.82319136       3.91931330       8.78321669       0.00000000       0.00000000       0.01656180      -0.06649700       0.01482033      -0.05668376
C       -3.33314643       2.47623598       8.77576779       0.00000000       0.00000000       0.01584544      -0.02950592       0.00531188      -0.10136158
C       -2.21694341       2.99008023       0.07707136       0.00000000       0.00000000       0.00211636       0.15250010      -0.02877444       0.05416884
C       -3.09533839       1.99553906       0.47711948       0.00000000       0.00000000      -0.00923397       0.04104752      -0.01792380      -0.05157904
C       -4.44687827       2.25733716       0.60826191       0.00000000       0.00000000       0.03342954       0.00722334       0.01896043      -0.02338308
C       -4.92774698       3.53270897       0.35877361       0.00000000       0.00000000       0.04135098      -0.02177388      -0.02577837      -0.02338363
C       -4.05144692       4.52602091      -0.05144851       0.00000000       0.00000000      -0.10917675      -0.00555259       0.00759496      -0.02251764
C       -2.69726757       4.26469952      -0.19693424       0.00000000       0.00000000      -0.10727926       0.01831293       0.00219924      -0.04449620
H       -6.72578581      -1.98901497      -6.71397238       0.00000000       0.00000000       0.01407746      -0.04110210      -0.02756903       0.04784836
H       -5.51608512      -0.85042563      -6.15355336       0.00000000       0.00000000      -0.00240146      -0.01799875       0.01163471       0.03371011
H       -5.97943334      -2.21417370      -5.13714133       0.00000000       0.00000000       0.01262000      -0.04784222      -0.03488041       0.02582290
H       -4.51927231      -2.43030315      -7.81758169       0.00000000       0.00000000      -0.00591537      -0.00472369       0.01723066       0.04542153
H       -5.13060745      -3.78639435      -6.87834058       0.00000000       0.00000000       0.04121030      -0.00932128      -0.02389487       0.04132992
H       -2.91672695      -3.78906586      -6.27419702       0.00000000       0.00000000       0.00708313      -0.02677342      -0.00580844       0.03060074
H       -3.63555519      -2.86605201      -4.94759746       0.00000000       0.00000000      -0.00454529       0.00571337      -0.01229574       0.01221143
H       -2.23076926      -1.67040778      -7.38346116       0.00000000       0.00000000       0.01260066      -0.01231990      -0.00404757       0.04830664
H       -1.45805491      -1.96987501      -5.83137957       0.00000000       0.00000000       0.03730024      -0.02198419      -0.00548205       0.01144430
H       -3.29491951      -0.45815945      -4.80582671       0.00000000       0.00000000       0.05250554      -0.00733499       0.00749170       0.01971887
H       -3.66493673       0.00376530      -6.46184311       0.00000000       0.00000000      -0.02557012      -0.00165741      -0.01255605       0.05297971
H       -2.30676647       1.64441391      -5.47750299       0.00000000       0.00000000       0.04083114      -0.00723528       0.02894278       0.04298267
H       -1.40306375       0.87527932      -6.79076305       0.00000000       0.00000000      -0.00229481      -0.00675014       0.03885045       0.04500515
H        0.01014039      -0.30832541      -5.29911049       0.00000000       0.00000000      -0.01755509      -0.03350221       0.06139273       0.04780837
H       -1.01011849       0.02567369      -3.89607834       0.00000000       0.00000000      -0.05311438      -0.03636965       0.02993393       0.05620423
H        0.52467963       2.16435700      -5.41372886       0.00000000       0.00000000       0.05199806      -0.04531515       0.00101979       0.07563068
H        1.20717366       1.20597486      -4.08940833       0.00000000       0.00000000      -0.02768852      -0.08172144      -0.05559301       0.06502029
H        0.68999486       4.28341780      -4.39377477       0.00000000       0.00000000      -0.06322025       0.11842300      -0.04190350       0.06389223
H       -0.57742155       4.66117548      -3.21572918       0.00000000       0.00000000       0.01422110      -0.06159990       0.02250887       0.05516506
H       -2.29465856       3.67032830      -4.72019067       0.00000000       0.00000000       0.03354758       0.04875009       0.03701092       0.04108869
H       -1.03445644       3.33467901      -5.90772364       0.00000000       0.00000000      -0.04750523       0.00272640      -0.05739620       0.06448752
H       -0.58612213       5.79595681      -6.08365695       0.00000000       0.00000000       0.00421845       0.01045114      -0.02675272       0.04314318
H       -1.98678740       6.07233186      -5.05029223       0.00000000       0.00000000      -0.03953211       0.01688261      -0.05963390       0.03630170
H       -2.81842819       6.23877955      -7.27946876       0.00000000       0.00000000      -0.02600087       0.02589987      -0.02833461       0.05067734
H       -3.33549917       4.64849846      -6.72718389       0.00000000       0.00000000       0.00431560       0.02332238       0.00566578       0.03745805
H       -1.35669981       3.64677631      -7.96531575       0.00000000       0.00000000      -0.01247890      -0.01314565       0.02441978       0.02580396
H       -0.93045492       5.26642038      -8.49416002       0.00000000       0.00000000       0.02701701       0.02617723      -0.00586614       0.03549710
H       -2.06111470       4.21322351     -10.29686514       0.00000000       0.00000000       0.02270868       0.00632881       0.01719442       0.04193145
H       -3.13719123       5.44535640      -9.65329731       0.00000000       0.00000000      -0.00606818       0.03452147       0.00853502       0.04059566
H       -4.39521784       3.47780795     -10.21937477       0.00000000       0.00000000      -0.00988475       0.05220096       0.00421561       0.04243455
H       -4.44890779       3.67472034      -8.47372527       0.00000000       0.00000000       0.03234885       0.01784397      -0.00569551       0.02756807
H       -2.60420891       1.74679078      -9.97319995       0.00000000       0.00000000      -0.01763726       0.04149752       0.00751241       0.03838835
H       -4.10748329       1.30126795      -9.17009937       0.00000000       0.00000000       0.00450547       0.03997010      -0.01272132       0.03208923
H       -2.74625694       1.87975642      -8.21810285       0.00000000       0.00000000      -0.00099254       0.00942454      -0.00312749       0.02222016
H       -0.34752297       4.19136652      -1.31244419       0.00000000       0.00000000      -0.03465680       0.11558611      -0.02723043       0.05902666
H        1.00441731       3.16575590      -0.81059790       0.00000000       0.00000000       0.05291756       0.01446408       0.02131015       0.08501309
H       -1.13342427       3.19658669       2.11455850       0.00000000       0.00000000      -0.06479766       0.00201189       0.00665637       0.08655441
H       -0.17521437       4.39143575       1.22148219       0.00000000       0.00000000       0.05306791       0.08084885      -0.01964148       0.06139014
H        2.61976964       1.58359757       3.56184992       0.00000000       0.00000000       0.05359266       0.03586450      -0.02480440       0.05840252
H        2.89362780       3.05072948       4.51365396       0.00000000       0.00000000       0.03917666      -0.02927523       0.06396009       0.07924940
H        3.90543517       2.71364061       1.66736226       0.00000000       0.00000000      -0.06325890      -0.05271878      -0.03262622       0.03735807
H        4.80548806       2.35311461       3.14096073       0.00000000       0.00000000       0.04664754      -0.05204425       0.01389286       0.04939565
H        5.58077591       4.42723492       2.45640405       0.00000000       0.00000000      -0.04410811      -0.00250110      -0.00461217       0.05233590
H        4.50917411       4.80419860       3.79130115       0.00000000       0.00000000      -0.05868455      -0.02555375      -0.03972897       0.04896797
H        4.26857836       6.37456778       1.91602980       0.00000000       0.00000000      -0.00237500       0.00256425       0.00383305       0.05426071
H        2.75239241       5.53592028       2.19732483       0.00000000       0.00000000      -0.01362941      -0.01116712      -0.01892108       0.02528069
H        3.17626179       4.05139899       0.26895127       0.00000000       0.00000000      -0.03310305      -0.01132231      -0.02571758       0.00269374
H        4.77650159       4.77211851       0.05649904       0.00000000       0.00000000       0.01701529       0.00326981       0.00123330       0.04093826
H        3.78205851       6.93241025      -0.49340125       0.00000000       0.00000000       0.01743587       0.02653422      -0.01268001       0.05358374
H        2.17997492       6.35630817      -0.06125535       0.00000000       0.00000000      -0.06213790       0.02208265       0.01641817       0.02401430
H        2.38486081       6.40115949      -2.47062506       0.00000000       0.00000000      -0.01134685      -0.00096896      -0.00017027       0.04039171
H        2.26321615       4.71760126      -1.94943101       0.00000000       0.00000000       0.01268120       0.01803382       0.00172213      -0.00030649
H        4.86936225       6.15431748      -2.63703617       0.00000000       0.00000000      -0.00965592      -0.02315646      -0.00906081       0.05656285
H        4.01040953       5.05836288      -3.71524192       0.00000000       0.00000000       0.00214644       0.00406981       0.03455170       0.03615632
H        4.71783491       4.44692798      -2.21718356       0.00000000       0.00000000      -0.01220047       0.02127251      -0.03380769       0.02622506
H        0.03328939       4.69602287       3.37184197       0.00000000       0.00000000       0.09932232      -0.03606181      -0.02077106       0.05700436
H        1.64584529       5.04270520       4.01273814       0.00000000       0.00000000      -0.03748240       0.04124764       0.04496979       0.07962718
H        1.37930846       3.41330784       5.78488629       0.00000000       0.00000000      -0.01998765      -0.01663960       0.04547566       0.05006305
H       -0.04356797       2.71123088       5.02741302       0.00000000       0.00000000      -0.01436136       0.07228958      -0.00426492       0.03630814
H       -1.30365858       4.79890615       5.47129960       0.00000000       0.00000000      -0.06310755       0.02664634       0.05017059       0.03618418
H        0.15733589       5.58199770       6.05892626       0.00000000       0.00000000      -0.00976879       0.02645148       0.05955999       0.04469211
H        0.33590882       3.99243243       7.91109134       0.00000000       0.00000000      -0.00074003       0.01622846       0.05035331       0.03508214
H       -1.05554604       3.08987850       7.32113645       0.00000000       0.00000000      -0.01721805      -0.00873943       0.02355856       0.04051399
H       -1.22454405       6.02455413       8.08262168       0.00000000       0.00000000      -0.02459118      -0.01597926       0.01131913       0.03816935
H       -1.42139758       4.75729739       9.28145629       0.00000000       0.00000000       0.00809794       0.01232053       0.01905328       0.05107349
H       -3.12508075       4.49739788       6.83266359       0.00000000       0.00000000      -0.01571983       0.01209936      -0.01317736       0.02539670
H       -3.50443710       5.83310406       7.91482564       0.00000000       0.00000000      -0.00043080       0.03231594      -0.02869965       0.03781042
H       -4.87084148       3.93176962       8.47077256       0.00000000       0.00000000       0.02726877       0.03880592       0.00856414       0.03223359
H       -3.78389822       4.30072608       9.80460692       0.00000000       0.00000000       0.01956124       0.02246127      -0.01870360       0.04224379
H       -3.35207067       2.07289780       7.76500189       0.00000000       0.00000000       0.00811105       0.00211866       0.01143015       0.01931151
H       -3.97397844       1.85167053       9.39358685       0.00000000       0.00000000      -0.01949055       0.04899102       0.02319945       0.03885413
H       -2.32038209       2.40275112       9.16272697       0.00000000       0.00000000       0.00225892       0.00970080       0.01835915       0.03649239
H       -2.67277760       1.02283530       0.68416737       0.00000000       0.00000000      -0.09043725       0.04091975       0.01030087       0.07685858
H       -5.10770938       1.46814100       0.92968880       0.00000000       0.00000000      -0.09744872       0.04007806       0.00083256       0.04543420
H       -5.97459966       3.75724877       0.49795400       0.00000000       0.00000000       0.06204013      -0.01810613      -0.04364510       0.06909168
H       -4.43200551       5.52010531      -0.23164468       0.00000000       0.00000000       0.06700671      -0.01841609      -0.04014149       0.06806683
H       -2.03932084       5.07166579      -0.49457736       0.00000000       0.00000000      -0.08013727      -0.07576388       0.04801327       0.04114669
