268
Properties=species:S:1:pos:R:3:initial_charges:R:1:initial_magmoms:R:1:forces:R:3:charge:R:1 energy=-8707.942592962649 free_energy=-8707.942592962649 dipole="-1.157130926916313 -1.1610145892625097 -0.5255571897302699" pbc="F F F"
Eu      -0.12542338       0.26820209       0.10690426       3.00000000       0.00000000       0.11241523      -0.13314667       0.07709814       0.85244554
C       -4.50972828       6.64799096      -2.72226450       0.00000000       0.00000000      -0.03474264      -0.03772155      -0.03348613      -0.10884150
C       -5.20440920       5.47633729      -3.40485926       0.00000000       0.00000000       0.01679079       0.02699836       0.00557635      -0.06039234
C       -4.81358566       4.10701412      -2.84481061       0.00000000       0.00000000      -0.01555364       0.08404614      -0.03694276      -0.05826622
C       -5.54336269       3.02336503      -3.63889960       0.00000000       0.00000000      -0.00748516       0.08572254      -0.00894352      -0.07241842
C       -5.17820526       1.59822320      -3.23781040       0.00000000       0.00000000      -0.08343801       0.06013339       0.04013654      -0.07349671
C       -3.92663844       1.03144456      -3.92377181       0.00000000       0.00000000      -0.08078345      -0.02442140       0.06035514      -0.02578735
N       -2.65229101       1.47504129      -3.37444828       0.00000000       0.00000000       0.01877372       0.01080529      -0.11227219      -0.04242369
C       -1.85582104       2.37320661      -4.20832739       0.00000000       0.00000000       0.06696812       0.05076327      -0.01349838      -0.01540540
C       -1.31133960       1.79463879      -5.51862435       0.00000000       0.00000000       0.03082386      -0.09355564      -0.00879702      -0.07475459
C       -0.08135895       0.89433769      -5.37154884       0.00000000       0.00000000       0.03109168      -0.12778028       0.04605147      -0.06539025
C       -0.39849984      -0.57611759      -5.10941513       0.00000000       0.00000000      -0.05373989      -0.08723852      -0.04147514      -0.05793002
C       -1.02672743      -1.30794435      -6.30089188       0.00000000       0.00000000       0.01298198      -0.02041234      -0.05237095      -0.05795088
C       -0.07880894      -1.44327276      -7.48999647       0.00000000       0.00000000      -0.01734418       0.01824881       0.02507641      -0.11122967
C       -2.21501756       1.11837499      -2.17593303       0.00000000       0.00000000      -0.11328010       0.12310225      -0.03402465       0.25736421
O       -1.12932321       1.50210067      -1.69231641       0.00000000       0.00000000       0.06145326      -0.13604638      -0.00422031      -0.39381654
C       -3.05591575       0.15999173      -1.32309864       0.00000000       0.00000000       0.03345623      -0.08766742      -0.10646064       0.02769772
O       -2.58808706       0.16039185       0.01376574       0.00000000       0.00000000       0.00426400       0.02703713      -0.11667996      -0.22069347
C       -3.30624907       1.04976953       0.85589827       0.00000000       0.00000000       0.01908212      -0.01160978      -0.03644910       0.04720970
C       -2.32122458       1.78209959       1.77416099       0.00000000       0.00000000       0.03222053      -0.14565681      -0.01492657       0.26046774
O       -1.10012718       1.68290960       1.54428956       0.00000000       0.00000000      -0.07040456       0.00785576       0.05885326      -0.36072554
N       -2.82217379       2.43694148       2.80218612       0.00000000       0.00000000      -0.03584967       0.02812869       0.03688717      -0.04120930
C       -1.90223508       3.01365208       3.77655903       0.00000000       0.00000000      -0.02640590      -0.00636736       0.02469172      -0.01892772
C       -1.90863955       4.53284867       3.70827192       0.00000000       0.00000000       0.00819908       0.04793821       0.04433009      -0.07095773
C       -0.98634796       5.18853999       4.73674415       0.00000000       0.00000000       0.09794392       0.02095760       0.01814427      -0.06747245
C        0.42210272       5.47525773       4.22144153       0.00000000       0.00000000       0.10029736      -0.04285753      -0.02858244      -0.06597599
C        1.27679473       4.22946931       3.99889399       0.00000000       0.00000000       0.04411773      -0.00586500      -0.01612570      -0.05667610
C        2.73436463       4.59506679       3.73796778       0.00000000       0.00000000      -0.04266111      -0.01005041      -0.00207173      -0.10712576
C       -4.24360047       2.73287257       2.93156667       0.00000000       0.00000000      -0.03525788       0.03107892       0.06091017      -0.02602645
C       -4.82940184       2.38149911       4.29349013       0.00000000       0.00000000      -0.00301386      -0.06434637       0.07114585      -0.07488673
C       -4.64399010       0.89990630       4.60162227       0.00000000       0.00000000      -0.03738468      -0.04482375       0.05526401      -0.05940459
C       -5.32806964       0.47750338       5.90239519       0.00000000       0.00000000      -0.08617931       0.03024157       0.02307188      -0.06443421
C       -6.85119625       0.64592149       5.90483950       0.00000000       0.00000000      -0.03893883      -0.01047687      -0.02158556      -0.06235195
C       -7.57941801      -0.17733361       4.84572359       0.00000000       0.00000000       0.01457787       0.01075255       0.02832788      -0.10728480
H       -4.84367697       7.57815058      -3.17354661       0.00000000       0.00000000       0.03960268       0.00461025       0.01516609       0.05333604
H       -3.42769658       6.58192063      -2.83467649       0.00000000       0.00000000      -0.05585330       0.00607373      -0.00398743       0.02708204
H       -4.75405185       6.67877330      -1.66390463       0.00000000       0.00000000       0.00287276      -0.01272206      -0.04609395       0.04308539
H       -4.96827213       5.49391484      -4.47199746       0.00000000       0.00000000      -0.02098872       0.03164468       0.03053623       0.03714071
H       -6.28539447       5.59356612      -3.30463761       0.00000000       0.00000000       0.04135078       0.02834559      -0.02315231       0.04561478
H       -5.10206952       4.03974954      -1.79053984       0.00000000       0.00000000       0.00415672       0.04664618      -0.05711001       0.02272199
H       -3.72836838       3.98161754      -2.89329940       0.00000000       0.00000000      -0.05099697       0.00242190      -0.01720939       0.01776416
H       -5.37385995       3.16577435      -4.70565740       0.00000000       0.00000000       0.00663768       0.01825846      -0.03429018       0.04973155
H       -6.60950081       3.16201309      -3.45929841       0.00000000       0.00000000      -0.04757169      -0.00302977      -0.07046620       0.05952801
H       -6.00760132       0.93747827      -3.48315538       0.00000000       0.00000000      -0.04362184      -0.05150543      -0.15210052       0.06328785
H       -5.09249989       1.59692696      -2.15481220       0.00000000       0.00000000       0.00536896       0.00650052       0.06793575       0.03370690
H       -3.96551172       1.32925678      -4.97365400       0.00000000       0.00000000       0.07322363       0.00341380       0.08886890       0.09592657
H       -3.95496430      -0.05907716      -3.89647290       0.00000000       0.00000000      -0.01984016      -0.09033889       0.01495605       0.05078631
H       -1.02094387       2.70558627      -3.59451399       0.00000000       0.00000000       0.05196883       0.08379949       0.10723038       0.07366589
H       -2.47917227       3.23503225      -4.45291685       0.00000000       0.00000000      -0.05725473       0.01584421       0.00045696       0.07860208
H       -1.03639207       2.64834478      -6.14034979       0.00000000       0.00000000      -0.04574525       0.02141761       0.06129358       0.06596688
H       -2.09119010       1.25926489      -6.05364118       0.00000000       0.00000000      -0.07049445      -0.03314103      -0.03956545       0.05949765
H        0.52591219       1.24914840      -4.54003610       0.00000000       0.00000000       0.02237734       0.02941834       0.05037419       0.03032843
H        0.52805145       0.96168955      -6.27185512       0.00000000       0.00000000      -0.03485357       0.03060185      -0.01312282       0.05865175
H       -1.04969083      -0.62504991      -4.23291213       0.00000000       0.00000000      -0.02018048      -0.02021845      -0.00890131       0.01620430
H        0.52645404      -1.09799271      -4.84449166       0.00000000       0.00000000       0.00470683       0.07057524      -0.02607443       0.02541384
H       -1.94092164      -0.80331694      -6.62107302       0.00000000       0.00000000       0.04127659       0.00129540      -0.00354003       0.03340408
H       -1.31118019      -2.31698262      -5.99310813       0.00000000       0.00000000       0.02150050       0.02679811       0.04456426       0.02425093
H        0.13235149      -0.48210998      -7.94939019       0.00000000       0.00000000      -0.01102212       0.00103267       0.01146113       0.04560246
H       -0.52806514      -2.08185426      -8.24635451       0.00000000       0.00000000       0.02093833       0.02951974       0.00694539       0.05204784
H        0.86221538      -1.89292963      -7.17862898       0.00000000       0.00000000      -0.02205840       0.00930752      -0.01572576       0.03843424
H       -2.85105955      -0.84923334      -1.67995307       0.00000000       0.00000000       0.02085755      -0.03187071      -0.13602075       0.13192174
H       -4.12981915       0.33471172      -1.36471058       0.00000000       0.00000000       0.01798461       0.02301722       0.05128653       0.08311567
H       -3.98611010       0.44422718       1.46800508       0.00000000       0.00000000      -0.08377075       0.00597224      -0.01259775       0.09060221
H       -3.86246423       1.77011879       0.24813282       0.00000000       0.00000000      -0.02703405       0.08149524       0.07405608       0.07934453
H       -0.91015590       2.62008358       3.56130343       0.00000000       0.00000000      -0.01753205      -0.01407378      -0.02677522       0.08909351
H       -2.19514973       2.68052001       4.77105837       0.00000000       0.00000000      -0.06956409      -0.01369077       0.07106012       0.07501675
H       -2.92715590       4.86897612       3.89136429       0.00000000       0.00000000      -0.04557827       0.11051670       0.03075014       0.04709643
H       -1.61606759       4.83329982       2.70423117       0.00000000       0.00000000       0.00604113       0.03940746       0.01820307       0.05734609
H       -0.92634402       4.56089838       5.62573308       0.00000000       0.00000000       0.00758098      -0.00819513       0.05987042       0.04306421
H       -1.42510994       6.13724563       5.04108734       0.00000000       0.00000000      -0.03662362       0.05857487       0.00428258       0.05506139
H        0.93211832       6.10525761       4.95207368       0.00000000       0.00000000      -0.02692958       0.00604106       0.00921162       0.05210811
H        0.36195601       6.04337672       3.29045011       0.00000000       0.00000000       0.00699796       0.03446521       0.02832326       0.03388495
H        0.90550196       3.64726719       3.14812555       0.00000000       0.00000000      -0.00948936       0.06413894       0.01082920       0.02078762
H        1.22494092       3.60094639       4.89027619       0.00000000       0.00000000       0.00977345       0.03520964      -0.01668460       0.03481980
H        2.82339045       5.21787249       2.84998479       0.00000000       0.00000000       0.01419638      -0.00946900       0.01162582       0.03230514
H        3.32521179       3.69384611       3.59227098       0.00000000       0.00000000       0.00379859       0.04084866      -0.01483369       0.03053784
H        3.14848873       5.14355205       4.58013416       0.00000000       0.00000000      -0.00721010      -0.01563083      -0.01872698       0.04878803
H       -4.79384899       2.16631434       2.18600280       0.00000000       0.00000000      -0.04894871       0.09178738      -0.01101637       0.05316913
H       -4.40232000       3.79224906       2.72481507       0.00000000       0.00000000       0.03969441       0.08341496       0.00940648       0.08286234
H       -5.89294683       2.61351791       4.25111914       0.00000000       0.00000000       0.01126774       0.02865757       0.00708334       0.07367296
H       -4.39440843       2.98414256       5.08828269       0.00000000       0.00000000       0.01884580       0.03793265       0.00553425       0.06330503
H       -3.57625005       0.68043414       4.68073018       0.00000000       0.00000000      -0.00317554       0.02873864       0.03479129       0.02070188
H       -5.03713277       0.31011573       3.77138042       0.00000000       0.00000000      -0.03146292       0.03140979      -0.00899495       0.02682199
H       -4.91856398       1.08327168       6.71187370       0.00000000       0.00000000       0.00512629      -0.04332183       0.06601120       0.04249363
H       -5.08629206      -0.56825534       6.11035349       0.00000000       0.00000000      -0.00523779       0.04683070      -0.02567815       0.03811650
H       -7.10723989       1.69905061       5.77804698       0.00000000       0.00000000       0.00083789      -0.01982241       0.02808086       0.03853361
H       -7.22044906       0.34565583       6.88659609       0.00000000       0.00000000       0.03137082       0.00161079      -0.00770826       0.05039396
H       -7.31262663       0.13312027       3.83642308       0.00000000       0.00000000      -0.01162143       0.00424914       0.03300101       0.02249955
H       -8.65272295      -0.05064892       4.95906091       0.00000000       0.00000000       0.01667273       0.01174619      -0.00282125       0.05037254
H       -7.35689638      -1.23601865       4.95687817       0.00000000       0.00000000      -0.00607050       0.01343137       0.01312607       0.03797180
C        6.15732409       2.85409870       2.73918359       0.00000000       0.00000000       0.02764040      -0.07192264      -0.02563661      -0.10621178
C        6.88511368       1.58071624       2.31961965       0.00000000       0.00000000      -0.02549993       0.00796743      -0.01079365      -0.05996192
C        6.08762562       0.76499389       1.29733436       0.00000000       0.00000000       0.01782537       0.05065028       0.03969999      -0.05740506
C        6.83445152      -0.51913172       0.92979442       0.00000000       0.00000000       0.00026770       0.07350968       0.04174275      -0.07131027
C        6.15942218      -1.36071579      -0.15418593       0.00000000       0.00000000       0.06599367       0.07592597       0.00658954      -0.07247909
C        5.05400086      -2.31936827       0.31753392       0.00000000       0.00000000       0.04571011       0.06161451      -0.06676389      -0.02568774
N        3.93136028      -1.76248642       1.06986453       0.00000000       0.00000000      -0.00535289      -0.05397971       0.00515526      -0.05128604
C        3.99013868      -1.90593944       2.53259471       0.00000000       0.00000000      -0.01648438       0.01175440      -0.00596423      -0.01842452
C        4.12213379      -3.31976930       3.11962626       0.00000000       0.00000000       0.00941794      -0.04244072      -0.03841680      -0.07576056
C        2.82059830      -4.10116502       3.31478276       0.00000000       0.00000000      -0.01325622      -0.04506623      -0.01346481      -0.07133280
C        2.45859321      -5.05309763       2.16746164       0.00000000       0.00000000       0.04151610      -0.09304430      -0.00336588      -0.06134107
C        3.04154272      -6.45693749       2.35469325       0.00000000       0.00000000       0.01879193      -0.04324651       0.04242423      -0.06077048
C        2.37022343      -7.22186642       3.49363719       0.00000000       0.00000000       0.02909021       0.01297062      -0.01291209      -0.11136840
C        2.95790347      -1.04429473       0.51701798       0.00000000       0.00000000      -0.00146219       0.03488385      -0.00339731       0.25214154
O        1.97241045      -0.60134606       1.14306036       0.00000000       0.00000000      -0.00495241       0.08060882      -0.05889735      -0.38108852
C        3.03390755      -0.73588333      -0.99326004       0.00000000       0.00000000       0.01628548      -0.07623984       0.03940290       0.04362540
O        2.08248827       0.26219935      -1.34185474       0.00000000       0.00000000       0.01983069      -0.01766579       0.02445290      -0.22818951
C        2.62981924       1.53016335      -1.72352564       0.00000000       0.00000000      -0.06120195       0.00081124       0.03161115       0.04381153
C        1.75258378       2.61827981      -1.07485167       0.00000000       0.00000000      -0.08431653      -0.13431512       0.05830138       0.25927767
O        1.03484138       2.27224370      -0.11760808       0.00000000       0.00000000      -0.03924122      -0.01413056      -0.16345339      -0.35418789
N        1.72287995       3.82625411      -1.61746004       0.00000000       0.00000000       0.01667392       0.04608188      -0.06323855      -0.05041615
C        0.60528352       4.71449812      -1.29712434       0.00000000       0.00000000       0.01711077      -0.04679826      -0.02556414      -0.01247986
C        0.94944892       5.82149122      -0.30465740       0.00000000       0.00000000       0.01738166      -0.00623048      -0.00554185      -0.06830186
C       -0.05740161       6.97665053      -0.31531499       0.00000000       0.00000000      -0.03472464      -0.00269642       0.00589939      -0.06720953
C       -1.28837249       6.79327546       0.56986470       0.00000000       0.00000000      -0.04559301      -0.04585115       0.00120623      -0.06861963
C       -2.25306944       5.68714104       0.13866879       0.00000000       0.00000000      -0.02337782      -0.00620220       0.00349644      -0.05402148
C       -3.61821802       5.88938425       0.79181486       0.00000000       0.00000000       0.03685394      -0.00089020      -0.01587620      -0.10906293
C        2.81071629       4.36648722      -2.42855000       0.00000000       0.00000000       0.04589451       0.02076656      -0.06229170      -0.02247829
C        2.46544406       4.79885063      -3.85640784       0.00000000       0.00000000      -0.02161036      -0.05175490      -0.06400644      -0.07455651
C        1.92651800       3.65848366      -4.71275891       0.00000000       0.00000000      -0.02584575      -0.02090176      -0.05240954      -0.06266988
C        1.63011958       4.09389197      -6.15109097       0.00000000       0.00000000       0.05854871       0.02536605      -0.03147265      -0.06429213
C        2.88046388       4.28034853      -7.01542875       0.00000000       0.00000000       0.03345198      -0.03169031       0.00679869      -0.06112739
C        3.63625250       2.98011192      -7.28189322       0.00000000       0.00000000      -0.01518067       0.03078169       0.00444047      -0.10617012
H        6.75948966       3.40681544       3.45584724       0.00000000       0.00000000      -0.04910341      -0.00644302      -0.04064163       0.05496585
H        5.20348913       2.61109310       3.20642163       0.00000000       0.00000000       0.04957114       0.00813342      -0.01286315       0.02967163
H        5.96732524       3.49628513       1.88006175       0.00000000       0.00000000       0.02631722      -0.02522725       0.04211218       0.03328606
H        7.07282569       0.96728543       3.20476184       0.00000000       0.00000000      -0.01181815       0.02247376      -0.04498716       0.03854226
H        7.85414222       1.83983066       1.88853906       0.00000000       0.00000000      -0.03577291       0.00216684       0.02483546       0.04653276
H        5.95298290       1.36843135       0.39322968       0.00000000       0.00000000       0.00384560      -0.00484054       0.03041838       0.01906652
H        5.09391537       0.55890677       1.70592236       0.00000000       0.00000000       0.02609177      -0.02095696      -0.03550327       0.01639061
H        7.01659161      -1.12082056       1.82108385       0.00000000       0.00000000      -0.03141264      -0.01262694      -0.00396164       0.04781746
H        7.81010019      -0.21580634       0.54679497       0.00000000       0.00000000       0.03340626      -0.04220801       0.02574023       0.06215668
H        6.91699028      -1.99779798      -0.61140400       0.00000000       0.00000000       0.01145819      -0.08248202       0.01567090       0.07206872
H        5.82560274      -0.68574280      -0.94240187       0.00000000       0.00000000      -0.02832400      -0.01066311      -0.02308088       0.03320992
H        5.54207001      -3.05561122       0.95748616       0.00000000       0.00000000      -0.09658388       0.06219103       0.03455666       0.09427877
H        4.66134625      -2.85712599      -0.54899515       0.00000000       0.00000000      -0.02292455      -0.00037795      -0.06249499       0.04913012
H        3.09782124      -1.41937799       2.92859250       0.00000000       0.00000000      -0.03163404       0.03091927       0.03109273       0.07933425
H        4.85838549      -1.33285735       2.86378147       0.00000000       0.00000000       0.03980023       0.00818247       0.00269268       0.08462249
H        4.57549308      -3.19360966       4.10233918       0.00000000       0.00000000       0.04986311       0.08212487       0.00903742       0.06949056
H        4.80931594      -3.92680233       2.53729241       0.00000000       0.00000000       0.10062049      -0.05116156      -0.03797662       0.06204652
H        2.02425306      -3.38157628       3.50545440       0.00000000       0.00000000      -0.00079306       0.03439384      -0.01363059       0.02387674
H        2.90573474      -4.69973797       4.22042739       0.00000000       0.00000000       0.07921200      -0.03027545       0.01298891       0.06519120
H        1.37700474      -5.18881785       2.10464892       0.00000000       0.00000000       0.01140082       0.02098730       0.06640422       0.01782124
H        2.79305407      -4.63224541       1.21428866       0.00000000       0.00000000       0.03956048      -0.02271369       0.00058055       0.01434599
H        4.11597106      -6.39662833       2.52932149       0.00000000       0.00000000       0.00495912      -0.03074292       0.01224026       0.04338689
H        2.87805350      -7.02389829       1.43627849       0.00000000       0.00000000       0.06262092       0.03384548       0.00691993       0.04170404
H        2.59629932      -6.79553281       4.46767862       0.00000000       0.00000000       0.00931114       0.02048726      -0.02238015       0.04068671
H        2.71824918      -8.25067241       3.50046659       0.00000000       0.00000000      -0.00188606       0.01479156      -0.00677916       0.05777024
H        1.28813562      -7.22849967       3.36546044       0.00000000       0.00000000       0.04245033      -0.02373104      -0.00866535       0.03204516
H        2.78827774      -1.62649321      -1.58263574       0.00000000       0.00000000      -0.00252706      -0.13936759       0.02106273       0.08063521
H        4.04491722      -0.42745723      -1.25837652       0.00000000       0.00000000      -0.01841222       0.05262465      -0.03824665       0.08982230
H        2.55680827       1.62454667      -2.81370172       0.00000000       0.00000000       0.06069203      -0.06607366      -0.03302014       0.08994824
H        3.67627134       1.62054986      -1.41377685       0.00000000       0.00000000      -0.04951223       0.01219679       0.07951470       0.08097758
H       -0.19880739       4.08455029      -0.91476512       0.00000000       0.00000000       0.00325128      -0.04702750       0.02247387       0.08012000
H        0.28051810       5.15963131      -2.23983035       0.00000000       0.00000000       0.02912690       0.03554423      -0.02640907       0.07260918
H        1.92018415       6.22330114      -0.59051584       0.00000000       0.00000000       0.07272493       0.08869278       0.07943964       0.04928272
H        1.03524355       5.40438651       0.69816511       0.00000000       0.00000000       0.01586756      -0.00769583       0.02924161       0.05609102
H       -0.37382781       7.17496456      -1.34003455       0.00000000       0.00000000      -0.01764416      -0.00749872      -0.05109812       0.04116732
H        0.45348712       7.87262652       0.03469043       0.00000000       0.00000000       0.05537462       0.03410727       0.03381323       0.05779421
H       -1.84020440       7.73502210       0.56890073       0.00000000       0.00000000       0.03210439       0.01229213      -0.03269335       0.05432299
H       -0.96695403       6.61609209       1.59727422       0.00000000       0.00000000       0.00619633       0.02538718       0.00481114       0.03937143
H       -1.85984808       4.70022175       0.40981794       0.00000000       0.00000000       0.00439417       0.03670063      -0.01574739       0.01010286
H       -2.37384486       5.71267866      -0.94587207       0.00000000       0.00000000       0.01296467      -0.00659189       0.02270410       0.03430345
H       -3.52454030       5.92588077       1.87352385       0.00000000       0.00000000      -0.02422289      -0.00903041      -0.01009149       0.03858718
H       -4.30600128       5.09035112       0.51823529       0.00000000       0.00000000       0.00217750       0.02014112       0.01223418       0.01989631
H       -4.04512414       6.83662258       0.47381201       0.00000000       0.00000000      -0.01729642      -0.01549621      -0.00846172       0.05328579
H        3.60262998       3.62242614      -2.47372570       0.00000000       0.00000000       0.06305178      -0.00125417       0.00045908       0.05393468
H        3.21611239       5.23813354      -1.90842820       0.00000000       0.00000000      -0.03602039       0.01953020       0.08159919       0.08385948
H        3.38950565       5.17195292      -4.29897005       0.00000000       0.00000000      -0.00872601       0.03258814       0.03670498       0.07336171
H        1.75092180       5.62318644      -3.86787107       0.00000000       0.00000000       0.01807343      -0.02512126       0.10253889       0.05892331
H        1.01017216       3.28916793      -4.25000835       0.00000000       0.00000000      -0.04331541       0.03288407      -0.00752792       0.02008598
H        2.64429428       2.83683244      -4.73978080       0.00000000       0.00000000       0.02701971       0.02211719       0.02381282       0.03272847
H        1.07126632       5.03089427      -6.12669443       0.00000000       0.00000000      -0.00516974       0.01859513      -0.01398902       0.03826279
H        0.99699203       3.34707073      -6.63448449       0.00000000       0.00000000       0.04596197      -0.00533907       0.04500746       0.03772292
H        3.55329263       5.00171778      -6.54896596       0.00000000       0.00000000      -0.01183594      -0.00417240      -0.03029511       0.03907217
H        2.56960911       4.69766142      -7.97487395       0.00000000       0.00000000      -0.00567703       0.00527997       0.04667237       0.04967016
H        4.09964691       2.58548437      -6.37892604       0.00000000       0.00000000      -0.02658338       0.01889931      -0.01774383       0.02447698
H        4.42677965       3.15834366      -8.00553539       0.00000000       0.00000000      -0.00948101      -0.00296157       0.01175621       0.05182762
H        2.97003734       2.22209788      -7.69065433       0.00000000       0.00000000       0.00530565       0.02990404       0.00952722       0.03465571
C        1.13714457       0.78540199       5.09430726       0.00000000       0.00000000      -0.01141785      -0.05703329      -0.02041324      -0.10824639
C        0.63955069      -0.65056052       4.97630202       0.00000000       0.00000000       0.00882724       0.00955930      -0.00934957      -0.04991560
C        0.74386557      -1.39933943       6.30504361       0.00000000       0.00000000      -0.01979119       0.04385651      -0.05374440      -0.06942669
C        0.71857874      -2.92482068       6.19432939       0.00000000       0.00000000       0.02314518       0.06316756      -0.00705554      -0.07270694
C       -0.62214684      -3.54894825       5.78636868       0.00000000       0.00000000       0.04500226       0.06612421       0.04722902      -0.07332213
C       -0.87633338      -3.76946566       4.28128134       0.00000000       0.00000000       0.04791698      -0.05973195       0.09218337      -0.01870528
N       -1.33084399      -2.59258371       3.56081973       0.00000000       0.00000000       0.00856227      -0.00379471      -0.07905383      -0.05429795
C       -2.64799479      -2.09067906       3.94665760       0.00000000       0.00000000       0.04171410       0.01041962      -0.02698695      -0.01358486
C       -3.67840014      -2.75980280       3.02896564       0.00000000       0.00000000      -0.00305132       0.00277169       0.00527012      -0.06695581
C       -5.10399880      -2.75164403       3.57565930       0.00000000       0.00000000      -0.01617969      -0.02147202       0.03104820      -0.06830562
C       -5.29609593      -3.67979066       4.78100863       0.00000000       0.00000000      -0.02129435      -0.06670873       0.00845345      -0.06440552
C       -5.79471131      -5.08012718       4.41612104       0.00000000       0.00000000       0.02071341      -0.03404526      -0.02406396      -0.06050678
C       -4.80955695      -5.88863624       3.57646196       0.00000000       0.00000000      -0.02639557       0.00524647       0.02135540      -0.10166446
C       -0.83186319      -2.10370179       2.42890995       0.00000000       0.00000000      -0.09452992      -0.13602155       0.01509047       0.26068023
O       -1.18094260      -1.00410303       1.96505439       0.00000000       0.00000000       0.04425048       0.15494706      -0.09473306      -0.37728879
C        0.09469625      -2.95639890       1.56129076       0.00000000       0.00000000      -0.01693027       0.02748777       0.02823977       0.04216567
O        0.10438039      -2.35883229       0.26884460       0.00000000       0.00000000       0.07879460       0.00295167      -0.03001279      -0.23612968
C        0.19678426      -3.26574654      -0.82012704       0.00000000       0.00000000      -0.08608110      -0.04386538      -0.08846200       0.05059029
C       -0.73059631      -2.66798635      -1.89354655       0.00000000       0.00000000      -0.07462724      -0.00590562      -0.05332860       0.25829203
O       -0.89080475      -1.43585850      -1.85518030       0.00000000       0.00000000       0.03306896       0.11652211       0.11470975      -0.40344174
N       -1.37208453      -3.49256834      -2.71566649       0.00000000       0.00000000      -0.08327433      -0.07079965      -0.00719016      -0.05458462
C       -0.84002870      -4.82404296      -2.99582687       0.00000000       0.00000000      -0.00728950      -0.12028387       0.03157517      -0.02488720
C       -1.55674587      -5.97889785      -2.29694780       0.00000000       0.00000000      -0.00827246      -0.09045515       0.03610201      -0.06701913
C       -0.99251562      -7.33783189      -2.73916673       0.00000000       0.00000000       0.08424879       0.02124166      -0.02298793      -0.07037290
C        0.53632312      -7.42857752      -2.76082763       0.00000000       0.00000000       0.05461448      -0.00200040       0.05132058      -0.07175205
C        1.22270089      -7.12681167      -1.42714957       0.00000000       0.00000000       0.00471069       0.00352544       0.00950562      -0.05404023
C        2.73323252      -7.01139968      -1.61363758       0.00000000       0.00000000      -0.05638577      -0.00003969       0.00761167      -0.10995520
C       -2.52523726      -3.09285412      -3.52817976       0.00000000       0.00000000      -0.04697491      -0.01605342      -0.00506907      -0.02052917
C       -3.89488921      -2.93545059      -2.82591427       0.00000000       0.00000000      -0.04568868      -0.00093088       0.00608236      -0.07493989
C       -4.17587170      -3.77118538      -1.57455576       0.00000000       0.00000000      -0.06762579       0.06373340       0.02446419      -0.06128603
C       -5.13691156      -3.05750559      -0.60907350       0.00000000       0.00000000      -0.06539898       0.03930862      -0.00590161      -0.06089701
C       -6.46370036      -2.57278531      -1.20582322       0.00000000       0.00000000      -0.01122137      -0.03066082      -0.04482057      -0.05729000
C       -7.36898788      -3.70505014      -1.67786506       0.00000000       0.00000000       0.04275418      -0.00216318       0.00000371      -0.11229379
H        1.07499878       1.27638636       4.12408914       0.00000000       0.00000000       0.00593105      -0.00422496       0.00293380       0.03599232
H        0.53668749       1.33566898       5.81565451       0.00000000       0.00000000       0.01623296      -0.00923136      -0.03248425       0.04241056
H        2.17165647       0.80667461       5.43000235       0.00000000       0.00000000      -0.01378920       0.01247989      -0.01693358       0.04488520
H       -0.39482182      -0.63112839       4.63259692       0.00000000       0.00000000       0.03288032       0.02271907       0.02725116       0.02298896
H        1.23052085      -1.16530008       4.21070797       0.00000000       0.00000000      -0.00574455       0.01040588       0.04051323       0.00842208
H        1.68453866      -1.11507605       6.78173682       0.00000000       0.00000000      -0.00687188      -0.05230563      -0.00934293       0.05087504
H       -0.06007117      -1.07368270       6.96676819       0.00000000       0.00000000       0.00386560       0.01536316       0.01168904       0.04377334
H        1.50888914      -3.25252385       5.52277925       0.00000000       0.00000000       0.00260687      -0.01337039      -0.01694744       0.03892534
H        0.97220404      -3.30894301       7.18290943       0.00000000       0.00000000      -0.05076698      -0.04397010       0.01744385       0.05943430
H       -0.67638530      -4.53612912       6.24848187       0.00000000       0.00000000      -0.01134579      -0.01610164      -0.07371697       0.06642037
H       -1.41651493      -2.95256823       6.22900047       0.00000000       0.00000000      -0.07629763      -0.00496451       0.01776275       0.06077848
H        0.03729970      -4.15498765       3.83844927       0.00000000       0.00000000       0.01407182      -0.00713370      -0.08576367       0.05815059
H       -1.65030030      -4.53884460       4.19283477       0.00000000       0.00000000      -0.02784086      -0.01384682      -0.02560599       0.06841922
H       -2.83108997      -2.33343142       4.99082213       0.00000000       0.00000000      -0.02783972       0.03646924      -0.06607421       0.08286621
H       -2.65248422      -1.01008608       3.81761720       0.00000000       0.00000000      -0.05985477       0.03444520       0.02838345       0.06916593
H       -3.63897102      -2.26563105       2.05572661       0.00000000       0.00000000      -0.03553179       0.02251795      -0.03329935       0.02717023
H       -3.37450520      -3.79511183       2.88354204       0.00000000       0.00000000      -0.00115442      -0.02495595      -0.03956721       0.04955775
H       -5.37705257      -1.73544775       3.84981617       0.00000000       0.00000000       0.04224839       0.01736740       0.02635016       0.04462773
H       -5.78624710      -3.06296797       2.78358187       0.00000000       0.00000000      -0.00203443      -0.00286759      -0.02857453       0.04907221
H       -4.36124316      -3.77112923       5.33642083       0.00000000       0.00000000      -0.01064757      -0.02151014       0.02736172       0.03192175
H       -6.02830595      -3.23912052       5.45748635       0.00000000       0.00000000      -0.02254355       0.02271278       0.01306168       0.04358079
H       -5.99173604      -5.62362749       5.34162327       0.00000000       0.00000000       0.01094816       0.01533854      -0.00741777       0.04798113
H       -6.74300679      -4.99675242       3.88105089       0.00000000       0.00000000       0.02437548      -0.00668221       0.00455340       0.04128732
H       -3.83146285      -5.91769714       4.05718091       0.00000000       0.00000000      -0.02653720      -0.00959773      -0.01577226       0.02364974
H       -5.15760472      -6.91293467       3.47443931       0.00000000       0.00000000      -0.02954655       0.01283611      -0.00026813       0.04840096
H       -4.70905912      -5.46953927       2.57609115       0.00000000       0.00000000       0.00511886      -0.04370778       0.02112599       0.02320549
H        1.11022698      -2.98105557       1.95292674       0.00000000       0.00000000       0.05838673       0.06282379      -0.00824971       0.09999140
H       -0.30734470      -3.97268589       1.50531487       0.00000000       0.00000000      -0.06018489      -0.03045655       0.02528019       0.06849128
H        1.23772529      -3.35504452      -1.16164422       0.00000000       0.00000000      -0.00771539       0.04252417      -0.05996775       0.06470003
H       -0.15928729      -4.25612871      -0.53435260       0.00000000       0.00000000      -0.04567869      -0.08443629       0.07820021       0.07787893
H       -0.90497957      -4.99756231      -4.07256899       0.00000000       0.00000000      -0.00623161       0.09554578      -0.01963213       0.08380107
H        0.21451366      -4.83642783      -2.73377359       0.00000000       0.00000000       0.05587288       0.04404896       0.00161424       0.06243544
H       -1.47176384      -5.88314357      -1.21448583       0.00000000       0.00000000       0.00162094       0.01662777       0.05168910       0.03042048
H       -2.61620574      -5.95620838      -2.54547269       0.00000000       0.00000000      -0.02780717       0.01574332       0.00864143       0.06094147
H       -1.39563980      -8.11165520      -2.08152731       0.00000000       0.00000000       0.02296463       0.08049054      -0.05671226       0.05955736
H       -1.34446996      -7.54215868      -3.75079584       0.00000000       0.00000000      -0.03278083      -0.06123314       0.00761828       0.05312649
H        0.81571795      -8.43918656      -3.05880074       0.00000000       0.00000000      -0.05105629      -0.01298321      -0.01960893       0.06093618
H        0.93287673      -6.75817764      -3.52801377       0.00000000       0.00000000      -0.01628476      -0.03423824       0.01587688       0.03245469
H        0.84744111      -6.18918598      -1.00503349       0.00000000       0.00000000       0.02005408      -0.02957921       0.00032697       0.00125872
H        0.99410441      -7.91682042      -0.70999250       0.00000000       0.00000000       0.02273247      -0.01080707      -0.03362111       0.04484847
H        2.96375209      -6.22122038      -2.32764465       0.00000000       0.00000000       0.03637912      -0.02869069       0.00022430       0.02436245
H        3.22888436      -6.78181995      -0.67315246       0.00000000       0.00000000       0.00166887      -0.00878943      -0.02354124       0.03455938
H        3.14344417      -7.94243283      -1.99344618       0.00000000       0.00000000      -0.02216258       0.01306883      -0.00537702       0.05759769
H       -2.31192109      -2.14552900      -4.02478467       0.00000000       0.00000000       0.09986567      -0.00774566       0.06014709       0.06885442
H       -2.62545682      -3.85090903      -4.30278654       0.00000000       0.00000000       0.01844486      -0.05244219       0.02605364       0.08105333
H       -4.05498863      -1.89203945      -2.56459787       0.00000000       0.00000000       0.08269004       0.00363222      -0.00382511       0.03569803
H       -4.64759798      -3.16316041      -3.58024612       0.00000000       0.00000000      -0.01042830      -0.05474626      -0.03678405       0.06845006
H       -4.60238356      -4.73153896      -1.86195225       0.00000000       0.00000000       0.07875781      -0.01672347       0.07778676       0.05697769
H       -3.24562264      -3.94337090      -1.02630819       0.00000000       0.00000000      -0.03398573      -0.07558899      -0.04445770       0.02218681
H       -5.36718010      -3.73857092       0.21209116       0.00000000       0.00000000       0.04820469      -0.02063057      -0.00936194       0.04653678
H       -4.61828398      -2.19195348      -0.18342767       0.00000000       0.00000000       0.03531911      -0.00453014       0.01401854       0.01067157
H       -6.99830838      -2.00252644      -0.43999514       0.00000000       0.00000000       0.08210474      -0.04958898       0.00046908       0.03651530
H       -6.27086432      -1.88997486      -2.03664698       0.00000000       0.00000000      -0.02993992      -0.01147061      -0.01370153       0.02201434
H       -7.55230331      -4.41035843      -0.87138566       0.00000000       0.00000000       0.01341014       0.00114220      -0.00181396       0.04771773
H       -8.32797934      -3.30916465      -2.00202520       0.00000000       0.00000000       0.03732907       0.00333840       0.00175483       0.05164907
H       -6.92666923      -4.24074831      -2.51294987       0.00000000       0.00000000       0.00504794      -0.01987262      -0.00504247       0.03986950
