346
Properties=species:S:1:pos:R:3:initial_charges:R:1:initial_magmoms:R:1:forces:R:3:charge:R:1 energy=-12678.569214378102 free_energy=-12678.569214378102 dipole="-2.9053679130211947 1.584056245358184 -1.2435779662046285" pbc="F F F"
Eu       0.15985806      -0.07709250       0.08317643       3.00000000       0.00000000      -0.03995114      -0.01641343       0.05111412       0.86853794
C        7.11398988      -3.56631732       0.83099106       0.00000000       0.00000000      -0.01164430      -0.00562545       0.01971781      -0.10753605
C        6.53317745      -4.77345776       1.55863242       0.00000000       0.00000000      -0.00466116      -0.06807339      -0.02588965      -0.05752668
C        5.75831700      -5.74529693       0.66233066       0.00000000       0.00000000      -0.08433440      -0.01600423      -0.07698608      -0.06920043
C        4.33745907      -5.27630618       0.32702075       0.00000000       0.00000000      -0.02532929      -0.00555335      -0.03089884      -0.06245858
C        4.23774685      -4.41847098      -0.93958081       0.00000000       0.00000000      -0.00590709       0.00519270       0.09032496      -0.07624310
C        4.24540017      -5.22029615      -2.24569953       0.00000000       0.00000000       0.02523832       0.08521323       0.02400150       0.06293738
O        4.36609347      -4.34670049      -3.35979538       0.00000000       0.00000000      -0.07411524       0.07702727      -0.03964769      -0.24596187
C        3.31447336      -3.61913677      -3.77892749       0.00000000       0.00000000      -0.03681957       0.09141229       0.01013549       0.15190386
C        1.98871407      -3.80866268      -3.38494115       0.00000000       0.00000000      -0.00232603       0.04242672       0.00916281      -0.08459711
C        0.98279123      -2.94703713      -3.81947807       0.00000000       0.00000000       0.02076473      -0.07966351      -0.08543187      -0.00428110
C       -0.42860526      -3.26398555      -3.37586479       0.00000000       0.00000000       0.06064711      -0.07992838      -0.04912936      -0.01411074
N       -1.35122690      -2.20618349      -2.98225615       0.00000000       0.00000000       0.06356259       0.00313982       0.15289800      -0.13413519
C       -1.46036756      -1.82127370      -1.72283287       0.00000000       0.00000000      -0.01660735       0.06175083      -0.05732645       0.29051591
O       -0.55090308      -2.04313715      -0.90974713       0.00000000       0.00000000       0.10643662      -0.02346560       0.10372473      -0.41778932
C       -2.72492375      -1.11356246      -1.21158957       0.00000000       0.00000000      -0.05447649      -0.01875759       0.00198185       0.04367219
O       -2.32152818      -0.16893795      -0.21772250       0.00000000       0.00000000      -0.00650455      -0.09411380      -0.01172388      -0.24097960
C       -3.25168592       0.15533663       0.82575496       0.00000000       0.00000000       0.05539571       0.03818746       0.03151133       0.04801583
C       -2.42630952       0.98821266       1.82850317       0.00000000       0.00000000       0.01627549       0.08720522      -0.00045337       0.26057622
O       -1.21908512       1.07853213       1.56633727       0.00000000       0.00000000      -0.15152137       0.05050072      -0.04557261      -0.37658155
N       -2.91283225       1.53196867       2.94747087       0.00000000       0.00000000      -0.03031097      -0.00029491       0.04922718      -0.06062160
C       -4.31043176       1.84933495       3.20241488       0.00000000       0.00000000       0.03093601       0.00408175      -0.05479558      -0.02057240
C       -5.10118995       0.87384304       4.08699447       0.00000000       0.00000000       0.05233847       0.03850238      -0.10665718      -0.07518228
C       -4.63480117       0.82124734       5.54272874       0.00000000       0.00000000       0.00214076       0.01826294      -0.03817513      -0.05767745
C       -5.69184414       0.23436356       6.46859923       0.00000000       0.00000000      -0.02825803       0.02075698       0.00557670      -0.11501467
C       -1.92810666       1.85676051       4.00365477       0.00000000       0.00000000      -0.06790598       0.00978182      -0.07673644      -0.02312827
C       -1.86892830       3.29106087       4.53777595       0.00000000       0.00000000      -0.01494390      -0.02050811      -0.04971476      -0.07270463
C       -1.08900882       4.26653264       3.65286785       0.00000000       0.00000000       0.00771713      -0.02248528      -0.01961032      -0.05942196
C        0.41224324       4.15404351       3.89377340       0.00000000       0.00000000      -0.02909549      -0.01374707      -0.03432841      -0.11342352
C        1.29730720      -1.96316594      -4.74974726       0.00000000       0.00000000      -0.05383681       0.02017734      -0.07764987      -0.08513590
C        2.60085727      -1.80407579      -5.23304865       0.00000000       0.00000000      -0.03804895      -0.02876756       0.13099638      -0.00109380
C        2.90310217      -0.88329913      -6.40461569       0.00000000       0.00000000      -0.00268380      -0.07938348       0.10221489      -0.00984146
N        3.13670022       0.52163219      -6.09301891       0.00000000       0.00000000       0.05213597       0.05264236       0.07953109      -0.19551062
C        4.36915305       1.09439685      -6.24260292       0.00000000       0.00000000       0.07387740       0.08230431      -0.01198272       0.27324056
O        5.36509268       0.46192210      -6.46455669       0.00000000       0.00000000       0.00585223      -0.16112151      -0.02669921      -0.36603406
C        4.42554994       2.62072552      -6.00700072       0.00000000       0.00000000       0.02229817       0.09781697       0.02012992       0.05042918
O        4.82331018       2.76251186      -4.65397240       0.00000000       0.00000000      -0.03661372      -0.00046051      -0.01500620      -0.31280666
C        4.86799462       4.07391434      -4.11485550       0.00000000       0.00000000       0.03461290      -0.03715432      -0.08570515       0.05451961
C        5.31635143       3.82831566      -2.65896458       0.00000000       0.00000000       0.07690608       0.02328867      -0.05693000       0.27628393
O        4.46986982       3.55688800      -1.81690757       0.00000000       0.00000000      -0.02675568      -0.14671255       0.09247774      -0.45930047
N        6.64815347       3.80775359      -2.42635732       0.00000000       0.00000000      -0.06093447       0.05711606       0.07146021      -0.09189581
C        7.42421910       4.96759262      -2.86875192       0.00000000       0.00000000      -0.05602639      -0.08082154       0.02881292      -0.01238375
C        6.90985348       6.19824535      -2.10029128       0.00000000       0.00000000       0.01253282      -0.10255827      -0.03095499      -0.06317608
C        7.47128931       7.53253715      -2.56831097       0.00000000       0.00000000       0.02738773      -0.06229172      -0.02785029      -0.05894180
C        6.79007849       8.67359729      -1.82545029       0.00000000       0.00000000       0.01595230       0.02204559       0.01280283      -0.10807603
C        7.13664041       3.17858286      -1.19549508       0.00000000       0.00000000      -0.00860993       0.02817102      -0.05865947       0.00013221
C        6.69087165       1.72613761      -0.98962775       0.00000000       0.00000000      -0.01147944       0.04542527      -0.02037860      -0.06476109
C        7.29970353       0.69696090      -1.94525870       0.00000000       0.00000000       0.01708456       0.01055144      -0.01220110      -0.05890122
C        6.64909111       0.68304354      -3.32130969       0.00000000       0.00000000       0.02534585       0.03107938      -0.00933538      -0.10649092
C        3.59959348      -2.59517708      -4.69394677       0.00000000       0.00000000       0.09045453      -0.00091779      -0.01551599      -0.06813912
H        7.78801191      -3.02662330       1.49143708       0.00000000       0.00000000       0.00501418       0.00946823       0.00843968       0.04094177
H        6.33362255      -2.87800750       0.51695823       0.00000000       0.00000000       0.01171641       0.00479502      -0.02630973       0.02480812
H        7.68180129      -3.88452725      -0.04036827       0.00000000       0.00000000      -0.02351018       0.01451547       0.01403057       0.04514968
H        5.88413640      -4.43637199       2.37202833       0.00000000       0.00000000       0.02933796      -0.00676616       0.01080133       0.02407928
H        7.35579844      -5.32408983       2.01088503       0.00000000       0.00000000       0.07428839      -0.03090253       0.02348370       0.04806414
H        5.69121762      -6.70555971       1.17602228       0.00000000       0.00000000       0.00231801       0.03104323       0.01778090       0.04497516
H        6.31140058      -5.91057541      -0.26111156       0.00000000       0.00000000       0.06349444      -0.02835351       0.01428542       0.05081725
H        3.97510359      -4.69826660       1.18561675       0.00000000       0.00000000      -0.02036678      -0.03259956      -0.11058727       0.02393381
H        3.67086674      -6.13577668       0.21266579       0.00000000       0.00000000       0.07238174      -0.00207495      -0.00104460       0.03241267
H        5.06659478      -3.70943764      -0.96748240       0.00000000       0.00000000      -0.00863183      -0.06611464      -0.05649804       0.06060954
H        3.30776936      -3.85024030      -0.90629537       0.00000000       0.00000000      -0.00654423      -0.05822372      -0.04756745       0.01396267
H        3.35022315      -5.84319830      -2.33324248       0.00000000       0.00000000       0.07399477      -0.09357505       0.02950426       0.04544236
H        5.12900216      -5.85531397      -2.29597426       0.00000000       0.00000000       0.01915992      -0.04516510      -0.03746314       0.08096339
H        1.70865534      -4.65951932      -2.78515001       0.00000000       0.00000000       0.02956463       0.05828957       0.09171536       0.05662915
H       -0.37129501      -3.98965938      -2.56292920       0.00000000       0.00000000      -0.05009924       0.00167023       0.06421864       0.08214295
H       -0.92291561      -3.75370961      -4.20601347       0.00000000       0.00000000      -0.02435836      -0.09965732      -0.00017138       0.10416746
H       -2.12593275      -2.07661564      -3.61570906       0.00000000       0.00000000      -0.12608080       0.00147667       0.10254029       0.22080931
H       -3.34430681      -1.92086982      -0.80418538       0.00000000       0.00000000      -0.07060521       0.03708646       0.15788670       0.10004035
H       -3.29158172      -0.62522260      -2.00797644       0.00000000       0.00000000       0.03622659       0.03223209      -0.06780552       0.07617944
H       -3.57106507      -0.76037671       1.34378491       0.00000000       0.00000000      -0.16150142       0.06043971      -0.09973874       0.07817553
H       -4.11262231       0.69834520       0.42076277       0.00000000       0.00000000       0.05964524       0.01353780       0.01850736       0.09522874
H       -4.81779953       1.95350957       2.24107967       0.00000000       0.00000000       0.04266741      -0.13641390      -0.05518777       0.04969964
H       -4.31492336       2.84141763       3.66576385       0.00000000       0.00000000      -0.08405502      -0.10863406       0.04416008       0.08064031
H       -5.07617639      -0.12561748       3.65193857       0.00000000       0.00000000       0.00903890      -0.00643871      -0.00766523       0.04282814
H       -6.13999355       1.21188868       4.06258130       0.00000000       0.00000000       0.04084498       0.00237294       0.04836569       0.06451330
H       -4.38945350       1.82783782       5.88168317       0.00000000       0.00000000      -0.04645767       0.04722400       0.02828123       0.04380478
H       -3.72982615       0.21741247       5.62081674       0.00000000       0.00000000       0.00387801      -0.05398482       0.01066240       0.02871090
H       -6.58014729       0.85794646       6.48349766       0.00000000       0.00000000      -0.04154069       0.02498952      -0.03054655       0.05011847
H       -5.30144127       0.18894423       7.48087355       0.00000000       0.00000000      -0.02759082      -0.07162470       0.02436475       0.05417776
H       -5.98307691      -0.76565681       6.15580446       0.00000000       0.00000000       0.04295807       0.00617244       0.01017788       0.04329110
H       -0.94616609       1.60417174       3.59563257       0.00000000       0.00000000      -0.09391775      -0.08408222       0.04758528       0.08854305
H       -2.15141057       1.19113763       4.84197435       0.00000000       0.00000000       0.04761041       0.03797044      -0.08772755       0.07122982
H       -1.35575097       3.22647984       5.50009389       0.00000000       0.00000000      -0.10161226       0.05940940       0.01294515       0.06583609
H       -2.86420757       3.68869716       4.73178693       0.00000000       0.00000000      -0.02264359      -0.05859077      -0.00490824       0.05297209
H       -1.39788928       5.28847864       3.87753117       0.00000000       0.00000000      -0.04193373      -0.05322876       0.00070192       0.05640163
H       -1.31272711       4.06689233       2.60169212       0.00000000       0.00000000      -0.03758248       0.01066003       0.00428326       0.02740621
H        0.64061768       4.33379697       4.94327418       0.00000000       0.00000000      -0.00607896       0.02843187      -0.08773554       0.05311790
H        0.95080932       4.88528069       3.29380818       0.00000000       0.00000000      -0.00725847      -0.01753000       0.05592579       0.03473376
H        0.76424258       3.16156489       3.62639962       0.00000000       0.00000000      -0.00251158       0.01768165       0.02191372       0.02517436
H        0.50026461      -1.38938344      -5.18595262       0.00000000       0.00000000      -0.03609871       0.15435265       0.05369069       0.03492341
H        2.07010209      -0.94518838      -7.11079012       0.00000000       0.00000000       0.04246691      -0.01281697      -0.06466767       0.05444438
H        3.81198732      -1.26003774      -6.87830351       0.00000000       0.00000000       0.02857122       0.09389679      -0.08257607       0.10170591
H        2.33523600       1.13213384      -6.09896397       0.00000000       0.00000000      -0.00663031       0.00988782       0.01794649       0.17024268
H        3.47319424       3.13543800      -6.19456073       0.00000000       0.00000000      -0.15189741      -0.09346501       0.05409688       0.02123009
H        5.17506369       3.05189811      -6.68103692       0.00000000       0.00000000       0.09492331      -0.06986052       0.00333708       0.06805938
H        3.86828958       4.53229718      -4.12986495       0.00000000       0.00000000       0.00350113      -0.04173264       0.00766630       0.03247540
H        5.54711184       4.70544718      -4.68734026       0.00000000       0.00000000       0.06207736       0.02304179      -0.05162739       0.04662665
H        7.30594962       5.12042881      -3.94316988       0.00000000       0.00000000       0.06349841      -0.02142683       0.07274344       0.05856661
H        8.48171199       4.77805944      -2.67318817       0.00000000       0.00000000      -0.08175877       0.05891059       0.00731854       0.06906950
H        7.12388993       6.07470083      -1.03592276       0.00000000       0.00000000       0.02357754      -0.00516440      -0.02599521       0.04311081
H        5.82004187       6.22320443      -2.21404067       0.00000000       0.00000000       0.00886808      -0.00701878       0.00703320       0.02348330
H        7.30637024       7.64086867      -3.63986588       0.00000000       0.00000000      -0.00105274       0.02958250      -0.06992271       0.03824253
H        8.54441904       7.55927313      -2.39037537       0.00000000       0.00000000       0.07338010       0.03943406       0.00717276       0.04815882
H        5.71718543       8.66549260      -2.00575803       0.00000000       0.00000000      -0.01284597       0.00556340      -0.03949914       0.03127137
H        7.18426427       9.62936974      -2.14949384       0.00000000       0.00000000       0.03137835       0.06778865      -0.02587319       0.05438046
H        6.95262933       8.58153331      -0.75547220       0.00000000       0.00000000       0.03413877       0.01218871       0.05466665       0.04039661
H        6.82898300       3.76856385      -0.32049837       0.00000000       0.00000000      -0.04354310      -0.03424032      -0.11035576       0.04851761
H        8.22762743       3.19686460      -1.24734448       0.00000000       0.00000000      -0.03495219       0.02759153      -0.01802866       0.06153732
H        5.60412193       1.66433290      -1.04230670       0.00000000       0.00000000      -0.04060979       0.01212798      -0.00598347       0.04875360
H        6.99444942       1.45870412       0.02559846       0.00000000       0.00000000       0.02469881       0.02895356       0.00485882       0.03970003
H        7.19043619      -0.29147181      -1.49222772       0.00000000       0.00000000      -0.04143140      -0.00759680       0.02723771       0.02902639
H        8.36880066       0.88190385      -2.04568526       0.00000000       0.00000000       0.04342368       0.01581080      -0.02558791       0.04595143
H        5.56320525       0.64269945      -3.23469872       0.00000000       0.00000000       0.05197878      -0.04092607       0.00504354       0.01634818
H        6.98211204      -0.17215194      -3.90411188       0.00000000       0.00000000       0.00453593       0.01172876       0.04700194       0.04822155
H        6.90544064       1.57818151      -3.87543782       0.00000000       0.00000000      -0.02325777       0.02957062      -0.02807295       0.05281007
H        4.62085033      -2.47026926      -5.00884712       0.00000000       0.00000000       0.07592602      -0.02874926      -0.06839009       0.08635742
C       -6.65941554      -0.25061856      -0.21730221       0.00000000       0.00000000       0.03075347       0.02420070       0.06274238      -0.09858427
C       -7.89076586      -0.38142420      -1.10502736       0.00000000       0.00000000       0.01247764      -0.02043711       0.01011884      -0.06011631
C       -7.50663416      -1.07517577      -2.40064814       0.00000000       0.00000000      -0.08984220      -0.04155790      -0.12910109      -0.06471714
C       -8.61195307      -1.06950420      -3.45535094       0.00000000       0.00000000      -0.07199252      -0.04505254      -0.15693631      -0.05920416
C       -8.30275251      -1.99704100      -4.63978507       0.00000000       0.00000000      -0.08638480      -0.01625307       0.03723716      -0.06626921
C       -7.02998826      -1.62567345      -5.39627009       0.00000000       0.00000000      -0.14225954      -0.04139127       0.05656223       0.08427427
O       -5.93209897      -1.76577177      -4.50636947       0.00000000       0.00000000       0.00735985      -0.08981405       0.14369238      -0.29059314
C       -4.67682914      -1.66829965      -4.99725748       0.00000000       0.00000000       0.01436442      -0.01645083       0.00089543       0.15397891
C       -3.88659023      -0.64045905      -4.49294026       0.00000000       0.00000000       0.00138340       0.03722799       0.07191756      -0.06843182
C       -2.57432214      -0.49378700      -4.88594312       0.00000000       0.00000000       0.00481281       0.07315467      -0.07843587       0.00532947
C       -1.65252463       0.61993046      -4.40848658       0.00000000       0.00000000       0.01065748      -0.09579082      -0.09884427      -0.02494781
N       -1.87564962       1.45813792      -3.21482281       0.00000000       0.00000000       0.05386946      -0.03293062      -0.00513687      -0.14204095
C       -1.00259181       1.41061986      -2.20248521       0.00000000       0.00000000       0.03602905       0.00174798      -0.01638967       0.28223661
O       -0.30680992       0.39454665      -2.04130797       0.00000000       0.00000000       0.05898488      -0.01841294      -0.00075876      -0.41526710
C       -0.72193059       2.58802294      -1.23309936       0.00000000       0.00000000      -0.06843474      -0.02871131      -0.06598073       0.03852848
O        0.21904417       2.05045712      -0.29834653       0.00000000       0.00000000       0.07631763      -0.03353989      -0.08878870      -0.24037304
C        1.15414755       2.83720627       0.44885470       0.00000000       0.00000000       0.02507582       0.02289683       0.09629524       0.04848114
C        1.74972213       1.87587137       1.52264225       0.00000000       0.00000000       0.01409618       0.13762969       0.03047124       0.27574551
O        1.18997213       0.78509995       1.71303954       0.00000000       0.00000000      -0.01313087       0.07833551      -0.02642526      -0.37676272
N        2.76550782       2.19492407       2.31696687       0.00000000       0.00000000       0.07649856      -0.02524199      -0.05161058      -0.04635655
C        3.62647479       3.37053356       2.22674358       0.00000000       0.00000000      -0.08753426      -0.05679940       0.03256621      -0.02096350
C        5.10932126       2.98127355       2.21768794       0.00000000       0.00000000      -0.13638829      -0.02893947      -0.02342588      -0.07935280
C        6.04486982       4.13204039       2.57350903       0.00000000       0.00000000      -0.05140659      -0.00680993      -0.01959835      -0.05777149
C        7.47418940       3.62477679       2.71619828       0.00000000       0.00000000       0.04830379       0.01157421       0.02267618      -0.11366999
C        2.90797354       1.31974685       3.50052986       0.00000000       0.00000000       0.08636200       0.07887137      -0.04811944      -0.01130152
C        3.29180492      -0.16054525       3.31596603       0.00000000       0.00000000       0.01941046       0.02548966      -0.02788181      -0.07148626
C        4.68412972      -0.48368583       2.77147985       0.00000000       0.00000000       0.03845722       0.01394408      -0.00000392      -0.05990771
C        4.75512447      -0.45163033       1.24998214       0.00000000       0.00000000       0.02628315       0.01834101       0.02454729      -0.11474181
C       -2.07379142      -1.40346814      -5.82922939       0.00000000       0.00000000       0.04980344       0.05811110       0.04582345      -0.05932825
C       -2.81463328      -2.49948877      -6.26426754       0.00000000       0.00000000       0.14135888       0.09264131       0.09890745       0.01228252
C       -2.16460252      -3.60092342      -7.08341699       0.00000000       0.00000000      -0.04642261       0.09906381       0.03592920      -0.00870670
N       -1.27786507      -4.41972789      -6.27010442       0.00000000       0.00000000       0.00011986      -0.03162085      -0.04787409      -0.19623731
C       -1.49267105      -5.50945798      -5.47547020       0.00000000       0.00000000      -0.06173991      -0.04022843      -0.03137136       0.26885932
O       -0.55889994      -6.01205374      -4.89376631       0.00000000       0.00000000       0.06567623       0.04894740      -0.01263255      -0.40526706
C       -2.92026923      -6.01835178      -5.31189964       0.00000000       0.00000000      -0.10978035      -0.02968611       0.08416761       0.05662839
O       -3.10708642      -6.44792741      -3.97645522       0.00000000       0.00000000      -0.01888826      -0.00488064       0.03238588      -0.29140516
C       -4.24883815      -6.01551110      -3.26452664       0.00000000       0.00000000       0.03467065       0.02604737      -0.05749591       0.05586050
C       -3.76540238      -5.09547043      -2.13331636       0.00000000       0.00000000      -0.00638113      -0.04570126      -0.04219415       0.26283251
O       -3.13675487      -4.07463404      -2.41027783       0.00000000       0.00000000      -0.04455685      -0.07769297       0.03758038      -0.50044606
N       -3.97417226      -5.48170968      -0.85974705       0.00000000       0.00000000      -0.01082599       0.04083240      -0.00158908      -0.08352684
C       -5.00922738      -6.42193301      -0.44569368       0.00000000       0.00000000       0.08844390       0.03989467      -0.04743391      -0.01558294
C       -6.42158284      -5.90644806      -0.74839445       0.00000000       0.00000000       0.06192834      -0.06460327      -0.02974756      -0.07343710
C       -6.75535477      -4.60207522      -0.02804858       0.00000000       0.00000000       0.00819788      -0.04438628      -0.00443990      -0.04904750
C       -8.20604726      -4.20683972      -0.26282176       0.00000000       0.00000000      -0.03072777       0.01123828      -0.01537746      -0.11026098
C       -3.25590452      -4.78968019       0.19456710       0.00000000       0.00000000       0.01379919      -0.00544489       0.00087026       0.00315775
C       -2.37971681      -5.70228888       1.05633638       0.00000000       0.00000000       0.01354225      -0.04342794       0.00755829      -0.06917975
C       -1.29833281      -6.50278182       0.32848281       0.00000000       0.00000000       0.00317674      -0.03860474      -0.03339073      -0.05246925
C       -1.79926386      -7.78556536      -0.32859402       0.00000000       0.00000000       0.00208826       0.02781076      -0.03192289      -0.11289575
C       -4.13074307      -2.61082382      -5.85405248       0.00000000       0.00000000      -0.03606107      -0.06127780      -0.02763330      -0.05886773
H       -6.89698622       0.22957946       0.72843057       0.00000000       0.00000000      -0.03757919       0.02944534       0.04752753       0.02902516
H       -5.89529049       0.33686226      -0.72916025       0.00000000       0.00000000      -0.04129012       0.03627866       0.01842809       0.01168249
H       -6.24065874      -1.23320960      -0.00548676       0.00000000       0.00000000      -0.04489928       0.00487957       0.00445988       0.02933204
H       -8.29324612       0.60316325      -1.33798235       0.00000000       0.00000000      -0.00814266       0.00362031       0.01195828       0.03963473
H       -8.66726929      -0.94251335      -0.58759742       0.00000000       0.00000000      -0.03152465      -0.03056203       0.02538013       0.04150018
H       -7.22540825      -2.10719696      -2.19329872       0.00000000       0.00000000       0.02662487      -0.01663881       0.01858914       0.04199952
H       -6.62660900      -0.57398360      -2.80189687       0.00000000       0.00000000      -0.01804113       0.00033509       0.00796219       0.03507782
H       -8.76985384      -0.05392582      -3.82818350       0.00000000       0.00000000       0.02902633      -0.00807407       0.02023775       0.03241103
H       -9.55437104      -1.39546871      -3.00711603       0.00000000       0.00000000       0.08146905      -0.01431755       0.01542066       0.04759203
H       -9.13258332      -1.97055442      -5.35031915       0.00000000       0.00000000       0.04823524       0.02361608       0.06576698       0.05722378
H       -8.20745400      -3.02412932      -4.27716840       0.00000000       0.00000000       0.02569261       0.06916012      -0.00847964       0.05210576
H       -7.07228086      -0.58237208      -5.73390304       0.00000000       0.00000000      -0.03791718       0.02097948      -0.07410896       0.03300417
H       -6.89860779      -2.27224873      -6.26820489       0.00000000       0.00000000      -0.04846021      -0.02273195      -0.08324321       0.03564808
H       -4.34264992       0.03614667      -3.79474949       0.00000000       0.00000000      -0.03903286       0.01656240       0.06474078       0.04436853
H       -1.60702659       1.30479504      -5.25255813       0.00000000       0.00000000       0.01118622       0.01815674      -0.01874989       0.11070486
H       -0.67378850       0.16607750      -4.25079997       0.00000000       0.00000000       0.05908497       0.00112142       0.02121109       0.08311443
H       -2.47564784       2.26548615      -3.32269066       0.00000000       0.00000000       0.04163944       0.05162333       0.00763014       0.21383064
H       -1.63977144       2.92220007      -0.73137491       0.00000000       0.00000000      -0.11202940      -0.02054253      -0.01198789       0.12162138
H       -0.27468133       3.40604524      -1.81353908       0.00000000       0.00000000      -0.08911171       0.03797106       0.00838367       0.09835311
H        0.64308633       3.64572306       0.98306686       0.00000000       0.00000000      -0.03143305       0.04144512       0.04140844       0.09437109
H        1.94845301       3.22561007      -0.19910084       0.00000000       0.00000000      -0.00786993      -0.03942553       0.01805839       0.10807791
H        3.41667882       4.01451494       3.08996593       0.00000000       0.00000000       0.03840728      -0.01727600      -0.03332025       0.06884647
H        3.38860181       3.91942714       1.31345304       0.00000000       0.00000000      -0.00557622      -0.04499135       0.10867125       0.06462556
H        5.36256891       2.59402618       1.23350093       0.00000000       0.00000000      -0.00343403      -0.01258279      -0.01176922       0.06421244
H        5.27620547       2.18982188       2.94397529       0.00000000       0.00000000       0.02723896       0.02131315      -0.00520827       0.06328994
H        5.72667583       4.57947565       3.51545131       0.00000000       0.00000000       0.01309972       0.05026795       0.03701492       0.04162424
H        5.99511545       4.90464287       1.80683343       0.00000000       0.00000000       0.00127871       0.05040128      -0.04421444       0.03573365
H        7.55525919       2.93152976       3.54804299       0.00000000       0.00000000      -0.03051234      -0.04013079       0.04431494       0.04414276
H        8.15345891       4.44682601       2.90681386       0.00000000       0.00000000       0.04915882       0.09524531       0.00390880       0.05539648
H        7.80462390       3.11105773       1.81758234       0.00000000       0.00000000      -0.01760756       0.01540913      -0.04078240       0.04036310
H        1.92339350       1.30953926       3.98809242       0.00000000       0.00000000       0.10829007       0.00599343      -0.00543186       0.06068029
H        3.61739384       1.79472087       4.17176945       0.00000000       0.00000000       0.05973851       0.07860073       0.02788398       0.08272840
H        2.54708420      -0.63786388       2.67840045       0.00000000       0.00000000      -0.02588152      -0.05212335       0.00995570       0.06748196
H        3.20977575      -0.58721384       4.31902367       0.00000000       0.00000000      -0.01098607       0.00434997      -0.00663934       0.05332794
H        4.96001494      -1.48525106       3.10962814       0.00000000       0.00000000      -0.00743154      -0.00552777       0.00685460       0.04239224
H        5.42152077       0.19534620       3.19578922       0.00000000       0.00000000       0.03155976       0.02212182       0.02242632       0.04739241
H        4.18048609      -1.27427062       0.83200752       0.00000000       0.00000000       0.00915003       0.03401284       0.05716661       0.02996702
H        5.78326727      -0.55663584       0.91400531       0.00000000       0.00000000       0.01287888       0.02453240       0.04172046       0.04812030
H        4.35347670       0.47766968       0.85850376       0.00000000       0.00000000      -0.02039862      -0.02743427      -0.00468385       0.05389199
H       -1.08662826      -1.27482476      -6.24397511       0.00000000       0.00000000      -0.01003306       0.03652906       0.05581431       0.04903648
H       -1.54565615      -3.15968637      -7.86638928       0.00000000       0.00000000      -0.08485967       0.00396351      -0.07510479       0.07647135
H       -2.93213958      -4.21733941      -7.55257272       0.00000000       0.00000000       0.00382130      -0.02735334      -0.01957220       0.07185451
H       -0.29354372      -4.20144304      -6.34786313       0.00000000       0.00000000       0.05632103      -0.01163523      -0.04339148       0.19187197
H       -3.04643488      -6.89581261      -5.96421537       0.00000000       0.00000000       0.03095989       0.06087207      -0.06830842       0.07571199
H       -3.64007362      -5.24981818      -5.59211475       0.00000000       0.00000000      -0.06651607       0.02137253       0.03438857       0.04329015
H       -4.75492443      -6.91180001      -2.89171939       0.00000000       0.00000000       0.04694891       0.09695948      -0.04649502       0.06316999
H       -4.94329314      -5.45578099      -3.90217660       0.00000000       0.00000000       0.02801093       0.00930228      -0.02275030       0.04673683
H       -4.90722622      -6.56975957       0.63161444       0.00000000       0.00000000      -0.01130428       0.03022550      -0.08099528       0.06860480
H       -4.85020989      -7.39142273      -0.92515278       0.00000000       0.00000000      -0.03704453       0.01125939       0.04179868       0.06368560
H       -7.13261682      -6.67804613      -0.45163251       0.00000000       0.00000000      -0.00075552      -0.00086543       0.05843616       0.06255486
H       -6.53834075      -5.75281806      -1.82163763       0.00000000       0.00000000       0.00695818      -0.00015908      -0.02770095       0.03911861
H       -6.09478911      -3.80993013      -0.39298344       0.00000000       0.00000000      -0.00371491       0.00880639      -0.00874326       0.01615178
H       -6.58631652      -4.72005088       1.04360738       0.00000000       0.00000000       0.01639929      -0.01963333       0.04811684       0.03194099
H       -8.39967171      -4.08024366      -1.32396280       0.00000000       0.00000000      -0.02197731       0.00782061      -0.04156521       0.04154102
H       -8.43763780      -3.27492068       0.24379486       0.00000000       0.00000000      -0.01389263       0.02745022       0.02901975       0.04148246
H       -8.87593995      -4.97488474       0.11209124       0.00000000       0.00000000      -0.00047088      -0.01501381       0.02233548       0.05041984
H       -3.97128199      -4.27318770       0.84772290       0.00000000       0.00000000       0.01365347      -0.00755436      -0.01218596       0.03506199
H       -2.61036617      -4.04414058      -0.27708457       0.00000000       0.00000000      -0.05037177      -0.02394516      -0.09279059       0.05390050
H       -3.00740108      -6.39180720       1.62049253       0.00000000       0.00000000       0.02346044      -0.04123808       0.06525910       0.05055084
H       -1.87559106      -5.04142823       1.76409506       0.00000000       0.00000000       0.02565328      -0.00955303       0.00173961       0.03229865
H       -0.54738517      -6.77286776       1.07602343       0.00000000       0.00000000       0.03704437       0.00132418      -0.04773200       0.03127968
H       -0.82090670      -5.86846926      -0.42244551       0.00000000       0.00000000       0.01712126      -0.01441442       0.00361593       0.02316855
H       -2.44403964      -8.33909410       0.35334887       0.00000000       0.00000000       0.03595510       0.04592216      -0.07252683       0.04388591
H       -0.95775560      -8.42639617      -0.58451581       0.00000000       0.00000000      -0.03669595       0.05441080      -0.01331497       0.05111452
H       -2.33875530      -7.56428981      -1.24489826       0.00000000       0.00000000      -0.02323999      -0.04558124       0.01812666       0.04899529
H       -4.73932920      -3.43192106      -6.18821188       0.00000000       0.00000000      -0.12655767      -0.05480944      -0.09371575       0.05904103
C       -1.31469409       7.55426099       1.81098646       0.00000000       0.00000000       0.01360368       0.00730413       0.01376178      -0.10482590
C        0.05246173       8.00788657       2.30935688       0.00000000       0.00000000       0.05656842       0.05450911      -0.02353532      -0.05938504
C        1.11817915       8.12092583       1.21693827       0.00000000       0.00000000       0.06760598      -0.06133927      -0.06924223      -0.06838778
C        1.61992334       6.76457806       0.70552029       0.00000000       0.00000000       0.01599372      -0.02050643      -0.02390193      -0.06347664
C        0.83363860       6.23336033      -0.49615126       0.00000000       0.00000000       0.00160477      -0.03970296       0.09683687      -0.07640444
C        1.35495290       6.80954101      -1.81160287       0.00000000       0.00000000      -0.08735449      -0.06002412       0.02743258       0.06825019
O        0.56773946       6.38525711      -2.90916981       0.00000000       0.00000000      -0.00633260      -0.01137720      -0.05931988      -0.25588312
C        0.63050934       5.13630328      -3.40543167       0.00000000       0.00000000       0.03883843      -0.02878964      -0.00015892       0.14694872
C        1.49027003       4.10308644      -3.02880968       0.00000000       0.00000000      -0.02041775      -0.03230733       0.01209581      -0.09202266
C        1.43090924       2.85066727      -3.65472389       0.00000000       0.00000000       0.10684658       0.02922643      -0.04316043       0.00162388
C        2.47177154       1.83255063      -3.21273827       0.00000000       0.00000000       0.06756967       0.08363966      -0.06640150      -0.03886100
N        2.14003464       0.45248597      -2.85846246       0.00000000       0.00000000      -0.02104547       0.06736403       0.03653167      -0.14998754
C        2.30551861       0.02762446      -1.60546488       0.00000000       0.00000000      -0.00975451       0.02899721       0.05405600       0.27933553
O        2.47429748       0.79788135      -0.65948383       0.00000000       0.00000000      -0.08525818       0.05863410      -0.09355032      -0.39210671
C        2.31655386      -1.46713221      -1.25276998       0.00000000       0.00000000      -0.00110509      -0.00908343      -0.08382838       0.02729820
O        1.91606920      -1.52459638       0.12415286       0.00000000       0.00000000      -0.07391213      -0.09317310      -0.05868129      -0.22260080
C        1.56475671      -2.79001900       0.69359897       0.00000000       0.00000000      -0.06577997      -0.04564547       0.06295902       0.04256866
C        0.46993558      -2.48812242       1.74595728       0.00000000       0.00000000       0.00440669      -0.09844925       0.06196110       0.26527580
O       -0.23691603      -1.47938428       1.57979364       0.00000000       0.00000000       0.00839144      -0.09767027       0.08459648      -0.38396256
N        0.27024304      -3.26606721       2.80382576       0.00000000       0.00000000      -0.02932766      -0.03287989       0.05432773      -0.05194631
C        1.01464206      -4.49184668       3.04248330       0.00000000       0.00000000      -0.02794114       0.05181773      -0.02234381      -0.02473950
C        2.34503190      -4.25705563       3.77113068       0.00000000       0.00000000      -0.05665889      -0.04092685      -0.09174734      -0.07323125
C        2.20004370      -3.80085496       5.22039141       0.00000000       0.00000000      -0.02234414      -0.01626235      -0.03732101      -0.05941496
C        3.52560614      -3.91868463       5.95516656       0.00000000       0.00000000       0.03525849      -0.00162758       0.01746168      -0.11506119
C       -0.59495891      -2.66094760       3.83908469       0.00000000       0.00000000      -0.03291951      -0.00890099      -0.01326481      -0.02083256
C       -1.47691109      -3.54827812       4.71203064       0.00000000       0.00000000       0.02534224      -0.03889349       0.00615404      -0.07341633
C       -2.88535035      -3.83611855       4.17787900       0.00000000       0.00000000       0.02494902       0.00288919       0.01534194      -0.06949529
C       -3.73184123      -2.59276478       3.92901802       0.00000000       0.00000000       0.01118350      -0.03265953       0.03127466      -0.10806726
C        0.55311048       2.68103084      -4.72150780       0.00000000       0.00000000       0.04796367      -0.05942488      -0.02312179      -0.07601593
C       -0.34530995       3.68730198      -5.08870729       0.00000000       0.00000000       0.06881264      -0.04769046       0.17842026      -0.00198837
C       -1.41107885       3.55525576      -6.15267811       0.00000000       0.00000000       0.07771408       0.01498841       0.11758291      -0.00549835
N       -2.73341677       3.54913544      -5.53288767       0.00000000       0.00000000      -0.06193545       0.04498082       0.11653452      -0.18950767
C       -3.76468498       2.76207734      -5.92193695       0.00000000       0.00000000      -0.10551398       0.03447148       0.02043011       0.26079198
O       -3.63527674       1.78150596      -6.61886424       0.00000000       0.00000000       0.04122568      -0.09721785      -0.03198557      -0.42044983
C       -5.13364914       3.21938177      -5.38034329       0.00000000       0.00000000       0.01578167       0.04863724       0.07212210       0.04218050
O       -5.11888337       3.63009751      -4.02419410       0.00000000       0.00000000      -0.00348680       0.04033319       0.02215466      -0.32378480
C       -5.24445276       2.56034916      -3.10958497       0.00000000       0.00000000       0.01671829       0.01831454       0.01802144       0.06022388
C       -4.97114136       3.05582044      -1.68175563       0.00000000       0.00000000       0.03511358      -0.01842895      -0.00523937       0.25651189
O       -3.92992171       2.68869176      -1.12517194       0.00000000       0.00000000      -0.09848711      -0.00305705      -0.06413369      -0.51273276
N       -5.86420945       3.86409865      -1.11676024       0.00000000       0.00000000      -0.03083449       0.01301475       0.01197092      -0.05979066
C       -7.20443987       4.11104408      -1.63414755       0.00000000       0.00000000       0.10047238       0.02565312       0.01384421      -0.01590732
C       -8.24697527       3.40366829      -0.75756840       0.00000000       0.00000000       0.08091546       0.06753349       0.01014456      -0.07006849
C       -9.60129661       3.26271775      -1.44514101       0.00000000       0.00000000       0.00696154       0.00656454       0.01402621      -0.05590643
C      -10.57439431       2.48842084      -0.56685323       0.00000000       0.00000000      -0.05914551      -0.02303257       0.01770044      -0.11189308
C       -5.60132415       4.40779316       0.21577942       0.00000000       0.00000000      -0.04024191      -0.02581899      -0.06744960      -0.00120507
C       -4.32355268       5.24069420       0.32430252       0.00000000       0.00000000      -0.01787576      -0.00843580      -0.03779674      -0.06454472
C       -4.33556269       6.50594480      -0.53562731       0.00000000       0.00000000       0.00380845       0.03495917      -0.04546847      -0.06096832
C       -4.03633010       6.25625400      -2.01213464       0.00000000       0.00000000      -0.01783410       0.00016469      -0.00866918      -0.10471761
C       -0.30750667       4.88624619      -4.41018873       0.00000000       0.00000000      -0.05285642       0.10076931       0.05234453      -0.07343607
H       -2.05957753       7.69907379       2.58919468       0.00000000       0.00000000      -0.01365540      -0.01566252       0.02298329       0.03783464
H       -1.30994366       6.50119534       1.53917380       0.00000000       0.00000000      -0.01846284       0.00318471      -0.03244480       0.02274337
H       -1.61545031       8.14686862       0.94989740       0.00000000       0.00000000       0.00685502      -0.00351470       0.00285501       0.03997523
H        0.40656411       7.32827069       3.08771149       0.00000000       0.00000000      -0.01611392       0.01380370       0.01583828       0.03086540
H       -0.05702252       8.98920900       2.76593673       0.00000000       0.00000000      -0.03619266       0.09433635       0.03146501       0.04899123
H        1.96479721       8.67530151       1.62450767       0.00000000       0.00000000      -0.01787987      -0.02610876       0.03132266       0.04657171
H        0.72682849       8.70265358       0.38105790       0.00000000       0.00000000      -0.00933228       0.01756012       0.04223582       0.04617119
H        1.56925917       6.04250473       1.52726595       0.00000000       0.00000000       0.00906988       0.03721007      -0.08671358       0.02687339
H        2.66911229       6.84259229       0.40781277       0.00000000       0.00000000      -0.02682106       0.02029099       0.07516426       0.03544626
H       -0.22552402       6.46827646      -0.39037663       0.00000000       0.00000000       0.03890391       0.09233057      -0.08415512       0.05870879
H        0.91958513       5.14975931      -0.54430578       0.00000000       0.00000000       0.03349399      -0.01074628      -0.03504635       0.01813735
H        2.40924637       6.54922971      -1.96351690       0.00000000       0.00000000      -0.01501433       0.03529473       0.02253947       0.03850615
H        1.24017367       7.89492370      -1.81080375       0.00000000       0.00000000       0.11947419       0.00720730      -0.03887847       0.07611893
H        2.26146258       4.26734868      -2.29219678       0.00000000       0.00000000      -0.05292470       0.00342762       0.06383232       0.06883769
H        2.99659892       2.26174355      -2.35482853       0.00000000       0.00000000      -0.04554526      -0.09437526       0.06996405       0.12249596
H        3.21837420       1.75095366      -4.00051287       0.00000000       0.00000000       0.05346942       0.02559819      -0.10147211       0.11137513
H        1.99935165      -0.21803522      -3.60642071       0.00000000       0.00000000       0.05378146      -0.10085911      -0.08543641       0.20268268
H        3.36050089      -1.78573075      -1.38313202       0.00000000       0.00000000       0.03906367      -0.08336196       0.09008572       0.10279399
H        1.66145953      -2.07497175      -1.88291767       0.00000000       0.00000000      -0.05087586       0.03314040      -0.05218227       0.10760513
H        2.44976307      -3.24701224       1.15084027       0.00000000       0.00000000      -0.01179309       0.04615568       0.04315036       0.09650067
H        1.14512673      -3.47679471      -0.05331532       0.00000000       0.00000000      -0.01302941       0.06265344      -0.01617138       0.10607893
H        1.19812549      -4.97031884       2.07574996       0.00000000       0.00000000      -0.00517323       0.02412862       0.06021980       0.05776739
H        0.37223908      -5.16666745       3.61514433       0.00000000       0.00000000       0.14647789       0.07435389       0.04184337       0.08848870
H        2.93138205      -3.50946547       3.23065318       0.00000000       0.00000000       0.00147270      -0.02905632       0.01977037       0.03805293
H        2.90024153      -5.19564774       3.74439575       0.00000000       0.00000000      -0.01426802      -0.03228934       0.04782958       0.07060974
H        1.45168515      -4.40443639       5.73102378       0.00000000       0.00000000      -0.01707923      -0.07839032       0.02019144       0.04648857
H        1.86648485      -2.76409304       5.24733895       0.00000000       0.00000000       0.01452962       0.05355653       0.02664612       0.03043789
H        3.84697362      -4.95484885       5.99069475       0.00000000       0.00000000       0.03006573      -0.02716381       0.03161546       0.05297340
H        3.42408300      -3.55503296       6.97168646       0.00000000       0.00000000       0.03453070       0.00389797       0.05815389       0.05494172
H        4.29574148      -3.33844212       5.45448430       0.00000000       0.00000000       0.03919640       0.03230322       0.00397293       0.03957493
H       -1.23965533      -1.96416949       3.30618789       0.00000000       0.00000000      -0.01037911       0.05700522      -0.01313655       0.09199046
H        0.05736216      -2.05876508       4.47781444       0.00000000       0.00000000       0.01991096      -0.07789691       0.01735087       0.06711243
H       -1.57633358      -3.02050165       5.66267682       0.00000000       0.00000000      -0.04319667      -0.08778999       0.02291481       0.06430531
H       -0.98696034      -4.49628238       4.91784490       0.00000000       0.00000000       0.00482335      -0.05699312       0.10134811       0.05892103
H       -3.39224629      -4.45693169       4.91825020       0.00000000       0.00000000       0.01195744       0.01427708       0.01105140       0.05806218
H       -2.83562867      -4.41158351       3.25683755       0.00000000       0.00000000       0.05042839       0.00251427       0.03471841       0.04237673
H       -3.79182917      -1.98630385       4.82871075       0.00000000       0.00000000       0.02889877      -0.00230167      -0.01530086       0.05011268
H       -4.74185497      -2.89204037       3.65598272       0.00000000       0.00000000       0.01975335       0.02479866      -0.00614240       0.04426657
H       -3.32105777      -1.99028148       3.11740721       0.00000000       0.00000000      -0.01462147      -0.01880932       0.07632207       0.01504475
H        0.58787798       1.77861024      -5.30812066       0.00000000       0.00000000      -0.03751530      -0.11850986       0.05632240       0.03174674
H       -1.30326149       2.65287307      -6.75674228       0.00000000       0.00000000      -0.06373806       0.02591777      -0.03189730       0.07797801
H       -1.33835964       4.42938804      -6.80778754       0.00000000       0.00000000      -0.01509136      -0.04533511      -0.13142953       0.07511249
H       -2.96293154       4.36495018      -4.98241677       0.00000000       0.00000000      -0.03470854       0.06751792      -0.04624485       0.18882736
H       -5.87828072       2.42940681      -5.54565754       0.00000000       0.00000000       0.13281824       0.01138013      -0.04062407       0.06052803
H       -5.43731326       4.10400106      -5.94881124       0.00000000       0.00000000       0.01275318      -0.01321528      -0.04772818       0.08584433
H       -4.48427407       1.80435163      -3.33333001       0.00000000       0.00000000       0.00123964      -0.01483716       0.06803245       0.03112117
H       -6.23439239       2.08563566      -3.18571337       0.00000000       0.00000000       0.04252636      -0.01399037      -0.01296548       0.04279429
H       -7.28258683       3.75250357      -2.65892549       0.00000000       0.00000000       0.03270629       0.07364005       0.04338936       0.06739733
H       -7.38395167       5.19011934      -1.65377776       0.00000000       0.00000000       0.01307051      -0.03818497       0.03489252       0.06738051
H       -8.38321521       3.95332792       0.17299425       0.00000000       0.00000000      -0.03962226       0.01371476       0.05071929       0.04627939
H       -7.86640193       2.41397722      -0.49536787       0.00000000       0.00000000      -0.00406511       0.02301979      -0.01930476       0.04014722
H       -9.47944567       2.74563162      -2.39907075       0.00000000       0.00000000      -0.01183715      -0.01081998      -0.02403368       0.03160842
H      -10.00808421       4.25193978      -1.65181538       0.00000000       0.00000000      -0.00595084       0.03385196      -0.03064867       0.04668435
H      -10.21223276       1.48123285      -0.37773046       0.00000000       0.00000000       0.01357737      -0.01560928       0.02094165       0.03744851
H      -11.54188871       2.41056292      -1.04916779       0.00000000       0.00000000      -0.06622119       0.01591653      -0.05329211       0.05448876
H      -10.71438429       2.98650151       0.38836431       0.00000000       0.00000000       0.01183555       0.03462735       0.01358298       0.04463531
H       -5.56007670       3.58091938       0.93569048       0.00000000       0.00000000       0.05432524       0.01396797      -0.05375401       0.04075620
H       -6.44697032       5.04108026       0.47857238       0.00000000       0.00000000      -0.00500047       0.00252173      -0.00780147       0.06968114
H       -3.46441398       4.62355776       0.06537775       0.00000000       0.00000000       0.04167672      -0.01466570      -0.02577537       0.04545371
H       -4.22526647       5.52472400       1.37351741       0.00000000       0.00000000      -0.01464711       0.02369908       0.01293346       0.04458610
H       -3.58750556       7.19354875      -0.14105001       0.00000000       0.00000000       0.05623106      -0.01205080       0.01969792       0.04478912
H       -5.30165675       7.00193412      -0.43799580       0.00000000       0.00000000      -0.02220025       0.01155980      -0.00617370       0.04587633
H       -3.15661561       5.61901914      -2.11951975       0.00000000       0.00000000      -0.02107605       0.06627009      -0.00172350       0.01739991
H       -3.84553746       7.20046452      -2.51877635       0.00000000       0.00000000       0.01262939      -0.03348494       0.04307361       0.04609708
H       -4.87164141       5.77517334      -2.51351081       0.00000000       0.00000000       0.03789826      -0.03193649      -0.01034785       0.04155582
H       -0.97327495       5.69434459      -4.66119238       0.00000000       0.00000000      -0.03003519       0.05584971      -0.07123048       0.06647086
