105
Properties=species:S:1:pos:R:3:initial_charges:R:1:initial_magmoms:R:1 pbc="F F F"
Eu      -0.00000000       0.00000000       0.00000000       3.00000000       0.00000000
S       -1.29710125      -2.26401307       0.88171918       0.00000000       0.00000000
P       -1.55245201      -3.00078598      -0.99520407       0.00000000       0.00000000
S       -0.44341003      -1.49012555      -2.13502743       0.00000000       0.00000000
C       -3.37392400      -2.87909866      -1.35415629       0.00000000       0.00000000
C       -3.96904627      -1.60873073      -1.26866057       0.00000000       0.00000000
C       -5.33244365      -1.43985040      -1.52364764       0.00000000       0.00000000
C       -6.12012648      -2.53757369      -1.86109132       0.00000000       0.00000000
C       -5.54961400      -3.80843588      -1.93922580       0.00000000       0.00000000
C       -4.18231774      -3.99151640      -1.68679252       0.00000000       0.00000000
Cl      -3.56912065      -5.63460271      -1.77567882       0.00000000       0.00000000
C       -0.63046997      -4.60423582      -1.16992973       0.00000000       0.00000000
C       -0.08463922      -5.23043077      -0.03622976       0.00000000       0.00000000
C        0.61833004      -6.43140273      -0.15799734       0.00000000       0.00000000
C        0.78777130      -7.01967608      -1.41175152       0.00000000       0.00000000
C        0.25543033      -6.40755064      -2.54723420       0.00000000       0.00000000
C       -0.45143921      -5.20396440      -2.43766999       0.00000000       0.00000000
Cl      -1.08932277      -4.48075873      -3.91175176       0.00000000       0.00000000
H       -1.55484508      -0.73644510      -2.51242010       0.00000000       0.00000000
H       -3.37805125      -0.74273450      -1.00392929       0.00000000       0.00000000
H       -5.77647681      -0.45494058      -1.45708280       0.00000000       0.00000000
H       -7.17719962      -2.40629232      -2.05674977       0.00000000       0.00000000
H       -6.17398909      -4.65539712      -2.19240622       0.00000000       0.00000000
H       -0.20028608      -4.80003362       0.94790142       0.00000000       0.00000000
H        1.03286830      -6.90667065       0.72155215       0.00000000       0.00000000
H        1.33346094      -7.94977905      -1.50338946       0.00000000       0.00000000
H        0.39440244      -6.87018704      -3.51634581       0.00000000       0.00000000
S        2.02769109      -1.78290097       0.52829059       0.00000000       0.00000000
P        3.25072404      -0.95221570      -0.73479753       0.00000000       0.00000000
S        2.06528227       0.61512585      -1.53018438       0.00000000       0.00000000
C        3.83464482      -1.69971588      -2.28769808       0.00000000       0.00000000
C        4.61627960      -0.87997673      -3.14047625       0.00000000       0.00000000
C        5.11768928      -1.34451408      -4.35752614       0.00000000       0.00000000
C        4.85637259      -2.64645033      -4.75727096       0.00000000       0.00000000
C        4.09840682      -3.47593644      -3.93570301       0.00000000       0.00000000
C        3.59151925      -3.01345481      -2.71077343       0.00000000       0.00000000
Cl       2.69107874      -4.16396022      -1.80532982       0.00000000       0.00000000
C        4.70981795      -0.18145228       0.01797414       0.00000000       0.00000000
C        4.77923821       1.20092999       0.27373677       0.00000000       0.00000000
C        5.91906921       1.77609198       0.84279518       0.00000000       0.00000000
C        7.00784068       0.98138289       1.18165652       0.00000000       0.00000000
C        6.95255089      -0.39162402       0.96107542       0.00000000       0.00000000
C        5.81300766      -0.96976689       0.39031392       0.00000000       0.00000000
Cl       5.83114360      -2.68247256       0.18157560       0.00000000       0.00000000
H        1.53956241      -0.20868886      -2.54265188       0.00000000       0.00000000
H        4.84337806       0.14816161      -2.85850101       0.00000000       0.00000000
H        5.71213617      -0.68913973      -4.99017647       0.00000000       0.00000000
H        5.24295941      -3.01973234      -5.70228968       0.00000000       0.00000000
H        3.90497529      -4.49878359      -4.25558672       0.00000000       0.00000000
H        3.94417134       1.85924466       0.04725923       0.00000000       0.00000000
H        5.95038848       2.84766294       1.02972357       0.00000000       0.00000000
H        7.89270285       1.42694208       1.62964703       0.00000000       0.00000000
H        7.80068476      -1.01139512       1.24435036       0.00000000       0.00000000
S        1.05474026       0.40377369       2.50875422       0.00000000       0.00000000
P       -0.64461249       0.97228866       3.26389007       0.00000000       0.00000000
S       -1.93087301       0.86875875       1.58184150       0.00000000       0.00000000
C       -1.03726311       2.65504499       3.83430813       0.00000000       0.00000000
C       -2.37673703       2.90341189       4.22709214       0.00000000       0.00000000
C       -2.79475063       4.15568821       4.68039743       0.00000000       0.00000000
C       -1.88354556       5.19808176       4.75939946       0.00000000       0.00000000
C       -0.55991315       4.98016155       4.38786041       0.00000000       0.00000000
C       -0.13446258       3.72257454       3.93097592       0.00000000       0.00000000
Cl       1.53282476       3.61109685       3.52847177       0.00000000       0.00000000
C       -1.32694301      -0.14361681       4.52042360       0.00000000       0.00000000
C       -2.31636995      -1.09781831       4.21752389       0.00000000       0.00000000
C       -2.83779008      -1.93916220       5.20449654       0.00000000       0.00000000
C       -2.37227634      -1.85545231       6.51144048       0.00000000       0.00000000
C       -1.37653943      -0.93666337       6.82955344       0.00000000       0.00000000
C       -0.85371944      -0.09230879       5.84350007       0.00000000       0.00000000
Cl       0.39537385       0.99346665       6.33147439       0.00000000       0.00000000
H       -1.63419152       2.18794565       1.19213839       0.00000000       0.00000000
H       -3.12028133       2.10775001       4.18001498       0.00000000       0.00000000
H       -3.83063409       4.31414887       4.97188459       0.00000000       0.00000000
H       -2.19725417       6.17726737       5.11243155       0.00000000       0.00000000
H        0.14921274       5.80346722       4.46042688       0.00000000       0.00000000
H       -2.69493028      -1.21621552       3.20525853       0.00000000       0.00000000
H       -3.60355051      -2.66816759       4.94691250       0.00000000       0.00000000
H       -2.77308578      -2.51335878       7.27871516       0.00000000       0.00000000
H       -1.00335496      -0.88740975       7.85033715       0.00000000       0.00000000
S        0.15884163       2.74131857      -0.18500674       0.00000000       0.00000000
P       -1.34265196       2.79459308      -1.46669131       0.00000000       0.00000000
S       -1.81755830       0.73666715      -1.77094893       0.00000000       0.00000000
C       -2.75797121       3.78951373      -0.90482109       0.00000000       0.00000000
C       -2.41144773       5.09797431      -0.47368121       0.00000000       0.00000000
C       -3.36254749       6.02131932      -0.03903524       0.00000000       0.00000000
C       -4.70094234       5.66516039      -0.02020758       0.00000000       0.00000000
C       -5.07373620       4.39383769      -0.44697077       0.00000000       0.00000000
C       -4.11890224       3.46359685      -0.89623822       0.00000000       0.00000000
Cl      -4.77347351       1.97603696      -1.45520629       0.00000000       0.00000000
C       -1.13055732       3.37015232      -3.19317992       0.00000000       0.00000000
C       -2.08510795       2.95053152      -4.15260071       0.00000000       0.00000000
C       -2.00187939       3.32477242      -5.49523915       0.00000000       0.00000000
C       -0.96749386       4.14424367      -5.91821615       0.00000000       0.00000000
C       -0.03891450       4.60676760      -4.99009317       0.00000000       0.00000000
C       -0.12558240       4.24084141      -3.63671984       0.00000000       0.00000000
Cl       1.02466084       4.98467001      -2.59649137       0.00000000       0.00000000
H       -0.85601667       0.61316990      -2.78968348       0.00000000       0.00000000
H       -1.36718396       5.41534202      -0.47524023       0.00000000       0.00000000
H       -3.05341188       7.01274710       0.28366460       0.00000000       0.00000000
H       -5.45263784       6.37304044       0.31869551       0.00000000       0.00000000
H       -6.13069543       4.13026304      -0.43634961       0.00000000       0.00000000
H       -2.92382003       2.31881951      -3.86398691       0.00000000       0.00000000
H       -2.74836387       2.97569695      -6.20578209       0.00000000       0.00000000
H       -0.89182402       4.43877297      -6.96204148       0.00000000       0.00000000
H        0.75398395       5.27217636      -5.32751851       0.00000000       0.00000000
