256
Properties=species:S:1:pos:R:3:initial_charges:R:1:initial_magmoms:R:1:forces:R:3:charge:R:1 energy=-8640.165350522495 free_energy=-8640.165350522495 dipole="-1.1976085731455246 0.1218402615969136 -0.6657840299127044" pbc="F F F"
Eu       0.08342707      -0.02731597       0.15838172       3.00000000       0.00000000      -0.00348479       0.01766259      -0.01559585       0.80036636
C        3.74061417       2.26413064       1.62816808       0.00000000       0.00000000       0.01435938      -0.03423720       0.01281738      -0.10408125
C        3.70498446       1.44240979       2.91276086       0.00000000       0.00000000       0.03226087      -0.00380531       0.01884160      -0.04670292
C        5.10579594       1.16220766       3.46924732       0.00000000       0.00000000      -0.02687054      -0.00608004      -0.01225914      -0.06327516
C        5.99540567       0.31298189       2.55532813       0.00000000       0.00000000      -0.01883640       0.04062152       0.03537408      -0.06251375
C        5.37381521      -1.04311750       2.22531735       0.00000000       0.00000000      -0.00852961       0.06533287       0.02124961      -0.06323958
C        6.28425587      -1.91109183       1.36132436       0.00000000       0.00000000       0.00763803       0.00729195       0.00636751      -0.06790141
C        5.65150093      -3.23774695       0.93967732       0.00000000       0.00000000      -0.01974712      -0.03926833      -0.02385502      -0.07426833
C        4.55876287      -3.17646822      -0.14419541       0.00000000       0.00000000      -0.00759996      -0.01676098      -0.00177894      -0.02003158
N        3.26361411      -2.73420843       0.34728610       0.00000000       0.00000000       0.07569968      -0.07352250       0.10946988      -0.04892735
C        2.44838470      -3.77298266       0.99344934       0.00000000       0.00000000      -0.01461843      -0.00488899       0.04158235      -0.00634822
C        2.26520399      -3.68812218       2.51113838       0.00000000       0.00000000      -0.01815272      -0.02573322       0.02818775      -0.06754887
C        1.22527107      -4.69443880       3.02608806       0.00000000       0.00000000      -0.00382617       0.01467053       0.08250799      -0.05938437
C        1.05518277      -4.51269156       4.53846165       0.00000000       0.00000000       0.01861004       0.00967397      -0.00860701      -0.06465698
C        0.03589926      -5.42759957       5.22459490       0.00000000       0.00000000       0.06093015       0.03598427      -0.03764887      -0.06786174
C       -1.41075062      -4.94655047       5.10005394       0.00000000       0.00000000       0.02958339      -0.01440027       0.00509605      -0.05463171
C       -2.29178597      -5.56573984       6.18507196       0.00000000       0.00000000       0.02016620      -0.00910731      -0.00010159      -0.06146730
C       -3.74040703      -5.10020038       6.12456030       0.00000000       0.00000000       0.01258926      -0.01303866       0.00153502      -0.10657346
C        2.77684720      -1.49421704       0.32393583       0.00000000       0.00000000       0.00460398       0.03551384       0.06854973       0.26807342
O        1.79115204      -1.19072376       1.03173580       0.00000000       0.00000000      -0.00881856       0.01923942      -0.00728178      -0.38465098
C        3.23330465      -0.39980523      -0.62459201       0.00000000       0.00000000      -0.01764102       0.02778294      -0.00083383       0.08533146
C        4.51499841      -0.10660812      -1.11050998       0.00000000       0.00000000      -0.03699693      -0.00146140       0.00177810      -0.03025173
C        4.68331309       0.96728184      -1.95680329       0.00000000       0.00000000       0.02763424      -0.04156299       0.00997337      -0.00300347
C        3.58980797       1.77464018      -2.30861205       0.00000000       0.00000000       0.03929898      -0.06011097       0.06745328       0.02821741
C        3.70731519       2.91258213      -3.15510464       0.00000000       0.00000000       0.14366643      -0.08932606       0.03081677      -0.01977755
C        2.62176305       3.65841565      -3.45318298       0.00000000       0.00000000      -0.09053289       0.07261648      -0.10126171      -0.02292285
C        1.33905141       3.33349335      -2.92880207       0.00000000       0.00000000      -0.08283681      -0.00291107      -0.01499871       0.02462734
C        0.19568183       4.08746547      -3.21682327       0.00000000       0.00000000      -0.05371014       0.08088993       0.00252157      -0.00554912
C       -1.00375023       3.78217954      -2.61878106       0.00000000       0.00000000      -0.09707148       0.05444157       0.06628669      -0.03685503
C       -1.08521922       2.70409101      -1.72919708       0.00000000       0.00000000      -0.01997089      -0.00513392       0.02821835       0.07636153
C       -2.25176613       2.35545315      -0.82269618       0.00000000       0.00000000      -0.07101241       0.06821645      -0.02326092       0.25160281
O       -1.97617656       1.51590262       0.06665993       0.00000000       0.00000000       0.05304159      -0.05231463       0.07492602      -0.42855390
N       -3.49378419       2.86094492      -0.87082821       0.00000000       0.00000000       0.02613373       0.00815496      -0.01149166      -0.05345815
C       -4.41479413       2.49049866       0.21595975       0.00000000       0.00000000       0.01480354       0.02529943      -0.02953658      -0.01378594
C       -5.50148173       1.48064364      -0.17870472       0.00000000       0.00000000       0.05693457      -0.00998292      -0.04102637      -0.07583546
C       -5.07180632       0.01496858      -0.01520931       0.00000000       0.00000000       0.05535803      -0.01556238      -0.06301907      -0.07647567
C       -5.14312532      -0.85980517      -1.29030155       0.00000000       0.00000000      -0.00537168       0.01314690      -0.02461081      -0.07504836
C       -4.80094369      -0.28577222      -2.68675248       0.00000000       0.00000000      -0.05273847      -0.02783174       0.04406491      -0.08203711
C       -3.34664659      -0.09562005      -3.13223622       0.00000000       0.00000000      -0.06447963      -0.02617112       0.03204178      -0.06054169
C       -3.20433636       0.35229125      -4.58677961       0.00000000       0.00000000      -0.03226347       0.01108661      -0.01341058      -0.06254320
C       -1.73777868       0.50256430      -4.96717519       0.00000000       0.00000000       0.02608420       0.00106098      -0.00654266      -0.10377026
C       -4.03639033       3.90962937      -1.73064066       0.00000000       0.00000000       0.00673237       0.01148127      -0.09441771      -0.01956765
C       -4.38366771       3.53054812      -3.17034436       0.00000000       0.00000000      -0.03475168       0.03683048      -0.11868665      -0.06564142
C       -4.99827547       4.74684220      -3.87431643       0.00000000       0.00000000      -0.00984591       0.03370922      -0.09567273      -0.06737249
C       -5.45754201       4.45799914      -5.31903533       0.00000000       0.00000000       0.00546556       0.01412139       0.04016898      -0.06276221
C       -6.94917666       4.73657897      -5.55731075       0.00000000       0.00000000       0.11098174      -0.00688872       0.02622906      -0.06667788
C       -7.85303310       3.57155995      -5.14686933       0.00000000       0.00000000       0.03412185       0.03024874      -0.03915070      -0.06607288
C       -8.18476254       3.49612926      -3.65696202       0.00000000       0.00000000       0.01782870       0.01761334      -0.03647406      -0.05149118
C       -9.23231743       2.42286332      -3.39337365       0.00000000       0.00000000      -0.00087150       0.00137145       0.01213313      -0.10734061
N       -0.02343127       1.91430439      -1.51733292       0.00000000       0.00000000      -0.00721903       0.02603642       0.01725972      -0.14965147
C        1.16269874       2.21947497      -2.07221197       0.00000000       0.00000000       0.05327799      -0.01276512      -0.00791655       0.08933443
C        2.33235933       1.41864818      -1.76297113       0.00000000       0.00000000       0.02967171      -0.00960279      -0.00034527       0.09238983
N        2.19243789       0.36788999      -0.94713302       0.00000000       0.00000000      -0.05657871      -0.02847142       0.01104355      -0.14868873
H        2.75968278       2.27396477       1.15464263       0.00000000       0.00000000      -0.01588438       0.03035745       0.01108664       0.03057432
H        4.44953186       1.83597851       0.92664078       0.00000000       0.00000000       0.01264556       0.01380307      -0.06096332       0.02757209
H        4.05214099       3.28413757       1.83962569       0.00000000       0.00000000       0.00257477       0.01142592      -0.03247992       0.04222141
H        3.16253130       0.50663354       2.73774191       0.00000000       0.00000000       0.06160285       0.06155108      -0.00600791       0.02660418
H        3.14215820       1.99339726       3.67069462       0.00000000       0.00000000       0.02611272      -0.01833085      -0.03544284       0.02469485
H        5.00223627       0.65537156       4.43086224       0.00000000       0.00000000       0.01870452       0.01023336      -0.03080802       0.04121606
H        5.60594285       2.11604057       3.65751453       0.00000000       0.00000000      -0.01639878      -0.05172130      -0.03108025       0.04633393
H        6.95404847       0.15598936       3.05306107       0.00000000       0.00000000      -0.02591628       0.01237301       0.00384170       0.05153547
H        6.19789138       0.86711673       1.63489460       0.00000000       0.00000000       0.03745639      -0.08330971       0.00455960       0.02774102
H        4.42834133      -0.87582254       1.71113768       0.00000000       0.00000000      -0.01939772      -0.00355820      -0.00065171       0.01888935
H        5.15406933      -1.56883152       3.15617753       0.00000000       0.00000000       0.02425055      -0.01061519      -0.01762061       0.04652871
H        7.18740089      -2.13282196       1.92938911       0.00000000       0.00000000       0.03151483      -0.04825926       0.04254628       0.06219594
H        6.61141129      -1.36126057       0.47817530       0.00000000       0.00000000       0.06350706       0.03502960      -0.00882492       0.03224682
H        5.25719829      -3.72997442       1.82831475       0.00000000       0.00000000      -0.03259443      -0.06254858      -0.02979824       0.06115965
H        6.43894604      -3.87234557       0.53213362       0.00000000       0.00000000       0.02840804      -0.03354565       0.01929454       0.07056566
H        4.40878053      -4.19030738      -0.52498876       0.00000000       0.00000000       0.08276463       0.02279093      -0.06527859       0.07223717
H        4.88265425      -2.55862730      -0.97915039       0.00000000       0.00000000      -0.05381922      -0.01123691      -0.01195615       0.06634049
H        2.90153588      -4.73168454       0.73891802       0.00000000       0.00000000      -0.06181561      -0.00879347       0.02438955       0.07155399
H        1.45322525      -3.72289903       0.54184798       0.00000000       0.00000000       0.03844288       0.01442504      -0.05056624       0.05388407
H        1.93548497      -2.68326737       2.77911796       0.00000000       0.00000000       0.02481742      -0.01734823      -0.03077648       0.06265241
H        3.21038246      -3.88970450       3.01680452       0.00000000       0.00000000       0.02301124       0.02980457      -0.07010247       0.05456442
H        1.55077846      -5.71592480       2.81526796       0.00000000       0.00000000       0.00203577       0.05226791      -0.00549519       0.04402692
H        0.26417026      -4.53881029       2.52812910       0.00000000       0.00000000       0.06718985       0.02317524      -0.01662399       0.01379369
H        0.75899747      -3.47698525       4.72615641       0.00000000       0.00000000       0.08029274      -0.05217393       0.00175671       0.03227222
H        2.02885772      -4.67408733       5.00659073       0.00000000       0.00000000      -0.04716533       0.00993258      -0.02258978       0.04904453
H        0.28400330      -5.45432339       6.28701734       0.00000000       0.00000000       0.02269519      -0.01853584      -0.00732545       0.05179483
H        0.12441148      -6.44568439       4.84465377       0.00000000       0.00000000       0.00718001       0.00239289      -0.00051699       0.04396467
H       -1.80275118      -5.20136370       4.11190961       0.00000000       0.00000000      -0.00672834       0.00361266       0.03221311       0.01440724
H       -1.43858707      -3.85535856       5.19932525       0.00000000       0.00000000      -0.00019297      -0.04392697       0.00609420       0.01245253
H       -1.88274333      -5.29646068       7.16034911       0.00000000       0.00000000       0.01936119      -0.03084937       0.00195633       0.04429002
H       -2.25387761      -6.65225695       6.09896650       0.00000000       0.00000000      -0.01263108      -0.00616112       0.00780319       0.04572688
H       -3.79757507      -4.01655727       6.20905075       0.00000000       0.00000000      -0.00342983      -0.01527346      -0.00887508       0.02535176
H       -4.30273913      -5.53226582       6.94706664       0.00000000       0.00000000      -0.00720519      -0.01643282      -0.00972217       0.05592551
H       -4.21104606      -5.40972984       5.19427432       0.00000000       0.00000000      -0.01650157      -0.00458260       0.01037374       0.02780389
H        5.37370200      -0.67612994      -0.79998492       0.00000000       0.00000000      -0.01825355       0.05784561      -0.04918816       0.09603605
H        5.66368932       1.18735515      -2.35403794       0.00000000       0.00000000      -0.01897937       0.07124643       0.03088728       0.09265563
H        4.68002362       3.16544971      -3.54529105       0.00000000       0.00000000       0.02793362      -0.00112627      -0.02499426       0.09128460
H        2.70682231       4.51567753      -4.09943780       0.00000000       0.00000000      -0.02594870       0.07589990      -0.03461186       0.09105644
H        0.25769580       4.93001394      -3.88378411       0.00000000       0.00000000       0.05007595       0.07225562      -0.09539962       0.09251903
H       -1.85602658       4.39449612      -2.83266177       0.00000000       0.00000000      -0.02312926       0.06250077      -0.06869553       0.09094359
H       -4.89893044       3.41434628       0.53533637       0.00000000       0.00000000       0.04950845      -0.01149277       0.10269052       0.07224053
H       -3.82343925       2.10667932       1.04955332       0.00000000       0.00000000      -0.02360558      -0.00876298      -0.00631650       0.07108388
H       -5.80858108       1.66142060      -1.20560204       0.00000000       0.00000000      -0.04712623       0.09124022       0.01037835       0.07069510
H       -6.37615739       1.67219637       0.44403707       0.00000000       0.00000000       0.07893233       0.01961334      -0.00046068       0.06575607
H       -5.72652824      -0.45794584       0.72243281       0.00000000       0.00000000       0.02470912      -0.01954265      -0.11734479       0.04882581
H       -4.07833711      -0.01943020       0.43638435       0.00000000       0.00000000       0.00737048       0.05506494      -0.01428696       0.03549538
H       -6.18286765      -1.18458629      -1.37844524       0.00000000       0.00000000       0.02045194       0.03300074      -0.01045272       0.05788651
H       -4.55890729      -1.76539906      -1.09124449       0.00000000       0.00000000      -0.04400134       0.04045226      -0.12741964       0.02528168
H       -5.32989517       0.65487801      -2.83355954       0.00000000       0.00000000      -0.03437581      -0.02402891       0.03162334       0.04489683
H       -5.24206983      -0.99399512      -3.38519991       0.00000000       0.00000000       0.02623276       0.02981078      -0.05221425       0.07379889
H       -2.82979168      -1.05986629      -3.07707581       0.00000000       0.00000000       0.04797088       0.03112737       0.04133910       0.02080776
H       -2.82434140       0.65378548      -2.52775810       0.00000000       0.00000000      -0.02665831      -0.06022706       0.02742336       0.01454090
H       -3.71873176       1.29684778      -4.74412754       0.00000000       0.00000000      -0.05716257       0.05004444      -0.03883714       0.04059681
H       -3.65855884      -0.38826272      -5.24138470       0.00000000       0.00000000      -0.02750477      -0.00747881      -0.04774144       0.05539715
H       -1.23346521       1.22595665      -4.32635767       0.00000000       0.00000000      -0.01211992       0.03099720       0.01497850       0.01056051
H       -1.64695489       0.83129930      -5.99746566       0.00000000       0.00000000      -0.00937273       0.04242166      -0.01933557       0.05575007
H       -1.21908534      -0.44772984      -4.87490569       0.00000000       0.00000000       0.00103981      -0.03397669       0.01555239       0.03310464
H       -3.35631129       4.76514273      -1.73869838       0.00000000       0.00000000      -0.06143235       0.04046885       0.00337327       0.05904577
H       -4.96460885       4.24801117      -1.26399717       0.00000000       0.00000000       0.08167214       0.01043473      -0.03187705       0.08249503
H       -5.12223632       2.73041340      -3.19316419       0.00000000       0.00000000       0.02098647      -0.04535062       0.09935739       0.05344571
H       -3.50130155       3.18311615      -3.70846425       0.00000000       0.00000000       0.02565581       0.05785960      -0.02775497       0.03671016
H       -4.27447336       5.56386339      -3.87978036       0.00000000       0.00000000       0.01587603      -0.00208811       0.01554774       0.03133591
H       -5.86171597       5.08949100      -3.30154714       0.00000000       0.00000000       0.08523421      -0.02333751       0.03015177       0.05462531
H       -5.26511734       3.41151892      -5.57404049       0.00000000       0.00000000       0.05211621       0.07773893       0.01296071       0.03453894
H       -4.87145338       5.07048659      -6.00764036       0.00000000       0.00000000      -0.04286400      -0.04179770       0.05073984       0.04161074
H       -7.09445037       4.92237488      -6.62401586       0.00000000       0.00000000       0.02918383      -0.04946378       0.06246680       0.04795491
H       -7.24907808       5.64387395      -5.02859512       0.00000000       0.00000000       0.02453430      -0.01678753      -0.05327546       0.04315722
H       -7.37656432       2.63997311      -5.45930660       0.00000000       0.00000000      -0.06094055      -0.04747959      -0.01942477       0.03200418
H       -8.78926198       3.65471769      -5.69826283       0.00000000       0.00000000      -0.05387031       0.02390576       0.02886820       0.04738890
H       -8.56753080       4.46133952      -3.31901217       0.00000000       0.00000000      -0.00451955      -0.00509161      -0.02147555       0.03442263
H       -7.28699244       3.27124620      -3.07527317       0.00000000       0.00000000      -0.01996344       0.00128350      -0.00779088       0.01042677
H      -10.13615409       2.64142001      -3.95313071       0.00000000       0.00000000      -0.03838211      -0.01651765       0.00395616       0.04882710
H       -9.48666119       2.37690726      -2.33870398       0.00000000       0.00000000      -0.01634254       0.00164456       0.06038502       0.03419373
H       -8.86890283       1.44538386      -3.70234915       0.00000000       0.00000000       0.00215835      -0.03165268      -0.00639312       0.02837949
C        3.53032701      -2.40009441       6.93308432       0.00000000       0.00000000      -0.00326008       0.01849570       0.00694267      -0.11056009
C        3.36491413      -1.77391662       5.55489283       0.00000000       0.00000000       0.05907845      -0.03724045       0.03523339      -0.05475693
C        2.03693153      -1.04112734       5.37851877       0.00000000       0.00000000       0.07665282      -0.03180437       0.02422946      -0.05306348
C        1.98810735       0.29558041       6.10948178       0.00000000       0.00000000      -0.01358776       0.02136625       0.00379406      -0.06430045
C        0.73660193       1.05979243       5.70058760       0.00000000       0.00000000      -0.01704157       0.00626968      -0.00273528      -0.05685074
C        0.64605266       2.45578991       6.32937213       0.00000000       0.00000000      -0.03413642      -0.05517258       0.01419945      -0.07123082
C        0.97757754       3.56135377       5.33037102       0.00000000       0.00000000      -0.02436887      -0.01371556       0.03222254      -0.07097724
C       -0.17099957       3.85415518       4.34372007       0.00000000       0.00000000      -0.00830171       0.03303462      -0.02066800      -0.02569545
N        0.06301780       3.40070756       2.98152899       0.00000000       0.00000000       0.06763581      -0.04097630      -0.06245093      -0.04229832
C        0.88506599       4.36406108       2.22490155       0.00000000       0.00000000       0.03912852       0.06065564      -0.01733747      -0.01497341
C        0.29082907       5.76012413       1.97499127       0.00000000       0.00000000       0.00548856      -0.02287022      -0.00617741      -0.07198213
C       -0.65402705       5.82444768       0.77881461       0.00000000       0.00000000       0.00957034       0.00701125       0.00935462      -0.06166607
C       -2.04459869       5.23842207       1.02366530       0.00000000       0.00000000       0.03539028       0.00529882       0.01846906      -0.05964769
C       -2.99959083       6.17950961       1.77705219       0.00000000       0.00000000       0.03403628      -0.02038171      -0.04107398      -0.06710312
C       -3.12426951       5.92564740       3.27775648       0.00000000       0.00000000       0.02813675       0.05805201      -0.05486082      -0.06546386
C       -3.75378192       4.57607803       3.61422099       0.00000000       0.00000000       0.03048394       0.06586516      -0.07617115      -0.05234126
C       -3.93113465       4.42546427       5.11688037       0.00000000       0.00000000      -0.01008011      -0.00482559       0.00561520      -0.11121917
C       -0.09819450       2.17583826       2.46091413       0.00000000       0.00000000      -0.01989937       0.05204626       0.14000733       0.26072580
O        0.45518440       1.88705888       1.37537790       0.00000000       0.00000000       0.04003003      -0.06851826      -0.11395867      -0.40216857
C       -0.97564190       1.06466735       3.03804031       0.00000000       0.00000000      -0.02941138      -0.02959693      -0.05836378       0.08541527
C       -1.95265553       1.16888358       4.04236331       0.00000000       0.00000000       0.00291938       0.03286140      -0.02408545      -0.03073517
C       -2.72940678       0.07735681       4.34737923       0.00000000       0.00000000       0.01190331       0.13506533       0.05497615      -0.00788907
C       -2.57437702      -1.13190766       3.65561436       0.00000000       0.00000000      -0.02883506       0.16781662       0.03370347       0.02430004
C       -3.45450809      -2.22534635       3.87948960       0.00000000       0.00000000       0.00192786       0.08944726       0.03257041      -0.02156072
C       -3.37479554      -3.33566825       3.11576001       0.00000000       0.00000000      -0.05483693      -0.02062239       0.01222982      -0.01906077
C       -2.41061802      -3.42244294       2.07991720       0.00000000       0.00000000      -0.02181014      -0.08360638      -0.10679013       0.02720267
C       -2.36550620      -4.52745289       1.21933214       0.00000000       0.00000000       0.02280692      -0.04475093      -0.06511300      -0.00759117
C       -1.57390378      -4.50853901       0.09635197       0.00000000       0.00000000      -0.02296039       0.05782722      -0.06654033      -0.03773064
C       -0.82052659      -3.35764780      -0.18905060       0.00000000       0.00000000      -0.00247690       0.02494101      -0.00075776       0.06809624
C       -0.16341041      -2.93287942      -1.50131774       0.00000000       0.00000000      -0.02778604      -0.01203971       0.00040837       0.24518817
O        0.37713126      -1.79724685      -1.46317715       0.00000000       0.00000000      -0.07162598       0.01448766      -0.03500887      -0.42050529
N       -0.24807491      -3.56622902      -2.67811663       0.00000000       0.00000000      -0.00243569      -0.01623856      -0.03840104      -0.04856527
C       -0.61765120      -4.94624186      -2.98509434       0.00000000       0.00000000       0.07311046      -0.03585988       0.06843226      -0.02288697
C       -1.60095017      -5.16930758      -4.14131883       0.00000000       0.00000000      -0.00394528      -0.00462351       0.04663905      -0.07702180
C       -3.05270908      -4.76288772      -3.84561995       0.00000000       0.00000000      -0.03777526       0.07487211      -0.04241145      -0.06718330
C       -3.56305349      -3.67436901      -4.79226652       0.00000000       0.00000000      -0.02776653       0.03784900      -0.04993718      -0.06166450
C       -5.08960665      -3.56879843      -4.77966669       0.00000000       0.00000000       0.00007935       0.04859288      -0.04469733      -0.06382903
C       -5.59489767      -2.54963285      -5.81387723       0.00000000       0.00000000      -0.02136334       0.04693927       0.04584258      -0.06582846
C       -6.84608291      -1.76909384      -5.36944544       0.00000000       0.00000000       0.03632687       0.02038943      -0.06050793      -0.05819316
C       -6.73697339      -0.28491361      -5.71742319       0.00000000       0.00000000      -0.03556401      -0.03192862       0.00708291      -0.10872581
C        0.25411176      -2.85759440      -3.86295806       0.00000000       0.00000000       0.02100472      -0.01373101      -0.05709131      -0.01604121
C        1.56453372      -3.41299371      -4.43421593       0.00000000       0.00000000       0.03886484       0.01456484       0.02915578      -0.07164415
C        2.81744226      -2.83511555      -3.76015162       0.00000000       0.00000000      -0.01755105       0.01770925       0.00879690      -0.06139148
C        3.49144008      -1.73234798      -4.58095124       0.00000000       0.00000000      -0.01774756      -0.01089926       0.01941886      -0.06962515
C        2.71434391      -0.40937729      -4.63469972       0.00000000       0.00000000       0.06408514      -0.02539513       0.03294215      -0.05432416
C        1.74101952      -0.23091786      -5.80543172       0.00000000       0.00000000       0.03140627      -0.02783159       0.08159058      -0.06264421
C        2.39230815       0.15901867      -7.13548279       0.00000000       0.00000000      -0.01981184       0.01998681       0.02739273      -0.05817517
C        2.99862088      -0.99944028      -7.91746611       0.00000000       0.00000000       0.02149504       0.00501731      -0.00420595      -0.10833567
N       -0.75391393      -2.36776954       0.70924572       0.00000000       0.00000000       0.06436947       0.02076053      -0.01662108      -0.13382705
C       -1.51158036      -2.35904762       1.81069846       0.00000000       0.00000000      -0.05296121      -0.00011948       0.02540476       0.09441935
C       -1.57910559      -1.16610463       2.64823066       0.00000000       0.00000000      -0.05792984       0.00821842      -0.04387078       0.09257901
N       -0.81821675      -0.08937066       2.37717996       0.00000000       0.00000000      -0.04599750      -0.00637414      -0.06485790      -0.14919820
H        2.68403811      -3.04414065       7.16210722       0.00000000       0.00000000       0.03850167      -0.01182947       0.01955673       0.03956297
H        3.60298624      -1.63535404       7.70053827       0.00000000       0.00000000      -0.02017951      -0.00827764       0.02079114       0.04561876
H        4.44043101      -2.99489536       6.96369065       0.00000000       0.00000000      -0.04030592       0.00511640       0.03425403       0.04510705
H        3.43365946      -2.56038104       4.80110348       0.00000000       0.00000000       0.00828396       0.01334574       0.03757961       0.02467345
H        4.18584375      -1.07438465       5.38388104       0.00000000       0.00000000      -0.01964819      -0.02980426      -0.01788582       0.03372925
H        1.22333211      -1.66938587       5.74817135       0.00000000       0.00000000       0.01026018      -0.00520202      -0.00742551       0.02979389
H        1.86174276      -0.86688315       4.30893567       0.00000000       0.00000000       0.01801017       0.02608584       0.01990264       0.00880390
H        2.87090535       0.88673732       5.86035714       0.00000000       0.00000000       0.01305622      -0.00981580       0.01813414       0.03942617
H        1.98029156       0.13693767       7.18708648       0.00000000       0.00000000       0.03269388      -0.03051118       0.00586193       0.05329900
H       -0.14153466       0.46092831       5.95843887       0.00000000       0.00000000       0.03818990       0.03875831       0.04969054       0.02276021
H        0.75553061       1.15083222       4.60971341       0.00000000       0.00000000      -0.04215788      -0.00082820       0.02806766       0.01570494
H        1.34404655       2.52322111       7.16432931       0.00000000       0.00000000      -0.02440957      -0.02766630      -0.00181432       0.06467557
H       -0.35293567       2.62015177       6.73340764       0.00000000       0.00000000       0.00065516       0.04554602       0.06007681       0.04140756
H        1.89049577       3.28161461       4.80469260       0.00000000       0.00000000      -0.03002339       0.07543494      -0.10754427       0.05077935
H        1.18923704       4.47908312       5.87589052       0.00000000       0.00000000       0.00859043       0.03242251       0.06120422       0.06583156
H       -0.30327459       4.93013254       4.26721597       0.00000000       0.00000000       0.06947526       0.06801109       0.07781061       0.08408119
H       -1.10344672       3.47510892       4.74223773       0.00000000       0.00000000       0.02981384      -0.10485897       0.01075761       0.07328103
H        1.11579189       3.92930628       1.25214139       0.00000000       0.00000000      -0.02308264      -0.09228794       0.04271603       0.07548452
H        1.82675056       4.50200716       2.76226909       0.00000000       0.00000000      -0.03474787      -0.10531577       0.10652548       0.07306377
H        1.13902989       6.41560949       1.76327753       0.00000000       0.00000000       0.00318614      -0.05594252       0.01082139       0.06287156
H       -0.20435126       6.17576269       2.84986781       0.00000000       0.00000000       0.01646393      -0.02776903      -0.01767162       0.06573888
H       -0.17666178       5.30070611      -0.05629616       0.00000000       0.00000000      -0.05071099      -0.00014723      -0.02909513       0.01386021
H       -0.77722842       6.86762770       0.48476027       0.00000000       0.00000000       0.07471825       0.01460795      -0.03134112       0.05616194
H       -1.94709699       4.28439562       1.54266784       0.00000000       0.00000000      -0.04139774      -0.02047065      -0.01830181       0.02257225
H       -2.47368094       5.03588155       0.04421900       0.00000000       0.00000000      -0.00040332       0.01850044       0.04528857       0.01476324
H       -3.99964659       6.09699590       1.34508321       0.00000000       0.00000000       0.01944720      -0.00012783      -0.01408565       0.03436693
H       -2.66703157       7.20737786       1.62051001       0.00000000       0.00000000      -0.05503200      -0.01264236       0.01582550       0.05104406
H       -3.74338341       6.71771505       3.69989007       0.00000000       0.00000000      -0.05578490      -0.01951594       0.01202352       0.05440626
H       -2.14802156       6.00638532       3.75489740       0.00000000       0.00000000      -0.00757796      -0.02726477       0.02719151       0.03028891
H       -3.13140509       3.76507168       3.22163727       0.00000000       0.00000000      -0.01128159      -0.00434446       0.01332255       0.00309138
H       -4.72651116       4.50199565       3.12403858       0.00000000       0.00000000      -0.01898638       0.00761751       0.02532288       0.03343441
H       -2.99003140       4.57725679       5.63750050       0.00000000       0.00000000       0.06391416       0.00131272       0.05432341       0.03318148
H       -4.31934861       3.44525187       5.37092972       0.00000000       0.00000000      -0.06348747      -0.10487179       0.03161044       0.03257609
H       -4.62951534       5.16968381       5.48082064       0.00000000       0.00000000      -0.06379349       0.04510331       0.05244453       0.05811292
H       -2.13243631       2.08246203       4.57935137       0.00000000       0.00000000      -0.02940687      -0.04158917      -0.04125471       0.09053911
H       -3.48891417       0.16133710       5.10848472       0.00000000       0.00000000      -0.03504927      -0.03457667       0.04649263       0.09006760
H       -4.21148216      -2.12778992       4.63813739       0.00000000       0.00000000      -0.03463293       0.01369626       0.08880530       0.08893342
H       -4.06710815      -4.14725357       3.24774866       0.00000000       0.00000000      -0.03810744      -0.10933852       0.02133677       0.09221762
H       -2.99851417      -5.38149453       1.40380494       0.00000000       0.00000000       0.00205365      -0.01712950       0.08632075       0.09036690
H       -1.60088192      -5.37277731      -0.54069831       0.00000000       0.00000000       0.03052835      -0.01568239       0.04259278       0.07920918
H       -1.02546207      -5.43340360      -2.11304490       0.00000000       0.00000000       0.02670410      -0.02155065       0.06216741       0.06834189
H        0.30576024      -5.46914858      -3.24448501       0.00000000       0.00000000       0.06853658      -0.06515751       0.04225087       0.07642609
H       -1.56502780      -6.23817453      -4.34993083       0.00000000       0.00000000       0.00676775      -0.04520328       0.04205293       0.07045365
H       -1.25948679      -4.68132719      -5.05240791       0.00000000       0.00000000       0.02214944      -0.03548946       0.01518022       0.06224767
H       -3.14872873      -4.42426103      -2.80970543       0.00000000       0.00000000      -0.02033951       0.00895167      -0.02193001       0.01913211
H       -3.70307973      -5.62974825      -3.96156311       0.00000000       0.00000000       0.03953607      -0.01989948       0.02967276       0.05809124
H       -3.23804790      -3.89147048      -5.81265597       0.00000000       0.00000000      -0.05311343      -0.08116429       0.03889997       0.04273504
H       -3.13072599      -2.70759150      -4.51428015       0.00000000       0.00000000      -0.00051230      -0.05617257      -0.03343289       0.01686691
H       -5.41237635      -3.28291800      -3.77318910       0.00000000       0.00000000      -0.00332155      -0.02840417      -0.05915768       0.02557736
H       -5.51595198      -4.54935057      -4.99209299       0.00000000       0.00000000      -0.01908752       0.02187207       0.03222594       0.04579213
H       -5.78201465      -3.04530885      -6.76668665       0.00000000       0.00000000      -0.04360718      -0.04474074       0.08421391       0.04631327
H       -4.79324546      -1.83526985      -6.01093727       0.00000000       0.00000000       0.01412492       0.05437260       0.04020573       0.02978744
H       -6.98039288      -1.86621032      -4.28535688       0.00000000       0.00000000      -0.05099182      -0.02447616      -0.13917968       0.02452201
H       -7.73891162      -2.17758176      -5.84470482       0.00000000       0.00000000       0.06526906      -0.02300176       0.05925212       0.04796202
H       -7.61663349       0.24946791      -5.36826455       0.00000000       0.00000000      -0.06736242      -0.03721862      -0.07850851       0.04166025
H       -6.64403982      -0.13850639      -6.79148075       0.00000000       0.00000000      -0.05305832      -0.04957232       0.04326545       0.04405677
H       -5.86622532       0.15585434      -5.23637130       0.00000000       0.00000000      -0.05380098       0.02534931      -0.07768909       0.02400359
H        0.37999003      -1.80307326      -3.61592614       0.00000000       0.00000000       0.02553443      -0.04636393       0.08583363       0.08181620
H       -0.52230334      -2.93826276      -4.62239858       0.00000000       0.00000000      -0.06999222       0.01918347      -0.01432228       0.07209126
H        1.58660211      -3.18154845      -5.50040134       0.00000000       0.00000000       0.05150110      -0.02204264       0.06501653       0.07024436
H        1.57821235      -4.50069954      -4.36273683       0.00000000       0.00000000      -0.02059568       0.05672196       0.00185684       0.05294862
H        3.54873217      -3.63375228      -3.61152105       0.00000000       0.00000000      -0.04826112       0.03160054      -0.03469151       0.04109624
H        2.55025368      -2.44481001      -2.77289305       0.00000000       0.00000000       0.02318651      -0.02467815       0.01234502       0.02177518
H        3.65531114      -2.10030906      -5.59129142       0.00000000       0.00000000       0.04006579      -0.00519640       0.04289037       0.06849690
H        4.47424184      -1.54543589      -4.13873324       0.00000000       0.00000000      -0.03966782       0.02733798      -0.01775752       0.02715407
H        3.43457211       0.41060412      -4.68599081       0.00000000       0.00000000      -0.01084627       0.01904840       0.00512446       0.02501862
H        2.16220580      -0.29543317      -3.69266359       0.00000000       0.00000000       0.01331787      -0.00190161      -0.05576458       0.00406615
H        1.04579988       0.56534800      -5.52684956       0.00000000       0.00000000       0.02110391       0.04145407      -0.00679535       0.01684689
H        1.15268036      -1.13472554      -5.94923382       0.00000000       0.00000000      -0.03238111      -0.00630661      -0.03896591       0.03730998
H        3.15775244       0.91477485      -6.95359394       0.00000000       0.00000000       0.00834970       0.03138914      -0.02073492       0.03481570
H        1.62108151       0.61929434      -7.75373121       0.00000000       0.00000000      -0.03451520       0.01399608      -0.04206414       0.03959554
H        3.94266747      -1.32159324      -7.49060976       0.00000000       0.00000000       0.03960944      -0.02835517       0.01620397       0.03958374
H        3.19469967      -0.68817384      -8.93844346       0.00000000       0.00000000       0.00934497       0.01170258      -0.04269002       0.05323552
H        2.31614439      -1.84557215      -7.95034093       0.00000000       0.00000000      -0.01201913      -0.00502953      -0.01983120       0.03451589
O       -2.14303220      -0.89217596      -0.67842340       0.00000000       0.00000000      -0.08063128       0.10735909      -0.12158308      -0.53427945
H       -2.75603322      -0.14044049      -0.76933327       0.00000000       0.00000000      -0.03864403      -0.09496038       0.16179878       0.36008679
H       -2.29904939      -1.41413807      -1.47713413       0.00000000       0.00000000      -0.01772779      -0.17330704      -0.02405740       0.32676699
