355
Properties=species:S:1:pos:R:3:initial_charges:R:1:initial_magmoms:R:1:forces:R:3:charge:R:1 energy=-12940.000782073424 free_energy=-12940.000782073424 dipole="-0.8604117926739483 -4.5649080253657095 -0.9166924035405624" pbc="F F F"
Eu       0.02290063      -0.08138505      -0.08928637       3.00000000       0.00000000      -0.01738890       0.12527863       0.05438703       0.86422580
C       -8.49566221      -0.53039925      -2.33242812       0.00000000       0.00000000      -0.01675888      -0.01863147       0.01874030      -0.10102423
C       -9.14357149      -0.48336434      -0.95214374       0.00000000       0.00000000       0.01915210       0.04693913      -0.01512967      -0.06094721
C       -9.69722173      -1.84544438      -0.53398485       0.00000000       0.00000000       0.04818397       0.04500395      -0.07064923      -0.05830637
C      -10.43761564      -1.81879317       0.80820917       0.00000000       0.00000000      -0.01894132       0.01489278      -0.07806381      -0.06582119
C       -9.58468658      -2.09921665       2.04699592       0.00000000       0.00000000      -0.02302712      -0.04820150      -0.00928088      -0.07415281
C       -8.48269087      -1.07802891       2.32357119       0.00000000       0.00000000       0.00051723      -0.02287317       0.01733337       0.10818288
C       -8.08185139      -1.00758703       3.79215719       0.00000000       0.00000000      -0.00240621      -0.02175217       0.07242106      -0.12457207
O       -7.34180543      -1.26218839       1.47950631       0.00000000       0.00000000       0.01094409       0.05830111       0.07811150      -0.28368505
C       -6.62753573      -2.40297775       1.34972304       0.00000000       0.00000000      -0.02392044       0.03878828       0.02393798       0.15105285
C       -5.86980187      -2.39639784       0.17777734       0.00000000       0.00000000       0.06206784      -0.10560017      -0.07794175      -0.08561989
C       -4.96653675      -3.40256307      -0.10183128       0.00000000       0.00000000       0.05146000      -0.03540278      -0.08244129      -0.00734053
C       -4.23950784      -3.39626469      -1.42025647       0.00000000       0.00000000       0.03081052      -0.01141371      -0.02606176      -0.04118659
N       -2.81005316      -3.16314612      -1.33342085       0.00000000       0.00000000      -0.01482252       0.02029231      -0.02168385      -0.13078217
C       -2.25477003      -2.01842962      -0.98275494       0.00000000       0.00000000      -0.03254025      -0.02513759      -0.01946249       0.27382383
O       -1.04601531      -1.79711695      -1.16555640       0.00000000       0.00000000       0.04345355       0.02798839       0.02114762      -0.39703155
C       -3.16087940      -0.99964990      -0.30154646       0.00000000       0.00000000       0.02872874      -0.02760367      -0.04834033       0.04370297
O       -2.39183585       0.14400078       0.01338084       0.00000000       0.00000000      -0.03435774       0.02746816      -0.07244917      -0.22098937
C       -2.99858485       1.01092672       0.97604569       0.00000000       0.00000000      -0.00208080       0.00444336       0.02504346       0.03457331
C       -2.12314546       0.92033149       2.24076352       0.00000000       0.00000000       0.03007164      -0.01433983      -0.00362167       0.25516814
O       -0.89550016       0.92817299       2.04482177       0.00000000       0.00000000       0.03613349      -0.08065887      -0.12040704      -0.38095286
N       -2.67637699       0.80125765       3.44111242       0.00000000       0.00000000       0.01642069      -0.03275135      -0.05462829      -0.04770317
C       -4.09935751       0.98917836       3.67327529       0.00000000       0.00000000      -0.05361193       0.04731996      -0.01092392      -0.02469306
C       -4.49003075       2.46041557       3.50263111       0.00000000       0.00000000      -0.05304767       0.08306766       0.02015294      -0.07334124
C       -5.97274533       2.70772551       3.78049951       0.00000000       0.00000000      -0.04138809      -0.00203518       0.02464057      -0.05912256
C       -6.34157876       4.17900026       3.60947722       0.00000000       0.00000000       0.01757810      -0.05416593       0.00674967      -0.11343001
C       -1.81296073       0.56887724       4.59684080       0.00000000       0.00000000       0.05683679      -0.01357323      -0.00098679      -0.01564816
C       -1.45989768      -0.91308544       4.75722460       0.00000000       0.00000000       0.01636014      -0.05011064       0.01892725      -0.06824983
C       -0.61991812      -1.15798877       6.01388014       0.00000000       0.00000000      -0.00017172      -0.00248343       0.02217657      -0.06016201
C       -0.28201368      -2.63450026       6.20402694       0.00000000       0.00000000      -0.01980036       0.03354425      -0.03108501      -0.10977852
C       -4.81154364      -4.45221756       0.79364984       0.00000000       0.00000000       0.01262825      -0.00617408      -0.05536872      -0.05794610
C       -5.60362734      -4.52053978       1.93157525       0.00000000       0.00000000       0.03239367       0.02772505       0.02031888       0.01161449
C       -5.50614789      -5.74682099       2.81341942       0.00000000       0.00000000       0.04037220      -0.00602719       0.00508690      -0.00758498
N       -4.21805258      -5.90167898       3.47881268       0.00000000       0.00000000      -0.03181410      -0.01693190       0.05914659      -0.18999633
C       -4.20363497      -5.96457539       4.83161052       0.00000000       0.00000000       0.04657907       0.03413255      -0.05885045       0.26261302
O       -5.17908427      -5.75924263       5.52079792       0.00000000       0.00000000       0.04230364       0.10727747       0.05837247      -0.42690111
C       -2.85045022      -6.25986113       5.49541338       0.00000000       0.00000000      -0.07651908       0.01096528      -0.07306332       0.04695953
O       -1.74513636      -6.26323921       4.61023959       0.00000000       0.00000000      -0.01062085       0.00623796       0.05639575      -0.32097438
C       -0.99984245      -7.45991489       4.52940294       0.00000000       0.00000000      -0.00399248      -0.03262342       0.04823269       0.05009189
C       -1.19041248      -8.11724462       3.16308758       0.00000000       0.00000000      -0.00121495      -0.04455919       0.06380217       0.24883973
O       -1.99098967      -7.61807733       2.37617710       0.00000000       0.00000000      -0.11649462       0.05630431       0.00274210      -0.47342440
N       -0.45549733      -9.19439863       2.86473603       0.00000000       0.00000000      -0.01526873       0.05453343       0.00663805      -0.08607390
C        0.62576386      -9.71823809       3.68671983       0.00000000       0.00000000       0.01171135      -0.05165751       0.07423469      -0.01425036
C        0.26075127     -10.32748442       5.04937433       0.00000000       0.00000000      -0.09287020      -0.07821044       0.06217430      -0.07285659
C       -1.00890358     -11.17505114       5.00672589       0.00000000       0.00000000      -0.05807280      -0.04501688       0.02308371      -0.05432054
C       -1.46534170     -11.59135352       6.40166422       0.00000000       0.00000000       0.01117258       0.00353707      -0.01369905      -0.10941532
C       -0.61575801      -9.73984803       1.52032270       0.00000000       0.00000000      -0.02607508      -0.00970889      -0.05839544      -0.00188967
C       -1.73780348     -10.76627401       1.38264682       0.00000000       0.00000000      -0.11754259      -0.04511004       0.02038696      -0.06846175
C       -3.12986194     -10.16377219       1.55651544       0.00000000       0.00000000      -0.10693002      -0.00578031       0.01237546      -0.04962219
C       -4.22398336     -11.16637896       1.21336976       0.00000000       0.00000000      -0.00095204      -0.02514280      -0.00177363      -0.11093536
C       -6.50757436      -3.49672062       2.20944728       0.00000000       0.00000000       0.02681877      -0.02009731      -0.02047765      -0.07511545
H       -8.09081012       0.44489870      -2.59876405       0.00000000       0.00000000      -0.01510846      -0.05154973       0.00323622       0.03310171
H       -9.22460811      -0.81330413      -3.08822602       0.00000000       0.00000000       0.00373627      -0.00121398       0.00149374       0.03927682
H       -7.68714138      -1.26211293      -2.34603606       0.00000000       0.00000000      -0.00139330       0.00763667      -0.02722639       0.01324968
H       -9.96052561       0.23960080      -0.96438473       0.00000000       0.00000000      -0.00067404       0.01457656      -0.02914612       0.03876852
H       -8.40540209      -0.14155542      -0.22822889       0.00000000       0.00000000       0.01118553      -0.00496168       0.00358211       0.03892523
H       -8.88323950      -2.57407361      -0.49958052       0.00000000       0.00000000      -0.00754050      -0.03454402       0.00754972       0.02295485
H      -10.39393068      -2.16240402      -1.31316540       0.00000000       0.00000000      -0.01323990      -0.05350903       0.02615731       0.03391209
H      -11.22211290      -2.57575325       0.78696851       0.00000000       0.00000000      -0.02151491      -0.04577157       0.01228006       0.04471951
H      -10.93238841      -0.85351390       0.91555275       0.00000000       0.00000000      -0.01070895       0.04931624       0.04793742       0.04528389
H       -9.13398041      -3.08701481       1.95556774       0.00000000       0.00000000       0.00427286      -0.09787508      -0.01421877       0.04245340
H      -10.25013785      -2.11519422       2.90892992       0.00000000       0.00000000      -0.01566438      -0.01154091       0.05913836       0.05420462
H       -8.83664625      -0.08445374       2.02001710       0.00000000       0.00000000       0.01612090      -0.01010878       0.00409951       0.05580697
H       -7.79525489      -1.97898707       4.17388212       0.00000000       0.00000000       0.01451806      -0.07977059       0.09956835       0.05274045
H       -8.91358978      -0.64208096       4.38235177       0.00000000       0.00000000      -0.06760244       0.04288162       0.02356617       0.05953300
H       -7.24566987      -0.32404636       3.91427270       0.00000000       0.00000000       0.04061146       0.03331909       0.02235276       0.03890985
H       -6.04089818      -1.58584019      -0.51688098       0.00000000       0.00000000      -0.00504625      -0.05410709       0.05439073       0.04213248
H       -4.67813916      -2.64256106      -2.08448361       0.00000000       0.00000000       0.00761655      -0.03835175       0.07487966       0.06080629
H       -4.36841633      -4.37339340      -1.88634790       0.00000000       0.00000000      -0.01999532       0.03181303      -0.00064503       0.14161185
H       -2.20136373      -3.87827704      -1.71650282       0.00000000       0.00000000      -0.04119855       0.03821114      -0.06262222       0.22097122
H       -3.58392347      -1.47142634       0.59819688       0.00000000       0.00000000       0.06191352       0.03607912      -0.02726225       0.09513471
H       -3.99060626      -0.72322369      -0.96909097       0.00000000       0.00000000       0.05118435      -0.01025480      -0.04205172       0.09861332
H       -4.04571390       0.75660562       1.13453638       0.00000000       0.00000000      -0.01373058      -0.05592589      -0.02438829       0.08930173
H       -2.93444729       2.02245328       0.55785955       0.00000000       0.00000000       0.01772142       0.08603663       0.05942511       0.10203133
H       -4.32699698       0.67197939       4.69100499       0.00000000       0.00000000       0.04224031      -0.01689533       0.00557820       0.08702935
H       -4.68404320       0.35957731       2.99942722       0.00000000       0.00000000      -0.05672465      -0.05425723      -0.00220672       0.05625280
H       -4.26344168       2.79347816       2.48817385       0.00000000       0.00000000       0.02716767      -0.01431110       0.00488016       0.03203148
H       -3.88861225       3.06076438       4.18615245       0.00000000       0.00000000      -0.01137290       0.03549084       0.04003975       0.05670452
H       -6.20561786       2.39565868       4.79913891       0.00000000       0.00000000      -0.01526967       0.00047798       0.01542683       0.04865854
H       -6.57605809       2.10254639       3.09947911       0.00000000       0.00000000       0.01520432       0.00537649       0.00362420       0.03859203
H       -5.76443655       4.80238895       4.28908809       0.00000000       0.00000000      -0.02425882      -0.03140441      -0.01923613       0.04873925
H       -7.39698077       4.32545423       3.82586213       0.00000000       0.00000000       0.05738287       0.00246866      -0.01608863       0.05955923
H       -6.15009647       4.51112541       2.59042684       0.00000000       0.00000000      -0.01246294      -0.01815671       0.03955922       0.03931806
H       -2.32446479       0.92543038       5.49143067       0.00000000       0.00000000       0.02044932       0.04766543      -0.04344161       0.07726348
H       -0.89275117       1.13723167       4.45829758       0.00000000       0.00000000       0.03600156       0.06684355      -0.01472248       0.07620994
H       -0.90105693      -1.24153489       3.87766371       0.00000000       0.00000000      -0.02887870       0.02454709      -0.04693306       0.04801598
H       -2.37864900      -1.49919770       4.82267479       0.00000000       0.00000000      -0.02782816      -0.01476948      -0.00397859       0.04551773
H       -1.16717760      -0.80863131       6.89050931       0.00000000       0.00000000      -0.02412880       0.01338638      -0.00606641       0.04936345
H        0.30531561      -0.58084544       5.95392854       0.00000000       0.00000000      -0.02129272      -0.00250564      -0.03227310       0.03865605
H       -1.18796751      -3.22836087       6.30344446       0.00000000       0.00000000       0.00785997       0.02650592      -0.01707322       0.04471795
H        0.31164385      -2.76854796       7.10599176       0.00000000       0.00000000      -0.03262255       0.01414663      -0.06222181       0.05611133
H        0.28560482      -3.01517696       5.35654979       0.00000000       0.00000000      -0.00515260       0.01375149       0.00759767       0.02953678
H       -4.12933058      -5.25782816       0.57334630       0.00000000       0.00000000      -0.01050368       0.03985382      -0.02040027       0.05209046
H       -5.70369038      -6.63115313       2.19573654       0.00000000       0.00000000       0.00022011       0.02699561       0.03475226       0.06299916
H       -6.24496493      -5.69705612       3.61961466       0.00000000       0.00000000      -0.03428872       0.00048881      -0.08799971       0.09282647
H       -3.44617617      -6.33288628       2.97399940       0.00000000       0.00000000      -0.03611427       0.01113038       0.04754268       0.20761224
H       -2.95457973      -7.21496629       6.02591074       0.00000000       0.00000000      -0.02582994       0.05023808      -0.06589782       0.06203403
H       -2.68881951      -5.49097682       6.26638748       0.00000000       0.00000000      -0.01246387      -0.02230800      -0.11485673       0.06580126
H       -1.30760988      -8.16096428       5.30453331       0.00000000       0.00000000      -0.01330532      -0.05140480       0.08516218       0.06529879
H        0.05536257      -7.21043750       4.68610756       0.00000000       0.00000000       0.05626814      -0.00323451      -0.02793587       0.05180921
H        1.36709404      -8.92751647       3.84589607       0.00000000       0.00000000       0.06010332       0.01934380      -0.02960176       0.04127101
H        1.09388283     -10.50773550       3.10013736       0.00000000       0.00000000       0.02996016       0.01378819      -0.05095282       0.07071439
H        0.15920913      -9.56283519       5.82111390       0.00000000       0.00000000       0.00409977       0.03370689      -0.06936018       0.03776738
H        1.09748384     -10.96114510       5.35034814       0.00000000       0.00000000       0.00308737       0.04663859       0.00298433       0.05908655
H       -0.82243873     -12.06849481       4.40772749       0.00000000       0.00000000      -0.04374011       0.02018071      -0.00992421       0.04217842
H       -1.80635872     -10.60262575       4.52489685       0.00000000       0.00000000      -0.00913426      -0.05498044       0.02079459       0.02946125
H       -0.71146208     -12.19640819       6.89943447       0.00000000       0.00000000       0.02648894       0.02063396      -0.05377927       0.04786924
H       -2.37980777     -12.17698208       6.34134485       0.00000000       0.00000000       0.02596463       0.03614663      -0.00111598       0.05047298
H       -1.65613275     -10.71571892       7.02000440       0.00000000       0.00000000      -0.02406702      -0.02463156      -0.00261082       0.03334049
H        0.32832341     -10.18961844       1.21722631       0.00000000       0.00000000       0.08063213      -0.02011650       0.00205599       0.04626664
H       -0.82986647      -8.90197712       0.85448142       0.00000000       0.00000000       0.00356372       0.09834091      -0.05389615       0.05852871
H       -1.59552282     -11.57013966       2.10253542       0.00000000       0.00000000       0.01609657      -0.05337821       0.05228004       0.05236739
H       -1.67504710     -11.20305153       0.38416550       0.00000000       0.00000000       0.07121363       0.01530410      -0.01638904       0.04963960
H       -3.22509365      -9.28303820       0.91770130       0.00000000       0.00000000       0.00244245      -0.02925655      -0.02946536       0.03476211
H       -3.26506869      -9.82293236       2.58362501       0.00000000       0.00000000       0.00151654      -0.04864121       0.03266834       0.03100861
H       -4.14089221     -11.48131784       0.17511871       0.00000000       0.00000000      -0.01299539       0.00381280       0.00839324       0.03693911
H       -5.20735789     -10.72669809       1.36591729       0.00000000       0.00000000       0.04813040      -0.02134989      -0.00511179       0.04396607
H       -4.14613807     -12.05097924       1.84028056       0.00000000       0.00000000       0.00918346       0.00745922       0.01314960       0.04388770
H       -7.12375303      -3.58740243       3.08506562       0.00000000       0.00000000      -0.02257804       0.01335021       0.10366957       0.06411768
C        3.01227294       7.54634092       2.73262272       0.00000000       0.00000000       0.01783308       0.01742940      -0.01540838      -0.10425205
C        3.28233849       8.03867139       1.31408432       0.00000000       0.00000000      -0.05342184       0.00847722       0.01257569      -0.05925505
C        4.78058879       8.12314462       1.02409396       0.00000000       0.00000000      -0.06615877      -0.01753321       0.06746557      -0.06020427
C        5.10621775       8.71679399      -0.35048168       0.00000000       0.00000000      -0.01819963       0.02990876       0.07201981      -0.06535156
C        5.26060160       7.71061036      -1.49299781       0.00000000       0.00000000       0.05496217       0.00220346       0.02121529      -0.07323621
C        3.99345486       6.94844666      -1.87441897       0.00000000       0.00000000       0.02972314      -0.00267235      -0.01439160       0.10963381
C        4.03827140       6.40984539      -3.30089298       0.00000000       0.00000000       0.03232788      -0.01947562      -0.05705498      -0.12248886
O        3.64895757       5.92205550      -0.93394513       0.00000000       0.00000000      -0.04541246      -0.00022005      -0.04715590      -0.28997634
C        4.46975382       4.94913744      -0.47165105       0.00000000       0.00000000      -0.02916763       0.02248618      -0.00916823       0.15355608
C        4.06212262       4.47592768       0.77898166       0.00000000       0.00000000       0.07588871      -0.02848404       0.11909352      -0.08290988
C        4.62464536       3.34525810       1.34504123       0.00000000       0.00000000      -0.01195713      -0.07295326       0.07907456      -0.00852062
C        4.06539605       2.78561112       2.63467735       0.00000000       0.00000000       0.01459540       0.00879370      -0.01253092      -0.02372652
N        3.30152205       1.56887358       2.37208511       0.00000000       0.00000000       0.01816088       0.04651168      -0.00253093      -0.12782532
C        2.30196792       1.43679884       1.51424558       0.00000000       0.00000000      -0.01342334      -0.02316579       0.01874409       0.27565793
O        1.82195351       0.32470840       1.24511449       0.00000000       0.00000000       0.00206694       0.08622580      -0.02865815      -0.37315141
C        1.74535858       2.67799696       0.83044811       0.00000000       0.00000000       0.06227365      -0.01451848       0.07299658       0.03732436
O        0.61129741       2.27909026       0.08466115       0.00000000       0.00000000       0.07665109       0.04630793      -0.00245971      -0.22038297
C        0.14056414       3.29327408      -0.79837245       0.00000000       0.00000000      -0.00659164       0.01605309      -0.08861876       0.03848706
C       -0.34738650       2.51724714      -2.03080580       0.00000000       0.00000000      -0.09077792      -0.05236441       0.03137257       0.25831173
O       -0.80858627       1.37612788      -1.83220536       0.00000000       0.00000000       0.08048008      -0.03129818       0.09353338      -0.38094460
N       -0.20033992       3.04426929      -3.23453424       0.00000000       0.00000000       0.03111611      -0.00056090       0.01681991      -0.04234133
C        0.10973960       4.44129374      -3.46337696       0.00000000       0.00000000      -0.02533306       0.04400904      -0.00624528      -0.02635896
C       -1.11468762       5.32148242      -3.21637550       0.00000000       0.00000000      -0.02920647       0.07835500      -0.00459763      -0.07066001
C       -0.81448825       6.77522335      -3.57440734       0.00000000       0.00000000       0.00457383       0.05041832      -0.02044467      -0.05955424
C       -2.04379762       7.66404807      -3.43068448       0.00000000       0.00000000       0.02482872      -0.01016974      -0.00946205      -0.11342117
C       -0.43082206       2.23027181      -4.42021086       0.00000000       0.00000000      -0.02696333      -0.01017784      -0.00194879      -0.01694456
C        0.89157084       1.90104640      -5.11466337       0.00000000       0.00000000       0.03111732      -0.00216781      -0.02035795      -0.07163827
C        0.67929285       1.24598973      -6.47898342       0.00000000       0.00000000      -0.01479430      -0.00602725      -0.02283436      -0.06347298
C        2.00534204       0.80757944      -7.09036188       0.00000000       0.00000000      -0.00633356       0.02056752       0.01631267      -0.11232125
C        5.62775207       2.67201114       0.66149970       0.00000000       0.00000000      -0.00097690       0.03664865       0.10095825      -0.06056917
C        6.09802445       3.16569932      -0.54924506       0.00000000       0.00000000      -0.05058481      -0.03959656       0.01504335       0.01460488
C        7.18286876       2.38532695      -1.25337478       0.00000000       0.00000000      -0.01352468      -0.06350583       0.01828701      -0.00867118
N        6.69278786       1.08225793      -1.67882663       0.00000000       0.00000000      -0.01521235      -0.01216872      -0.04766978      -0.16524515
C        6.52246658       0.82902972      -2.98650077       0.00000000       0.00000000      -0.05311480       0.04743922       0.00577250       0.26150568
O        6.78810559       1.61843621      -3.86927407       0.00000000       0.00000000      -0.08822483       0.00024281       0.02500917      -0.43095227
C        5.94087872      -0.53678039      -3.37183067       0.00000000       0.00000000       0.02945240       0.05996592       0.03121375       0.05250660
O        5.28742391      -1.25808379      -2.34128103       0.00000000       0.00000000      -0.02334424       0.00669781      -0.01931431      -0.33366607
C        5.75947623      -2.57907453      -2.16118913       0.00000000       0.00000000       0.01136214      -0.05915164      -0.03403306       0.05092505
C        6.79874361      -2.66247155      -1.04180138       0.00000000       0.00000000       0.02000084       0.07980741       0.14742127       0.25101039
O        6.72781315      -1.85349868      -0.12791345       0.00000000       0.00000000       0.01568053       0.04120079      -0.04551756      -0.45803394
N        7.70466710      -3.65293832      -1.10918772       0.00000000       0.00000000       0.01143776       0.00896642       0.01796114      -0.09240166
C        7.65255616      -4.74008109      -2.07678847       0.00000000       0.00000000       0.02946703      -0.00456803      -0.10286415      -0.01076055
C        8.12842843      -4.46454348      -3.51447920       0.00000000       0.00000000       0.11987748       0.04912435      -0.08133631      -0.06806079
C        9.45979917      -3.72374736      -3.59666542       0.00000000       0.00000000       0.06925864       0.02722506      -0.04081019      -0.05518548
C        9.84534309      -3.42660644      -5.04354035       0.00000000       0.00000000      -0.00906313      -0.00316082       0.01530855      -0.10917926
C        8.62778969      -3.78310159       0.01692931       0.00000000       0.00000000       0.05669317       0.06065316       0.05645024      -0.00288177
C        9.92304895      -2.98746483      -0.13285384       0.00000000       0.00000000       0.06267580       0.11413889      -0.02558443      -0.06858612
C        9.67731371      -1.48349406      -0.22516502       0.00000000       0.00000000       0.02101383       0.09487927      -0.01966192      -0.04942761
C       10.98061550      -0.69766339      -0.28178219       0.00000000       0.00000000       0.01805332      -0.00386681      -0.00376349      -0.10938950
C        5.52402147       4.29928594      -1.11542491       0.00000000       0.00000000       0.00390299      -0.02131070       0.04133372      -0.06861309
H        1.94252200       7.44223535       2.91136152       0.00000000       0.00000000       0.04420147       0.00713581      -0.00326912       0.02659434
H        3.41178348       8.24991646       3.45790328       0.00000000       0.00000000      -0.00997761       0.00187704       0.00752456       0.04591361
H        3.49577740       6.58457920       2.90051111       0.00000000       0.00000000      -0.01344065       0.01473294       0.03885054       0.02128618
H        2.84397756       9.03025585       1.19094872       0.00000000       0.00000000      -0.01874742       0.01806651       0.02337085       0.03580468
H        2.79797445       7.37267488       0.59969775       0.00000000       0.00000000       0.00148999      -0.00341058       0.00303312       0.03118118
H        5.22926184       7.13188067       1.11980190       0.00000000       0.00000000       0.03560975       0.00408387       0.00528681       0.02688824
H        5.22204149       8.75655452       1.79501467       0.00000000       0.00000000       0.05487719       0.00431859      -0.01956263       0.04208394
H        6.04948746       9.25794258      -0.27798995       0.00000000       0.00000000       0.05581394      -0.00566867      -0.01186876       0.04882928
H        4.34046312       9.44953013      -0.60632438       0.00000000       0.00000000      -0.04094642       0.01882422      -0.06974614       0.04235520
H        6.04215753       6.99509028      -1.23967784       0.00000000       0.00000000       0.08212803      -0.05334077       0.04085162       0.04432606
H        5.59205321       8.26175154      -2.37256777       0.00000000       0.00000000       0.00454545      -0.00631729      -0.06015686       0.05329650
H        3.13391490       7.62732397      -1.79293952       0.00000000       0.00000000       0.00894267      -0.02289231       0.01651988       0.05333482
H        4.91844717       5.80283862      -3.47173171       0.00000000       0.00000000       0.09029064      -0.04506255      -0.05463750       0.05355428
H        4.05752571       7.23564670      -4.00286433       0.00000000       0.00000000      -0.02245544       0.06297376      -0.02122274       0.05883294
H        3.15690287       5.80604002      -3.50240632       0.00000000       0.00000000      -0.04389818      -0.03054349      -0.01559716       0.03294847
H        3.27626524       5.01798761       1.28497120       0.00000000       0.00000000       0.11039537       0.00333905      -0.01841369       0.05692893
H        3.41497344       3.51619802       3.12938940       0.00000000       0.00000000       0.10405957      -0.00111747      -0.04507052       0.07631514
H        4.87769688       2.52043873       3.31394561       0.00000000       0.00000000      -0.06446930       0.03330174      -0.01224993       0.09656748
H        3.61886371       0.70436868       2.79794707       0.00000000       0.00000000       0.03551319       0.07166974      -0.06369345       0.22415071
H        2.51985715       3.08931575       0.16500898       0.00000000       0.00000000      -0.01749470      -0.05316215      -0.01493614       0.10152924
H        1.48631157       3.45565605       1.56278279       0.00000000       0.00000000      -0.06283327      -0.10966622       0.07822947       0.09282433
H        0.93733065       3.99047829      -1.07183966       0.00000000       0.00000000       0.10302182      -0.06060478       0.09458989       0.08670241
H       -0.65458494       3.86388227      -0.29944216       0.00000000       0.00000000      -0.11325681      -0.03304986      -0.11782827       0.08933010
H        0.41711392       4.55180813      -4.50313543       0.00000000       0.00000000       0.00774925      -0.00819849      -0.00381179       0.08965247
H        0.93990295       4.76405567      -2.83263921       0.00000000       0.00000000       0.04296211       0.05145500      -0.05367868       0.05911713
H       -1.42331022       5.25953918      -2.17149499       0.00000000       0.00000000       0.00494279      -0.01316246       0.00507366       0.03291702
H       -1.94073865       4.95305636      -3.82736574       0.00000000       0.00000000      -0.01473877       0.05320035      -0.01912703       0.05469303
H       -0.45587262       6.81820467      -4.60408865       0.00000000       0.00000000      -0.01443667       0.04349999      -0.00679018       0.04759289
H       -0.01531535       7.14754695      -2.92947788       0.00000000       0.00000000      -0.01691745      -0.00181369      -0.00665907       0.04049990
H       -2.83813870       7.32636334      -4.09259747       0.00000000       0.00000000       0.01127136       0.02023997       0.02657979       0.04766050
H       -1.79128334       8.68736737      -3.69407698       0.00000000       0.00000000      -0.03584900      -0.01691154       0.01630882       0.06003521
H       -2.41554629       7.65326128      -2.40781461       0.00000000       0.00000000       0.01744088       0.00002457      -0.03821744       0.04158696
H       -1.09320728       2.76837074      -5.09993933       0.00000000       0.00000000      -0.02260884       0.04088052      -0.01079462       0.07516580
H       -0.91935486       1.31207478      -4.09577078       0.00000000       0.00000000      -0.08100784      -0.01994075      -0.00789916       0.07781301
H        1.47239744       1.24176455      -4.46705226       0.00000000       0.00000000       0.03656292      -0.00188704       0.01738407       0.04660753
H        1.47092356       2.81187148      -5.26341902       0.00000000       0.00000000       0.04585353       0.02814370       0.01443522       0.05393712
H        0.19111124       1.95585691      -7.14763494       0.00000000       0.00000000       0.01206476       0.01652954      -0.01529676       0.04999928
H        0.01731645       0.38570764      -6.38063354       0.00000000       0.00000000      -0.00998753      -0.00571019       0.01974228       0.03661991
H        2.65169062       1.66495106      -7.25514631       0.00000000       0.00000000       0.00209676       0.00855775      -0.02216790       0.05348459
H        1.84151943       0.31633600      -8.04609624       0.00000000       0.00000000       0.00491833       0.01580231       0.03152742       0.05396520
H        2.52702985       0.12113597      -6.42585084       0.00000000       0.00000000      -0.00570823      -0.00999282      -0.02019967       0.02999193
H        6.06232973       1.77277393       1.07372130       0.00000000       0.00000000      -0.01639541       0.05686900       0.01969385       0.05118686
H        8.03408704       2.24658121      -0.57988262       0.00000000       0.00000000      -0.00350287       0.01205254      -0.02647109       0.06974166
H        7.51210476       2.89782505      -2.16221782       0.00000000       0.00000000      -0.00317236      -0.01202058       0.08171288       0.09775296
H        6.51598370       0.35941407      -0.99078832       0.00000000       0.00000000       0.01396401       0.01078525      -0.08410282       0.20003420
H        6.76251042      -1.11686718      -3.80723776       0.00000000       0.00000000       0.00673106       0.05966067       0.01469361       0.05762705
H        5.21539986      -0.33515952      -4.17483042       0.00000000       0.00000000       0.05495377       0.01388636       0.02506197       0.05357875
H        6.14133884      -2.97052996      -3.09637424       0.00000000       0.00000000       0.02010556      -0.04642848      -0.12644110       0.05289059
H        4.90817031      -3.19020468      -1.84916433       0.00000000       0.00000000      -0.05398725      -0.04113608       0.00981108       0.03707940
H        6.62696482      -5.12334537      -2.11872541       0.00000000       0.00000000      -0.02825581      -0.08916878       0.02280422       0.03006813
H        8.29653048      -5.52926768      -1.68654668       0.00000000       0.00000000      -0.05641989      -0.01095768       0.04735145       0.07007896
H        7.39739455      -3.90783587      -4.10458185       0.00000000       0.00000000      -0.02655610      -0.01805337       0.09089802       0.03186846
H        8.23032541      -5.43803573      -4.00070369       0.00000000       0.00000000      -0.00054471       0.01175776       0.02589950       0.05248481
H       10.24164544      -4.33099834      -3.13714896       0.00000000       0.00000000      -0.00734994       0.02889380       0.01427931       0.04287376
H        9.38401044      -2.78292123      -3.04520538       0.00000000       0.00000000       0.01573738      -0.03628869      -0.03328991       0.03726367
H        9.96315677      -4.34558089      -5.61401761       0.00000000       0.00000000      -0.01240846       0.00250421       0.05202497       0.04460080
H       10.78662592      -2.88334136      -5.08085515       0.00000000       0.00000000      -0.04497484      -0.01898492       0.01230254       0.05178001
H        9.08198597      -2.82169304      -5.53093337       0.00000000       0.00000000       0.02779282       0.00954160       0.00891033       0.03200234
H        8.86420506      -4.83807599       0.16076376       0.00000000       0.00000000      -0.04493744      -0.01580137      -0.01591520       0.04841076
H        8.10869931      -3.41574569       0.90419354       0.00000000       0.00000000      -0.09126803       0.01715478       0.05149794       0.06851756
H       10.47755323      -3.32492015      -1.00709555       0.00000000       0.00000000       0.01042633      -0.01982993      -0.03784886       0.04976488
H       10.54228650      -3.18434940       0.74411126       0.00000000       0.00000000      -0.03547953      -0.05669573       0.00902009       0.05364199
H        9.09000686      -1.16471873       0.63833306       0.00000000       0.00000000       0.02825499      -0.00376426       0.00724996       0.04074853
H        9.08446764      -1.25905757      -1.11487619       0.00000000       0.00000000       0.03452904       0.00540690      -0.03897646       0.02093743
H       11.57887520      -0.88467410       0.60649694       0.00000000       0.00000000      -0.00682319       0.00643226       0.00071241       0.04357018
H       10.78309180       0.37071255      -0.34450459       0.00000000       0.00000000       0.00973423      -0.03864263       0.00204653       0.03672246
H       11.56550481      -0.98754430      -1.15143038       0.00000000       0.00000000       0.00120246      -0.00102362      -0.00398486       0.04158604
H        5.90786409       4.65209304      -2.05510994       0.00000000       0.00000000       0.00032936       0.01126454      -0.10261468       0.06763110
C        3.96686554      -6.81405738       2.60109237       0.00000000       0.00000000       0.00215056      -0.02366504      -0.01583096      -0.10295360
C        4.37582394      -7.40079833       1.25276822       0.00000000       0.00000000       0.03521938       0.03883247       0.01213521      -0.05945069
C        3.62091694      -8.69457434       0.94874488       0.00000000       0.00000000       0.01125440       0.06635583       0.06304979      -0.05950995
C        4.10876633      -9.40503039      -0.31872893       0.00000000       0.00000000       0.02047433       0.00358989       0.07082582      -0.06578381
C        3.37969207      -9.05003668      -1.61675819       0.00000000       0.00000000      -0.02834533      -0.04021698       0.01311216      -0.07431694
C        3.58579995      -7.62999573      -2.14086205       0.00000000       0.00000000      -0.01636113      -0.01079245      -0.01076309       0.11138261
C        3.33111830      -7.52181511      -3.63984521       0.00000000       0.00000000      -0.02362080      -0.02829135      -0.06322389      -0.12641568
O        2.83820746      -6.64680920      -1.41675959       0.00000000       0.00000000      -0.00046738       0.03800324      -0.04798475      -0.29955983
C        1.51911968      -6.73223167      -1.10211077       0.00000000       0.00000000       0.00907060       0.03876931       0.00006050       0.14927589
C        1.24297851      -6.11078676       0.11507414       0.00000000       0.00000000      -0.06433013      -0.01834326       0.08387164      -0.08541731
C       -0.05092970      -5.92222485       0.56210743       0.00000000       0.00000000      -0.09612302       0.02449854       0.10056991      -0.00801978
C       -0.27945350      -5.28056131       1.91062670       0.00000000       0.00000000      -0.01401055      -0.00493721       0.00816161      -0.03816098
N       -0.75329629      -3.90757573       1.85944050       0.00000000       0.00000000       0.02962792       0.02097556      -0.02224181      -0.13268771
C       -0.13774270      -2.87329373       1.31089194       0.00000000       0.00000000       0.03649396      -0.08690181       0.06751542       0.27322320
O       -0.60284056      -1.72597244       1.40122329       0.00000000       0.00000000       0.00456016       0.05725642      -0.02261738      -0.39373871
C        1.14948679      -3.15252157       0.54478814       0.00000000       0.00000000      -0.05167838       0.00297705       0.03235929       0.04211827
O        1.63328182      -1.94990899      -0.01555584       0.00000000       0.00000000       0.02642042      -0.03183185       0.01249701      -0.21904712
C        2.48832844      -2.13805758      -1.14922211       0.00000000       0.00000000      -0.02562536      -0.04065413      -0.06101088       0.03407474
C        1.71548705      -1.54616271      -2.33927236       0.00000000       0.00000000       0.04705054      -0.08667302      -0.02604673       0.26262609
O        1.21342721      -0.42460742      -2.12273889       0.00000000       0.00000000      -0.09275451       0.07536708       0.10300096      -0.38564546
N        1.52555805      -2.22479362      -3.46756588       0.00000000       0.00000000      -0.03688938       0.00181192       0.10003457      -0.04529663
C        2.30522965      -3.36657175      -3.91330363       0.00000000       0.00000000       0.04169832      -0.01939581      -0.02928983      -0.01965350
C        3.37815537      -2.92223643      -4.91479388       0.00000000       0.00000000       0.06077361      -0.00846743      -0.04020146      -0.07200572
C        4.31231442      -4.05597180      -5.33599791       0.00000000       0.00000000       0.00684199      -0.02735979      -0.01816347      -0.05689872
C        5.39995047      -3.55810586      -6.28514502       0.00000000       0.00000000      -0.03745527      -0.01685622       0.02169914      -0.11123458
C        0.58925787      -1.71673648      -4.46770767       0.00000000       0.00000000      -0.00915419       0.05786148       0.01318983      -0.02277773
C       -0.66519936      -2.57307650      -4.65426510       0.00000000       0.00000000      -0.04406059       0.01420193      -0.01133030      -0.06770173
C       -1.61068918      -1.89007740      -5.64764548       0.00000000       0.00000000      -0.03088234       0.01281938      -0.01016170      -0.05756971
C       -2.90626424      -2.66745465      -5.85031670       0.00000000       0.00000000       0.02429800      -0.01304280       0.01958810      -0.11349736
C       -1.10538722      -6.39168161      -0.21139565       0.00000000       0.00000000       0.01465721       0.00541127       0.03553684      -0.05985326
C       -0.85709948      -7.08302475      -1.39365859       0.00000000       0.00000000      -0.04265624       0.07704958       0.02597186       0.00890376
C       -2.02136859      -7.71041848      -2.13235905       0.00000000       0.00000000      -0.01373224       0.03290087      -0.00416383      -0.00988743
N       -2.91955340      -6.76471420      -2.79125773       0.00000000       0.00000000      -0.00776719      -0.07301397      -0.05284470      -0.19321404
C       -3.11020996      -6.91994570      -4.12869035       0.00000000       0.00000000       0.04618892       0.04938782       0.03097648       0.26556224
O       -2.43140020      -7.65628724      -4.81109787       0.00000000       0.00000000       0.06018856       0.11693800      -0.05271554      -0.42256382
C       -4.21566746      -6.08571714      -4.78096082       0.00000000       0.00000000       0.04179577      -0.06635398       0.06506744       0.04810386
O       -4.67201595      -5.00266126      -3.99443393       0.00000000       0.00000000       0.02472170      -0.00456220      -0.05292721      -0.31962955
C       -6.07549173      -4.85801410      -3.90150977       0.00000000       0.00000000      -0.02895067      -0.00331573      -0.05193202       0.04825038
C       -6.57335451      -5.38583330      -2.55455364       0.00000000       0.00000000      -0.04298291      -0.01685747      -0.04133267       0.24856078
O       -5.74164308      -5.78454473      -1.74556484       0.00000000       0.00000000       0.11795898      -0.09431404      -0.00382862      -0.47352753
N       -7.88705860      -5.37599569      -2.30249810       0.00000000       0.00000000       0.04896992       0.00124503       0.00622221      -0.08537001
C       -8.90463340      -4.80386075      -3.17207431       0.00000000       0.00000000      -0.04430838      -0.02248472      -0.07702222      -0.01506035
C       -9.18446783      -5.50852760      -4.51073272       0.00000000       0.00000000      -0.01080382      -0.12336682      -0.06398935      -0.07149742
C       -9.15080766      -7.03208032      -4.41190891       0.00000000       0.00000000      -0.00355698      -0.07361751      -0.02372829      -0.05395196
C       -9.21407349      -7.69805638      -5.78338834       0.00000000       0.00000000      -0.00306433       0.01252398       0.01202154      -0.10907046
C       -8.29018728      -5.80656132      -0.96624526       0.00000000       0.00000000       0.00515597      -0.04306667       0.06833474      -0.00127019
C       -8.48920856      -7.31377180      -0.81662997       0.00000000       0.00000000       0.03531246      -0.12743074      -0.01277483      -0.06834872
C       -7.19266099      -8.10794487      -0.95578187       0.00000000       0.00000000       0.05429642      -0.09453053      -0.00662388      -0.04978591
C       -7.38933558      -9.57989041      -0.61860716       0.00000000       0.00000000      -0.02503127      -0.01867158       0.00418785      -0.11069425
C        0.45296894      -7.24429398      -1.84279529       0.00000000       0.00000000      -0.01764252       0.00364762       0.02515333      -0.07240126
H        4.46500191      -5.86173798       2.77789352       0.00000000       0.00000000      -0.01790954      -0.04113125      -0.00706480       0.03170898
H        4.23954401      -7.49405271       3.40429240       0.00000000       0.00000000       0.00293448       0.01009369       0.00734445       0.04314465
H        2.88802293      -6.66154831       2.64204337       0.00000000       0.00000000       0.01106541       0.00312253       0.02866280       0.01530402
H        5.44570069      -7.61310550       1.27084022       0.00000000       0.00000000       0.02419635       0.00411838       0.02217232       0.03690325
H        4.19891699      -6.67046034       0.46286971       0.00000000       0.00000000       0.00559088      -0.00176303      -0.00646930       0.03398036
H        2.55090948      -8.48521332       0.87410353       0.00000000       0.00000000      -0.02099811      -0.02769598       0.00061185       0.02380845
H        3.76776984      -9.35959150       1.80205870       0.00000000       0.00000000      -0.02359031      -0.05104117      -0.01837203       0.03665340
H        3.98946466     -10.47934416      -0.17653656       0.00000000       0.00000000      -0.03142972      -0.04306766      -0.01636145       0.04697511
H        5.17691761      -9.22012944      -0.43427184       0.00000000       0.00000000       0.04503494       0.01426411      -0.06568506       0.04336431
H        2.31102253      -9.22536468      -1.49152137       0.00000000       0.00000000      -0.08606552      -0.03691890       0.02166283       0.04249364
H        3.73863470      -9.73255426      -2.38598757       0.00000000       0.00000000      -0.00681402      -0.02878924      -0.06152231       0.05552828
H        4.61944773      -7.31884510      -1.93997032       0.00000000       0.00000000       0.00059901      -0.00584829      -0.00212574       0.04708456
H        2.36993925      -7.94286749      -3.90682755       0.00000000       0.00000000      -0.08139174      -0.05896771      -0.06834505       0.05343634
H        4.09793492      -8.05783984      -4.18653036       0.00000000       0.00000000       0.06983174      -0.03468450      -0.01657703       0.05787487
H        3.35279640      -6.47934596      -3.94374063       0.00000000       0.00000000      -0.00349954       0.04397729      -0.02795420       0.04212282
H        2.08800148      -5.79553865       0.70828181       0.00000000       0.00000000      -0.07391483      -0.03163941      -0.04474863       0.05372089
H        0.64454420      -5.32025368       2.50129745       0.00000000       0.00000000      -0.06248569       0.00190595      -0.07650888       0.06291262
H       -1.05434964      -5.83742295       2.43614632       0.00000000       0.00000000       0.03666200       0.01479577      -0.00439880       0.13371224
H       -1.59245124      -3.70431012       2.39130488       0.00000000       0.00000000       0.03668420      -0.01482714      -0.02230444       0.22375896
H        0.93400663      -3.88999503      -0.23885684       0.00000000       0.00000000      -0.05892883       0.01651910       0.00616292       0.09732439
H        1.89571227      -3.58405268       1.23052751       0.00000000       0.00000000      -0.02149922       0.07796390       0.03116697       0.09543255
H        2.73452745      -3.19234460      -1.26958525       0.00000000       0.00000000      -0.00717897      -0.03107972       0.05659406       0.07711031
H        3.40523001      -1.55978024      -0.96435685       0.00000000       0.00000000      -0.03453734       0.03331191      -0.16149081       0.13318668
H        1.62149253      -4.07947553      -4.37808840       0.00000000       0.00000000       0.03592566      -0.03094631      -0.01606885       0.07863061
H        2.79408266      -3.85670160      -3.07451655       0.00000000       0.00000000      -0.03438333      -0.06647494       0.02700007       0.05474916
H        3.95619602      -2.11856585      -4.45931579       0.00000000       0.00000000       0.01744073      -0.00444959       0.01687556       0.04847440
H        2.90598200      -2.52641710      -5.81350956       0.00000000       0.00000000       0.02921819       0.00324498      -0.03263957       0.05547662
H        3.73071142      -4.83040540      -5.83892901       0.00000000       0.00000000       0.00972449      -0.01601269       0.00026999       0.04717881
H        4.77694669      -4.50768259      -4.45503007       0.00000000       0.00000000      -0.02534607       0.02655969      -0.00495445       0.02886723
H        4.96295673      -3.14680140      -7.19187988       0.00000000       0.00000000      -0.00437354      -0.02219316       0.02474834       0.05132513
H        6.05498496      -4.37904562      -6.56705823       0.00000000       0.00000000      -0.01364654       0.04381940       0.00891229       0.05730327
H        5.99960783      -2.77720452      -5.81983766       0.00000000       0.00000000      -0.02712756      -0.02594319      -0.01864517       0.03561064
H        1.10248414      -1.64391189      -5.42625556       0.00000000       0.00000000       0.01987554       0.08210034       0.01186627       0.07864449
H        0.28442677      -0.72513524      -4.14295190       0.00000000       0.00000000       0.00154231       0.07735917       0.04257477       0.08744254
H       -1.17245804      -2.69426547      -3.69657068       0.00000000       0.00000000       0.01312734       0.00098958       0.04819896       0.03775376
H       -0.41490003      -3.56085053      -5.04199397       0.00000000       0.00000000       0.01200211      -0.02392335       0.04102764       0.05317868
H       -1.11086351      -1.78643154      -6.61297691       0.00000000       0.00000000       0.01847865      -0.01958639       0.01940039       0.04658362
H       -1.84705233      -0.88486390      -5.29011911       0.00000000       0.00000000      -0.01506473      -0.00687644       0.04434191       0.02904582
H       -2.70185078      -3.64353599      -6.28189511       0.00000000       0.00000000       0.02794156       0.01044795      -0.00325314       0.04900956
H       -3.56388300      -2.12833098      -6.52905910       0.00000000       0.00000000       0.03539699      -0.02734672       0.03778437       0.05226974
H       -3.42412015      -2.81760848      -4.90556379       0.00000000       0.00000000      -0.00105587      -0.00782631      -0.00315829       0.04002966
H       -2.11836807      -6.29576029       0.14463214       0.00000000       0.00000000       0.02319795       0.03257582       0.00960995       0.06181315
H       -2.59365987      -8.31799371      -1.42114229       0.00000000       0.00000000       0.02753087       0.02869760      -0.03837139       0.06404396
H       -1.64768863      -8.35268528      -2.93688357       0.00000000       0.00000000       0.02422217      -0.03829673       0.09921299       0.09487596
H       -3.68782993      -6.36787632      -2.25756866       0.00000000       0.00000000       0.01243643      -0.04561048      -0.05644439       0.20382723
H       -5.02883706      -6.78234351      -5.01894190       0.00000000       0.00000000       0.04772617      -0.02332324       0.03764353       0.06326772
H       -3.82351935      -5.71056854      -5.73951005       0.00000000       0.00000000      -0.02021530      -0.03040286       0.11078626       0.06553985
H       -6.57207415      -5.38361455      -4.71367079       0.00000000       0.00000000      -0.04214239      -0.02288725      -0.10694930       0.06320865
H       -6.29769237      -3.79077245      -3.99191223       0.00000000       0.00000000      -0.05852964       0.06527935       0.03555153       0.05285652
H       -8.65683921      -3.75731598      -3.37590353       0.00000000       0.00000000       0.00417457       0.06154257       0.02632068       0.04399691
H       -9.83313887      -4.82653774      -2.60286877       0.00000000       0.00000000       0.00367615       0.04412589       0.05373657       0.07164108
H       -8.49558263      -5.18388077      -5.29296376       0.00000000       0.00000000       0.03016124       0.03193425       0.06924075       0.03552092
H      -10.18053880      -5.19814850      -4.83219637       0.00000000       0.00000000       0.03393107       0.02944691      -0.00480905       0.05888216
H       -9.99674085      -7.36980426      -3.81039410       0.00000000       0.00000000       0.04353973      -0.02336877       0.01274402       0.04266819
H       -8.22982336      -7.33834179      -3.90797273       0.00000000       0.00000000      -0.04151804      -0.03812993      -0.02107337       0.02907473
H      -10.13761322      -7.45062673      -6.30111962       0.00000000       0.00000000      -0.00000420       0.04048643       0.05638573       0.04778025
H       -9.16743561      -8.77990836      -5.68041855       0.00000000       0.00000000       0.01555674       0.04332401       0.00033735       0.04939145
H       -8.38213889      -7.37417638      -6.40692826       0.00000000       0.00000000      -0.00355119      -0.03153448       0.00656789       0.03224466
H       -9.21237803      -5.29178020      -0.70142037       0.00000000       0.00000000      -0.04679343       0.05575863      -0.01068990       0.04969789
H       -7.50482638      -5.49454194      -0.27441097       0.00000000       0.00000000       0.07826428       0.06811761       0.04575432       0.05925643
H       -9.21531349      -7.66897012      -1.54580725       0.00000000       0.00000000      -0.04690776      -0.00787549      -0.04708980       0.05132908
H       -8.90096132      -7.50190103       0.17670145       0.00000000       0.00000000      -0.02886662       0.06885098       0.01076764       0.05053725
H       -6.43520181      -7.67668465      -0.29810905       0.00000000       0.00000000      -0.02827382      -0.02117466       0.03232671       0.03723843
H       -6.80987246      -8.02330462      -1.97366692       0.00000000       0.00000000      -0.04469488      -0.03975758      -0.02958080       0.02849915
H       -7.71990328      -9.69525548       0.41131724       0.00000000       0.00000000       0.00763761      -0.00753596      -0.00343015       0.03767944
H       -6.45868778     -10.12846154      -0.74889213       0.00000000       0.00000000      -0.05028021       0.02093418       0.00534496       0.04148082
H       -8.14071778     -10.02589392      -1.26518695       0.00000000       0.00000000      -0.00293749       0.00726358      -0.01251394       0.04295963
H        0.61844228      -7.79134409      -2.75351358       0.00000000       0.00000000       0.01855780      -0.00376957      -0.09749150       0.06526031
