283
Properties=species:S:1:pos:R:3:initial_charges:R:1:initial_magmoms:R:1:forces:R:3:charge:R:1 energy=-10313.203671321979 free_energy=-10313.203671321979 dipole="-0.46404095179333854 1.3158278520766626 1.4047858798755897" pbc="F F F"
Eu      -0.00813340       0.02851107       0.11015670       3.00000000       0.00000000      -0.05177930      -0.02927850      -0.00962983       0.83777101
C        2.48012088       3.55542482       5.21374188       0.00000000       0.00000000      -0.00562890      -0.01092270       0.01612241      -0.09779662
C        1.28581432       4.03225944       6.03231691       0.00000000       0.00000000       0.00433320      -0.00917151      -0.01814478      -0.05550062
C        0.56610802       2.90825980       6.78200982       0.00000000       0.00000000      -0.01344927       0.04062912      -0.03394342      -0.05411882
C        1.41239690       2.28943129       7.89484352       0.00000000       0.00000000      -0.02145553       0.00861518      -0.00076857      -0.06159773
C        0.60314671       1.54025570       8.95617637       0.00000000       0.00000000      -0.04521605      -0.03234766       0.01870787      -0.06719304
C       -0.00565696       0.21755307       8.47732315       0.00000000       0.00000000       0.04263947      -0.03813055       0.02606041      -0.06157895
C       -1.44698914       0.32811885       7.97510692       0.00000000       0.00000000       0.03763520      -0.04478481      -0.02447201      -0.07172634
C       -1.89217401      -0.99006462       7.33104243       0.00000000       0.00000000      -0.06505581       0.04066750       0.06488034       0.06085906
O       -0.93336042      -1.50716524       6.40859013       0.00000000       0.00000000       0.07085237       0.00311002       0.03391734      -0.21765792
C       -0.65422656      -0.90196529       5.26642098       0.00000000       0.00000000      -0.02594659      -0.01240776      -0.04133892       0.18202026
C        0.44145817      -1.39737723       4.53904528       0.00000000       0.00000000      -0.00661016       0.03110319       0.02318815      -0.06163508
C        0.73719694      -0.83020916       3.31194602       0.00000000       0.00000000       0.01900051      -0.05885035      -0.02524279       0.07903482
C        1.76175822      -1.40923266       2.38221081       0.00000000       0.00000000      -0.06852988      -0.00054805       0.03443181       0.26301635
O        1.52270771      -1.37750957       1.15703354       0.00000000       0.00000000       0.01218056      -0.06310813       0.04809147      -0.39336993
N        2.80928052      -2.07008243       2.88073414       0.00000000       0.00000000      -0.01632884       0.09916237      -0.04655342      -0.04823897
C        3.54268358      -2.95224452       1.98772572       0.00000000       0.00000000      -0.02353608       0.06700858       0.06042765      -0.05816419
C        3.44222131      -1.69721546       4.09546715       0.00000000       0.00000000       0.02494364      -0.03182855      -0.05473127       0.04155469
C        3.52279637      -0.35360081       4.44338091       0.00000000       0.00000000       0.00750692      -0.05909922       0.01181965      -0.04771180
C        4.27314932       0.03781903       5.53586464       0.00000000       0.00000000      -0.02126535      -0.01161921       0.07171626      -0.03413314
C        4.97090087      -0.88857718       6.30682638       0.00000000       0.00000000      -0.01814375      -0.02591755       0.04066943       0.02546636
C        5.90386143      -0.51092919       7.44360612       0.00000000       0.00000000       0.02647413      -0.02071568       0.02810330       0.02716441
C        5.59063885      -1.35612083       8.68867193       0.00000000       0.00000000       0.01370197       0.02391355       0.01404236      -0.11488064
C        7.32656524      -0.81909411       6.94486264       0.00000000       0.00000000       0.01993338      -0.00447505      -0.00012120      -0.11273058
C        5.82450673       0.96941879       7.83350533       0.00000000       0.00000000       0.01314294      -0.04088069      -0.00826564      -0.11447192
C        4.85506237      -2.23298095       5.95179167       0.00000000       0.00000000      -0.07078109      -0.08151012      -0.00808429      -0.02784491
C        4.10636145      -2.64319663       4.86643306       0.00000000       0.00000000      -0.01905042       0.07427320       0.02554563      -0.04279526
N       -0.02484727       0.10836993       2.74686895       0.00000000       0.00000000      -0.05657906      -0.07298965       0.07523955      -0.17064412
C       -1.10695782       0.55509511       3.40319326       0.00000000       0.00000000      -0.04275650       0.04433298       0.02398523       0.07287175
C       -1.83674372       1.54692799       2.52916687       0.00000000       0.00000000      -0.03157409       0.10562939       0.03672694       0.26158981
O       -1.40213344       1.65421791       1.37000638       0.00000000       0.00000000      -0.00547301       0.01346732      -0.05477925      -0.36917206
N       -2.83006144       2.35435946       2.97794577       0.00000000       0.00000000      -0.02956099       0.02920661       0.02422274      -0.05335010
C       -3.83050048       1.86526807       3.91165671       0.00000000       0.00000000      -0.02536725       0.05839115      -0.01452424      -0.06408370
C       -2.95438554       3.70673236       2.53010033       0.00000000       0.00000000       0.03234426      -0.07284400       0.08244973       0.05514544
C       -1.93599822       4.33542288       1.81757410       0.00000000       0.00000000       0.01165121      -0.04840817      -0.01116865      -0.05213181
C       -1.93536198       5.70264205       1.61810503       0.00000000       0.00000000       0.00836894      -0.00508313       0.00418315      -0.03851202
C       -2.93996691       6.52043431       2.12063270       0.00000000       0.00000000       0.00060755      -0.03405758       0.00035430       0.01982138
C       -2.89976836       8.03498045       2.05988577       0.00000000       0.00000000      -0.03538580      -0.00786916       0.00421129       0.02683360
C       -3.19099509       8.59713933       3.45961594       0.00000000       0.00000000       0.01122479       0.00970082       0.00122747      -0.11451937
C       -1.54887909       8.59087408       1.58693761       0.00000000       0.00000000       0.00464503      -0.01580031      -0.01714177      -0.11531921
C       -3.97306216       8.52483420       1.08098668       0.00000000       0.00000000      -0.03115805       0.02297939      -0.01976208      -0.11232180
C       -4.01765729       5.86886805       2.71790093       0.00000000       0.00000000       0.00871045      -0.04415261       0.01390935      -0.02970033
C       -4.02953070       4.50283944       2.92865428       0.00000000       0.00000000      -0.00670334      -0.05609686       0.01533059      -0.04799744
C       -1.40909353       0.13398193       4.69216593       0.00000000       0.00000000      -0.01531724      -0.00243944      -0.01523364      -0.07653892
H        2.87022139       4.37542793       4.61226389       0.00000000       0.00000000       0.00203922      -0.04623063       0.02131163       0.03199492
H        2.18485134       2.74054727       4.55018012       0.00000000       0.00000000       0.01021029       0.02523960       0.02150407       0.01224078
H        3.27587903       3.20570361       5.86612304       0.00000000       0.00000000      -0.03087151      -0.01111594      -0.00538477       0.04247352
H        0.56926709       4.51729922       5.36288353       0.00000000       0.00000000       0.00113129      -0.02653771       0.00828840       0.02040129
H        1.62564293       4.77979335       6.75097471       0.00000000       0.00000000      -0.02643859       0.00410506      -0.01035832       0.04585012
H        0.26563089       2.13830247       6.06259848       0.00000000       0.00000000      -0.00336460       0.01207381       0.02271741       0.00748309
H       -0.33742541       3.33476926       7.22502146       0.00000000       0.00000000      -0.00210298      -0.02379365       0.00486843       0.03350199
H        1.95517889       3.08967672       8.39954049       0.00000000       0.00000000       0.00453463       0.04385349       0.00557564       0.04620219
H        2.15080932       1.61140088       7.46265216       0.00000000       0.00000000       0.01760646      -0.02605760      -0.00336315       0.02891171
H       -0.18586629       2.18718251       9.34008471       0.00000000       0.00000000      -0.01126169       0.03601297       0.01661189       0.04516973
H        1.27373113       1.32502979       9.78812759       0.00000000       0.00000000       0.02125799       0.00129668       0.00994348       0.04943500
H        0.01537951      -0.50775229       9.29159051       0.00000000       0.00000000      -0.02911972       0.00925418       0.02298490       0.04833014
H        0.62068700      -0.18494691       7.67846943       0.00000000       0.00000000       0.04473484      -0.00635163      -0.00669455       0.03406557
H       -1.52828022       1.15206889       7.26699485       0.00000000       0.00000000       0.03443389       0.00920425      -0.03580971       0.04175049
H       -2.12882139       0.53784281       8.80055918       0.00000000       0.00000000       0.06643448      -0.00782226       0.01287363       0.06094345
H       -2.87654454      -0.89112601       6.85855414       0.00000000       0.00000000       0.02205114       0.00807882      -0.05862556       0.04242194
H       -1.96432073      -1.77011260       8.09311135       0.00000000       0.00000000       0.07467470       0.01590359      -0.02850420       0.08630813
H        1.01370868      -2.21035080       4.95299239       0.00000000       0.00000000       0.02131225      -0.00508022       0.00263918       0.08568103
H        3.08887391      -2.86375064       1.00200597       0.00000000       0.00000000       0.09859111      -0.04268165      -0.03132587       0.07661820
H        3.45481216      -3.98198993       2.33490645       0.00000000       0.00000000       0.05261160       0.00776102       0.00916994       0.08048264
H        4.59103025      -2.66229415       1.95358570       0.00000000       0.00000000       0.03573324      -0.04867562      -0.02125134       0.08186958
H        3.02033152       0.38176183       3.82985315       0.00000000       0.00000000       0.02607348       0.01121817      -0.00039618       0.02325500
H        4.32357246       1.08903728       5.76095240       0.00000000       0.00000000       0.04327414       0.02443079       0.05215943       0.05869296
H        5.75848122      -2.41634515       8.51606231       0.00000000       0.00000000      -0.02292087       0.06442810       0.01599642       0.04524837
H        4.55641433      -1.21246159       8.99796671       0.00000000       0.00000000       0.02932217      -0.00751107      -0.02006903       0.03876478
H        6.23610256      -1.05458948       9.51035163       0.00000000       0.00000000      -0.01365750       0.01643373      -0.04048882       0.05932020
H        7.45294339      -1.88345128       6.76149334       0.00000000       0.00000000       0.01241133       0.03517847      -0.00431601       0.04487160
H        8.06912483      -0.51242704       7.67683340       0.00000000       0.00000000      -0.06642502       0.01355104       0.02872909       0.06127947
H        7.51915755      -0.28521552       6.01586316       0.00000000       0.00000000       0.03561829       0.00063608       0.01675494       0.03624955
H        4.82343998       1.23871314       8.16615078       0.00000000       0.00000000       0.00253898      -0.01477526      -0.05384766       0.03787351
H        6.12362530       1.61527263       7.00993413       0.00000000       0.00000000      -0.03293180      -0.02213688       0.01606966       0.03763238
H        6.50704094       1.15747007       8.66081554       0.00000000       0.00000000      -0.03837483      -0.02315053      -0.06213756       0.05722047
H        5.36797042      -2.98280011       6.53156067       0.00000000       0.00000000      -0.00792230      -0.01395620      -0.04366952       0.06858005
H        4.03437987      -3.68971181       4.61367868       0.00000000       0.00000000       0.05803681       0.01350009       0.05162838       0.05325354
H       -3.73826796       0.78930001       4.02091374       0.00000000       0.00000000       0.02031633       0.02891544       0.00295186       0.06772318
H       -4.82957505       2.04496953       3.50749678       0.00000000       0.00000000       0.06979453       0.04376400      -0.04832160       0.08890042
H       -3.75735280       2.37440780       4.87591077       0.00000000       0.00000000       0.00787680      -0.07374131       0.00447898       0.07849410
H       -1.10728169       3.76623818       1.42887086       0.00000000       0.00000000      -0.06417320      -0.02916445      -0.00039014       0.03744554
H       -1.10692144       6.12463297       1.07369597       0.00000000       0.00000000       0.03286942       0.01021175       0.01429057       0.03702190
H       -2.43216221       8.27455780       4.16890833       0.00000000       0.00000000       0.01552136      -0.00562327      -0.00234892       0.03659897
H       -4.16200809       8.28715781       3.83294429       0.00000000       0.00000000       0.01542021      -0.00942683      -0.01062591       0.04717262
H       -3.18979947       9.68187388       3.42057856       0.00000000       0.00000000       0.02260742       0.04592383       0.01916763       0.05832664
H       -0.70725263       8.02336885       1.97855458       0.00000000       0.00000000      -0.03447840       0.04396184       0.03687465       0.03312721
H       -1.44580828       9.61839938       1.92774265       0.00000000       0.00000000      -0.00736515      -0.01985561      -0.03187929       0.05762469
H       -1.49942852       8.60847985       0.49889038       0.00000000       0.00000000       0.04212581      -0.07851444       0.06032633       0.03377387
H       -4.97433264       8.30475144       1.43845411       0.00000000       0.00000000      -0.00683910      -0.02709808      -0.00351245       0.04794222
H       -3.83857519       8.05832265       0.10695179       0.00000000       0.00000000      -0.03781887      -0.00719260      -0.01092872       0.03271647
H       -3.87920543       9.60004219       0.96434620       0.00000000       0.00000000      -0.06633786       0.04709963      -0.02410968       0.05959144
H       -4.86445895       6.44408907       3.05444313       0.00000000       0.00000000      -0.02659062      -0.05305006       0.02520632       0.06498859
H       -4.87913491       4.07528387       3.43432635       0.00000000       0.00000000      -0.00881923       0.09037313      -0.00458236       0.05444477
H       -2.21950382       0.54148082       5.26897104       0.00000000       0.00000000       0.02040311       0.04034875      -0.10810192       0.08194535
C        0.07717670      -1.50313349      -5.51090979       0.00000000       0.00000000      -0.00816907      -0.00736442       0.01392369      -0.09962960
C        1.09554159      -2.43421353      -6.16239943       0.00000000       0.00000000      -0.00991381       0.01035885       0.01796340      -0.05802977
C        1.23406702      -3.78488473      -5.45552424       0.00000000       0.00000000       0.02521716       0.00026071      -0.01962703      -0.05791893
C       -0.07589517      -4.57476739      -5.42706926       0.00000000       0.00000000       0.01200447      -0.02362280      -0.00551413      -0.05720406
C        0.06376526      -6.10034345      -5.36403400       0.00000000       0.00000000       0.00878546      -0.07348276       0.01525417      -0.06772910
C        0.33574812      -6.68254933      -3.97312467       0.00000000       0.00000000       0.03028198      -0.03453245      -0.02632772      -0.05933741
C        1.80619196      -6.63656892      -3.54453908       0.00000000       0.00000000      -0.01110214       0.04056062      -0.00671597      -0.07435533
C        1.98525818      -6.82063715      -2.02966875       0.00000000       0.00000000       0.02139865      -0.02122109       0.00038260       0.06024838
O        0.94625552      -6.24457201      -1.23940466       0.00000000       0.00000000      -0.05872254      -0.01035453      -0.02282664      -0.21697011
C        0.68614000      -4.94778406      -1.22644947       0.00000000       0.00000000       0.12931410       0.09302848       0.00849529       0.18366181
C       -0.46545053      -4.55379153      -0.52031374       0.00000000       0.00000000       0.04377375       0.04632295      -0.00552935      -0.06022638
C       -0.72064393      -3.20193215      -0.38857434       0.00000000       0.00000000       0.02275653       0.00442205       0.00360854       0.07727705
C       -1.67712911      -2.63289216       0.60748685       0.00000000       0.00000000       0.00408412      -0.01441935      -0.00030363       0.26579659
O       -1.37319993      -1.54204991       1.13773297       0.00000000       0.00000000      -0.03529810      -0.04278029       0.02353661      -0.39933569
N       -2.70272927      -3.35243760       1.07563761       0.00000000       0.00000000       0.05174322       0.05753915      -0.01954043      -0.05857699
C       -3.26782305      -2.87992356       2.32973433       0.00000000       0.00000000      -0.01137473      -0.02750564       0.00024783      -0.04833433
C       -3.60761301      -4.05616264       0.23067156       0.00000000       0.00000000       0.03820340       0.02273487       0.08109160       0.04476005
C       -3.95199803      -3.50513330      -0.99457203       0.00000000       0.00000000      -0.03618446      -0.00224936      -0.03622486      -0.04880657
C       -5.05833495      -3.97637223      -1.67817112       0.00000000       0.00000000       0.00600276      -0.00776390      -0.06076459      -0.03423677
C       -5.85039393      -4.99080570      -1.15292414       0.00000000       0.00000000       0.00286109      -0.04044027      -0.00193055       0.02464391
C       -7.19396868      -5.40421292      -1.72033766       0.00000000       0.00000000      -0.04406829      -0.04428723       0.05253477       0.02680628
C       -7.13091140      -6.87627098      -2.15465499       0.00000000       0.00000000      -0.02386657      -0.00474687      -0.01694884      -0.11315384
C       -8.22177120      -5.21619317      -0.59033187       0.00000000       0.00000000      -0.04857486      -0.00267502       0.00331594      -0.11413441
C       -7.63973210      -4.54788297      -2.90934221       0.00000000       0.00000000       0.00377424      -0.05720537       0.01658689      -0.11469835
C       -5.40405761      -5.61470109       0.01349090       0.00000000       0.00000000       0.03145125      -0.05345946      -0.02157542      -0.02832511
C       -4.30263477      -5.16176563       0.70468394       0.00000000       0.00000000       0.04278960       0.02986391      -0.02342600      -0.04291639
N        0.05881374      -2.26618311      -0.93269266       0.00000000       0.00000000       0.06462640      -0.00791690      -0.03243792      -0.16505853
C        1.15901529      -2.60926931      -1.61709320       0.00000000       0.00000000      -0.00483022      -0.00917797       0.01640293       0.07539301
C        1.81819709      -1.34290092      -2.14479147       0.00000000       0.00000000      -0.01672971       0.03371725      -0.00071879       0.26026700
O        1.21065622      -0.28895215      -1.87040852       0.00000000       0.00000000       0.01751959      -0.02824578       0.02728992      -0.36081884
N        2.92183795      -1.33306784      -2.92170113       0.00000000       0.00000000       0.00350729       0.02845864      -0.04490842      -0.03892832
C        3.95567961      -2.34734682      -2.79529455       0.00000000       0.00000000      -0.02490015       0.01717773       0.00922809      -0.06547209
C        3.17494833      -0.25732213      -3.83459849       0.00000000       0.00000000      -0.03487955      -0.01739475      -0.07603361       0.05586448
C        2.20651436       0.69403880      -4.15898598       0.00000000       0.00000000       0.00108249      -0.00371843      -0.01384911      -0.04387429
C        2.43473946       1.65799474      -5.12371999       0.00000000       0.00000000      -0.00294259       0.01785359       0.01066171      -0.03766172
C        3.63826655       1.74860861      -5.81374769       0.00000000       0.00000000      -0.01250912      -0.03988521       0.06647989       0.02130076
C        3.92761933       2.80586840      -6.86264152       0.00000000       0.00000000      -0.00262578       0.00406639       0.02804419       0.02677273
C        4.57110093       2.14198690      -8.08824242       0.00000000       0.00000000       0.00313336       0.01987147       0.01606014      -0.11483589
C        2.66418019       3.54166423      -7.32228254       0.00000000       0.00000000       0.02422246      -0.01455444       0.01519355      -0.11123555
C        4.88963177       3.83373251      -6.24539644       0.00000000       0.00000000      -0.00183811      -0.00789169      -0.03851018      -0.10978767
C        4.60537056       0.80421048      -5.47640673       0.00000000       0.00000000      -0.01983986       0.02461723       0.00394886      -0.03176042
C        4.38166876      -0.18021677      -4.53288949       0.00000000       0.00000000      -0.01261700      -0.00391433       0.01573942      -0.04887977
C        1.50551249      -3.94521506      -1.78253612       0.00000000       0.00000000      -0.01385606      -0.07464935      -0.03730570      -0.07350117
H        0.19404412      -0.49665090      -5.90827383       0.00000000       0.00000000      -0.02588216      -0.03828659       0.03058699       0.03577121
H        0.21443001      -1.46789098      -4.42874726       0.00000000       0.00000000       0.00868074       0.01339081      -0.05683755       0.01524608
H       -0.94119297      -1.82648707      -5.71397256       0.00000000       0.00000000       0.03759922      -0.01531829       0.02282734       0.03923040
H        2.07195089      -1.94336307      -6.17155675       0.00000000       0.00000000       0.00870599       0.00432509       0.01460628       0.02752814
H        0.80549458      -2.60314666      -7.20034630       0.00000000       0.00000000       0.02331930       0.00141664      -0.01046653       0.04602932
H        1.58636473      -3.60699340      -4.43596772       0.00000000       0.00000000      -0.01236789      -0.00629324      -0.03262476       0.00819035
H        1.98982522      -4.36759457      -5.98761437       0.00000000       0.00000000      -0.00045690       0.01716936       0.01432267       0.03920403
H       -0.62217416      -4.33787173      -6.34102349       0.00000000       0.00000000      -0.00309116      -0.01560961      -0.04630557       0.04385936
H       -0.68241447      -4.23814234      -4.58297823       0.00000000       0.00000000      -0.02757379       0.01231596       0.01366792       0.01735415
H        0.83543914      -6.43393592      -6.05695022       0.00000000       0.00000000       0.02529615       0.01740695      -0.04035384       0.04867903
H       -0.88214084      -6.52298873      -5.70795189       0.00000000       0.00000000       0.00630386      -0.02424026      -0.01678274       0.04609058
H       -0.00275353      -7.71963834      -3.95492824       0.00000000       0.00000000       0.02622451       0.00404559       0.02255005       0.04981844
H       -0.27343710      -6.13224742      -3.25430621       0.00000000       0.00000000      -0.06118048       0.00043623       0.01039065       0.02878356
H        2.24464180      -5.69343282      -3.86522932       0.00000000       0.00000000      -0.02156096       0.03153988      -0.02122059       0.04557034
H        2.37389737      -7.43250989      -4.02938466       0.00000000       0.00000000      -0.08497818       0.03652207      -0.03682457       0.06327896
H        2.96286500      -6.44330036      -1.70878170       0.00000000       0.00000000       0.00613898       0.05866186       0.01769218       0.04520506
H        1.93695746      -7.87766030      -1.76218566       0.00000000       0.00000000      -0.08302905      -0.01988746      -0.04071740       0.08593779
H       -1.08755078      -5.30424470      -0.06523175       0.00000000       0.00000000      -0.03230530      -0.04648171       0.01442563       0.08880020
H       -2.44667003      -2.59390544       2.98684632       0.00000000       0.00000000      -0.04501290       0.03088330       0.02011150       0.06445035
H       -3.84401737      -3.67876982       2.78581773       0.00000000       0.00000000      -0.05240085      -0.00508808      -0.01078344       0.08970495
H       -3.91146123      -2.01509008       2.15608481       0.00000000       0.00000000      -0.02662938       0.01059442       0.05550472       0.06521107
H       -3.39463591      -2.66522788      -1.38499941       0.00000000       0.00000000      -0.00851324       0.01316432       0.04475138       0.03503988
H       -5.30570718      -3.49811891      -2.61135690       0.00000000       0.00000000      -0.07582559       0.00270241      -0.00286162       0.05877512
H       -6.96589135      -7.53964886      -1.30792220       0.00000000       0.00000000      -0.00238319       0.05841953      -0.05998421       0.04570260
H       -6.32441355      -7.02571859      -2.87179940       0.00000000       0.00000000      -0.03631279       0.00399954       0.02959802       0.03888781
H       -8.06611077      -7.16346009      -2.62938192       0.00000000       0.00000000       0.01548383       0.01738593       0.02894451       0.05979643
H       -8.00134487      -5.84338044       0.26981684       0.00000000       0.00000000      -0.03558878       0.01931663      -0.05706788       0.04427919
H       -9.22102888      -5.46550087      -0.93606630       0.00000000       0.00000000       0.01904307      -0.01253697      -0.05297593       0.05956718
H       -8.22107958      -4.17687600      -0.26436307       0.00000000       0.00000000      -0.03627805      -0.02513183       0.00514333       0.03439473
H       -7.00944921      -4.72335552      -3.77871975       0.00000000       0.00000000      -0.00593426       0.03670367       0.06250007       0.04289702
H       -7.63080220      -3.48944423      -2.65276188       0.00000000       0.00000000       0.02029207      -0.03418941      -0.04115694       0.03331165
H       -8.66009913      -4.81628239      -3.18095127       0.00000000       0.00000000       0.08875912       0.00540291       0.01315299       0.05607596
H       -5.95054374      -6.45253280       0.41081935       0.00000000       0.00000000       0.02210644      -0.05075519       0.02614060       0.06782948
H       -3.99810104      -5.64550667       1.61884990       0.00000000       0.00000000      -0.01238897      -0.01815941       0.03977445       0.05240500
H        3.82058197      -2.91102763      -1.87689594       0.00000000       0.00000000      -0.06676018       0.00750714      -0.01868286       0.06376959
H        4.92785950      -1.85988667      -2.71141589       0.00000000       0.00000000      -0.04553895       0.01036770       0.00597634       0.09152626
H        3.97730442      -3.01107556      -3.66471387       0.00000000       0.00000000      -0.01152188       0.03532402       0.06204366       0.08026647
H        1.24055445       0.69465023      -3.68342462       0.00000000       0.00000000       0.01380183       0.00049884       0.05188381       0.05777678
H        1.63340392       2.34913566      -5.32700444       0.00000000       0.00000000      -0.00326599       0.02443543      -0.03644242       0.04928487
H        3.97560268       1.29199839      -8.41300538       0.00000000       0.00000000       0.00268564      -0.00585260      -0.01451285       0.04050074
H        5.58012083       1.80301500      -7.87889177       0.00000000       0.00000000       0.02200655      -0.02626376       0.00074647       0.04610094
H        4.62956277       2.84983310      -8.90868374       0.00000000       0.00000000      -0.00011903       0.04789142      -0.02134770       0.05611301
H        1.91156436       2.83853599      -7.67637115       0.00000000       0.00000000       0.03505625       0.03174848       0.02933552       0.03823998
H        2.91513431       4.20704558      -8.14569718       0.00000000       0.00000000      -0.00197531      -0.02003701       0.02410930       0.05226919
H        2.25273744       4.15396847      -6.52166613       0.00000000       0.00000000      -0.03003964      -0.07140411      -0.01255065       0.03563610
H        5.81531015       3.36574478      -5.92081004       0.00000000       0.00000000      -0.01891537      -0.01579915       0.01636070       0.04204879
H        4.42406465       4.32070931      -5.39022795       0.00000000       0.00000000       0.02588043      -0.03392271       0.02598370       0.03079719
H        5.13414925       4.59854611      -6.97625125       0.00000000       0.00000000       0.01007552       0.00478439      -0.05228286       0.05756753
H        5.56355583       0.82457398      -5.96881987       0.00000000       0.00000000       0.00893998      -0.04992148       0.00524700       0.06168095
H        5.16936566      -0.89634790      -4.38246885       0.00000000       0.00000000       0.06525645       0.01629969      -0.00764019       0.05055866
H        2.38733977      -4.25476650      -2.31508028       0.00000000       0.00000000      -0.05977981       0.05128970       0.02082760       0.08317081
C       -2.28303490       4.35976203      -7.39016837       0.00000000       0.00000000      -0.01129778      -0.01268090      -0.00751384      -0.10788830
C       -1.14325942       3.91229023      -6.48214939       0.00000000       0.00000000      -0.01427933       0.01390152      -0.02271940      -0.05321461
C       -0.76157154       4.98070840      -5.46083352       0.00000000       0.00000000       0.02268935       0.00499543      -0.01335710      -0.05285880
C       -0.23660237       6.27094680      -6.09130593       0.00000000       0.00000000      -0.01150517      -0.02360725      -0.02478761      -0.06377710
C        0.12075409       7.30562852      -5.02346501       0.00000000       0.00000000      -0.02584888       0.03158851      -0.00487895      -0.06142655
C       -1.12331112       7.89606604      -4.34879021       0.00000000       0.00000000      -0.05354477       0.05758089       0.09039158      -0.06605018
C       -0.94934540       8.28106733      -2.87172365       0.00000000       0.00000000      -0.04151035       0.11330990      -0.05547001      -0.06743613
C       -0.42804510       7.14588018      -1.99300950       0.00000000       0.00000000      -0.01199751      -0.00741712       0.04370196       0.07276491
O       -1.20783333       5.98384483      -2.25683530       0.00000000       0.00000000      -0.00236018      -0.02529050       0.01645050      -0.20466804
C       -0.85516127       4.80064534      -1.79511439       0.00000000       0.00000000       0.04799394      -0.03038889       0.04723911       0.18138852
C       -1.68044192       3.72838204      -2.19399590       0.00000000       0.00000000       0.04309106       0.06091655       0.01594498      -0.06075971
C       -1.43467110       2.46367429      -1.69346430       0.00000000       0.00000000      -0.07906198       0.02589877       0.01737194       0.07474378
C       -2.21476909       1.18709180      -1.91178732       0.00000000       0.00000000      -0.00039171       0.02660424       0.01343276       0.26191096
O       -1.74586596       0.15900368      -1.38300353       0.00000000       0.00000000       0.01583744       0.04315077       0.02554440      -0.36608665
N       -3.32818721       1.13998512      -2.67346815       0.00000000       0.00000000      -0.00121517      -0.01893763      -0.03863588      -0.04177781
C       -4.27541313       2.24565421      -2.69413498       0.00000000       0.00000000       0.02458279      -0.04784213       0.00836966      -0.06892129
C       -3.69189122      -0.04249365      -3.38567849       0.00000000       0.00000000       0.02313373       0.00134388      -0.05402166       0.05393137
C       -4.83841281      -0.04655235      -4.18044466       0.00000000       0.00000000       0.02547911      -0.00032941       0.03471432      -0.04898004
C       -5.15903159      -1.13135897      -4.97280005       0.00000000       0.00000000       0.00134431      -0.05077342       0.01426822      -0.03505102
C       -4.36783744      -2.27472564      -5.01706859       0.00000000       0.00000000       0.02417667      -0.00734016       0.05463604       0.01935391
C       -4.63990226      -3.40575294      -5.98614857       0.00000000       0.00000000      -0.02727846       0.00153459      -0.02565346       0.02705073
C       -4.31426327      -4.79431626      -5.41689024       0.00000000       0.00000000       0.01427583      -0.00292252      -0.00366097      -0.11151298
C       -6.09838575      -3.40807078      -6.45375515       0.00000000       0.00000000      -0.05857533      -0.04862871      -0.02503158      -0.11827689
C       -3.72073387      -3.14996690      -7.19268979       0.00000000       0.00000000      -0.01450828      -0.01653676      -0.01312554      -0.10855768
C       -3.23502922      -2.27076214      -4.20963171       0.00000000       0.00000000       0.01239712       0.01370032       0.05792967      -0.03430813
C       -2.89037188      -1.18658818      -3.42424384       0.00000000       0.00000000      -0.04518566       0.01864911      -0.00108234      -0.04756447
N       -0.35634921       2.22639664      -0.93460405       0.00000000       0.00000000       0.01550544       0.00171147       0.00122835      -0.15693660
C        0.45119205       3.21865168      -0.56332943       0.00000000       0.00000000       0.04998023      -0.02703876       0.02731941       0.07970676
C        1.60202496       2.69506791       0.26201544       0.00000000       0.00000000      -0.03402611       0.04231462      -0.01844149       0.26440860
O        1.71583501       1.45461341       0.36481996       0.00000000       0.00000000       0.05653075       0.05588823       0.01104655      -0.38653002
N        2.52144147       3.49800649       0.80024670       0.00000000       0.00000000      -0.06254360       0.03352742      -0.01761460      -0.05030275
C        3.68105858       2.87433158       1.42589990       0.00000000       0.00000000       0.00595369       0.01118618      -0.07025317      -0.05567132
C        2.35799375       4.84155979       1.26606221       0.00000000       0.00000000      -0.01735236      -0.02004358      -0.01414411       0.04084238
C        1.43512586       5.08781139       2.27538871       0.00000000       0.00000000      -0.00742296      -0.03759725      -0.00651274      -0.04542583
C        1.50548303       6.26219930       2.99770020       0.00000000       0.00000000      -0.04109926       0.00579278      -0.02522122      -0.03136981
C        2.51031566       7.19984648       2.76380874       0.00000000       0.00000000      -0.03762193      -0.01784645      -0.08181371       0.02302354
C        2.68787599       8.36595647       3.71271173       0.00000000       0.00000000       0.03704802       0.10680968       0.06836536       0.02674934
C        1.56220314       9.38423124       3.47743884       0.00000000       0.00000000       0.00680745       0.01207309       0.01925593      -0.11209001
C        4.04908659       9.04507694       3.53526554       0.00000000       0.00000000       0.05491228       0.02672542       0.00722604      -0.11787906
C        2.62923074       7.84664335       5.15807849       0.00000000       0.00000000       0.01806586       0.01793939       0.02234849      -0.11336111
C        3.33441990       6.99708741       1.65670304       0.00000000       0.00000000      -0.06426988       0.02085262       0.03889500      -0.03360235
C        3.26612758       5.83340866       0.91382747       0.00000000       0.00000000      -0.03809614      -0.12839611      -0.03728849      -0.04384127
C        0.23165980       4.53421037      -0.94349398       0.00000000       0.00000000      -0.02657728       0.10555260      -0.04000570      -0.07118386
H       -2.64816428       3.52141356      -7.97786467       0.00000000       0.00000000      -0.02389848       0.01132104       0.00145266       0.03930227
H       -1.94324384       5.12774133      -8.07963336       0.00000000       0.00000000      -0.03749143      -0.02582670       0.01369668       0.04843259
H       -3.10837348       4.76470368      -6.80474672       0.00000000       0.00000000       0.02179989      -0.05593658      -0.04288397       0.03284041
H       -0.27223859       3.67462034      -7.09429627       0.00000000       0.00000000      -0.02323970      -0.02963108      -0.01597292       0.03718027
H       -1.43435452       3.00053294      -5.94697837       0.00000000       0.00000000       0.00234760       0.03463009      -0.02500300       0.01093202
H        0.00648226       4.57437299      -4.79253311       0.00000000       0.00000000       0.00931030       0.00587665       0.01093906       0.00444604
H       -1.63614202       5.21186053      -4.85016065       0.00000000       0.00000000      -0.00882377      -0.03858001      -0.00640262       0.02671988
H       -0.98260422       6.69296939      -6.76577852       0.00000000       0.00000000       0.01869364      -0.01658067       0.06137796       0.04884141
H        0.65146377       6.03963804      -6.68442780       0.00000000       0.00000000      -0.02493666       0.02731267       0.01815558       0.03829761
H        0.70832702       8.10158464      -5.47914350       0.00000000       0.00000000       0.00508692       0.04739023       0.01946145       0.04381874
H        0.75333400       6.81448147      -4.28562917       0.00000000       0.00000000       0.09379009      -0.01128781       0.02925358       0.02298435
H       -1.94469217       7.18196650      -4.41485116       0.00000000       0.00000000       0.02706233       0.01468582       0.03931590       0.04963755
H       -1.44151016       8.79217138      -4.88366077       0.00000000       0.00000000       0.02782984      -0.04077849      -0.01556774       0.05378839
H       -1.92302309       8.60973999      -2.49410548       0.00000000       0.00000000       0.10990585      -0.04793504      -0.02631405       0.05667017
H       -0.25458733       9.11667719      -2.77062821       0.00000000       0.00000000       0.00388295      -0.02321950      -0.04298075       0.05879533
H       -0.51743675       7.41305230      -0.93149383       0.00000000       0.00000000       0.01489368      -0.00526273      -0.05773941       0.04457685
H        0.62628703       6.94479568      -2.20573306       0.00000000       0.00000000       0.02435274      -0.01995874      -0.02999626       0.04532394
H       -2.46661485       3.96460224      -2.88884179       0.00000000       0.00000000       0.01243981      -0.02299955       0.02315877       0.09834307
H       -4.03058931       2.95451522      -1.90909379       0.00000000       0.00000000       0.02953886       0.00365982       0.00093612       0.07175037
H       -5.27172868       1.85522366      -2.47111618       0.00000000       0.00000000       0.06403446       0.00674978      -0.02534812       0.09219067
H       -4.30557311       2.74661151      -3.66508559       0.00000000       0.00000000       0.03165613      -0.04076837       0.04954061       0.08390847
H       -5.49073505       0.80587210      -4.23397739       0.00000000       0.00000000      -0.04042193       0.01200802      -0.00434184       0.05460859
H       -6.05138741      -1.06652141      -5.56853009       0.00000000       0.00000000      -0.03747263       0.01935631      -0.05535878       0.06721961
H       -4.83855666      -4.98547082      -4.48316402       0.00000000       0.00000000       0.03881712       0.06728856       0.00874240       0.03546637
H       -3.24766506      -4.93773959      -5.25892213       0.00000000       0.00000000      -0.03559541       0.06317490       0.05177239       0.03509106
H       -4.63453473      -5.54332714      -6.13693533       0.00000000       0.00000000       0.02901794      -0.03314426       0.01585432       0.05345229
H       -6.78396506      -3.37565671      -5.60806771       0.00000000       0.00000000       0.03281406       0.02290810      -0.05594363       0.04144634
H       -6.29733004      -4.32121858      -7.00832838       0.00000000       0.00000000      -0.02447844       0.02114276      -0.04189142       0.05391743
H       -6.30824240      -2.57214328      -7.11663397       0.00000000       0.00000000       0.00335109      -0.01850061       0.03367434       0.04722155
H       -2.67625771      -3.21338811      -6.89567883       0.00000000       0.00000000       0.00149969       0.01477674      -0.02064443       0.03402415
H       -3.89862914      -2.16350212      -7.61484784       0.00000000       0.00000000      -0.01709607      -0.01400421      -0.00572909       0.04107383
H       -3.90810995      -3.89558219      -7.95906796       0.00000000       0.00000000       0.00188115      -0.00984334      -0.04480457       0.05910686
H       -2.59928572      -3.14100225      -4.17574042       0.00000000       0.00000000       0.02931521       0.02139825      -0.04732184       0.04542615
H       -1.97217682      -1.24393154      -2.85958084       0.00000000       0.00000000      -0.03013542       0.00194360      -0.00989690       0.05688563
H        3.80275146       1.86674039       1.03506575       0.00000000       0.00000000       0.00310673      -0.00125974      -0.01344046       0.08547781
H        3.54698144       2.83541641       2.50800805       0.00000000       0.00000000       0.04198312      -0.00937818       0.00910802       0.07237060
H        4.56200903       3.47197228       1.19841029       0.00000000       0.00000000       0.00477338      -0.01082392       0.02879861       0.08556170
H        0.70064956       4.33459544       2.52824859       0.00000000       0.00000000       0.10128988       0.03390369       0.00601133       0.03197707
H        0.79404429       6.41139796       3.79616461       0.00000000       0.00000000       0.02348756       0.02175995      -0.08050531       0.05354160
H        1.49783738       9.65762277       2.42470845       0.00000000       0.00000000       0.03402412      -0.00933279       0.05846313       0.03834530
H        1.75686438      10.28546762       4.05416879       0.00000000       0.00000000      -0.01679963      -0.03837194      -0.01793575       0.06065840
H        0.60255312       8.97946108       3.79303937       0.00000000       0.00000000       0.03400750       0.01767347      -0.02752802       0.04051103
H        4.14585695       9.53751989       2.57015952       0.00000000       0.00000000      -0.04068951      -0.02234845       0.03387050       0.04484639
H        4.85210000       8.31707705       3.65418731       0.00000000       0.00000000      -0.03261961       0.07727294      -0.06305366       0.04136054
H        4.17671781       9.80554813       4.30303789       0.00000000       0.00000000      -0.02429062      -0.02501961      -0.03825950       0.05768632
H        1.67520799       7.38061767       5.38767339       0.00000000       0.00000000       0.02871038       0.02633171       0.04266634       0.03709650
H        2.77239437       8.66927789       5.85496043       0.00000000       0.00000000       0.00901977      -0.01766893      -0.05320355       0.05840998
H        3.42315112       7.11854347       5.31963278       0.00000000       0.00000000      -0.05465320       0.01616539       0.03875246       0.03790722
H        4.07027530       7.73417078       1.38405136       0.00000000       0.00000000      -0.00032167      -0.00663682       0.01232985       0.07211392
H        3.93434753       5.67675370       0.07814301       0.00000000       0.00000000       0.01525801       0.00065165       0.08761664       0.05114842
H        0.87277418       5.32262492      -0.58403673       0.00000000       0.00000000       0.01301322      -0.00044798      -0.06281938       0.07350358
