103
Properties=species:S:1:pos:R:3:initial_charges:R:1:initial_magmoms:R:1:forces:R:3:charge:R:1 energy=-4273.7357237613205 free_energy=-4273.7357237613205 dipole="0.36567437999705615 -0.26387466587476144 0.8518940057203368" pbc="F F F"
Eu      -0.09405773       0.36191039      -0.09180920       1.00000000       0.00000000      -0.07671853       0.11632855      -0.04923935       0.79956001
C        4.01107751       6.40716569       0.61490430       0.00000000       0.00000000      -0.01053353      -0.00184849       0.00321383      -0.10488439
C        3.00402185       6.07998523      -0.47975188       0.00000000       0.00000000      -0.02458663       0.03139501      -0.00075745      -0.05677392
C        3.43627804       4.88387762      -1.32044309       0.00000000       0.00000000      -0.01846702      -0.00717362       0.00231935      -0.05550489
C        2.38831648       4.52736191      -2.36904371       0.00000000       0.00000000      -0.03172613      -0.01846898      -0.03747563      -0.06454167
C        2.88509989       3.40532889      -3.29492886       0.00000000       0.00000000      -0.02581443       0.10068077      -0.07396212      -0.07234550
C        3.03025621       2.12795978      -2.54669960       0.00000000       0.00000000       0.00336761       0.05195084       0.00803058       0.09170471
N        1.91839005       1.71632747      -1.95607000       0.00000000       0.00000000      -0.02053843      -0.03107165      -0.04352918      -0.06905912
N        1.90943299       0.62922106      -1.22962521       0.00000000       0.00000000      -0.05177486      -0.01505001      -0.02620130      -0.10955320
C        3.06003872      -0.01330933      -1.00786718       0.00000000       0.00000000      -0.03887405      -0.03423227       0.01142327       0.17408641
C        2.95188314      -1.18963672      -0.12874617       0.00000000       0.00000000      -0.06255054       0.00220827       0.04861721       0.09026779
C        3.98826754      -2.10812497      -0.00547491       0.00000000       0.00000000       0.03111258       0.08048109      -0.05905387      -0.02036566
C        3.73280687      -3.26240009       0.71081515       0.00000000       0.00000000       0.02268176      -0.02344704       0.05519152       0.00186851
C        2.50956783      -3.41766770       1.34435407       0.00000000       0.00000000       0.03294424      -0.01689191       0.00749924      -0.02478514
C        1.55380021      -2.40213580       1.25480665       0.00000000       0.00000000       0.02266064       0.02862833       0.03073203       0.10267539
C        0.25505169      -2.41855944       1.97762638       0.00000000       0.00000000      -0.01328347      -0.01976672      -0.01730800       0.10211960
C       -0.02770496      -3.29954267       3.02422847       0.00000000       0.00000000       0.05184416      -0.04304555      -0.10785104      -0.02519244
C       -1.28121348      -3.28304780       3.61345669       0.00000000       0.00000000       0.08479516      -0.10587160       0.03081041       0.00224094
C       -2.22854296      -2.38074619       3.16790825       0.00000000       0.00000000      -0.01822798       0.01382293       0.02130275      -0.01996493
C       -1.84529157      -1.48274348       2.17738305       0.00000000       0.00000000      -0.04049825      -0.04726191      -0.02002076       0.09049466
C       -2.74678566      -0.40787280       1.72970473       0.00000000       0.00000000       0.07409555       0.02774150      -0.06374401       0.17296558
N       -2.18507216       0.49767089       0.92367588       0.00000000       0.00000000       0.01673610       0.01984328      -0.05250265      -0.10575543
N       -2.93919477       1.41838229       0.37746388       0.00000000       0.00000000       0.00102757       0.08754950       0.05678446      -0.06652052
C       -4.20497240       1.55713588       0.73804202       0.00000000       0.00000000       0.02882656      -0.00506009       0.02633939       0.09178975
C       -4.95554358       2.64552653       0.06272016       0.00000000       0.00000000       0.02179350       0.07694352      -0.00704223      -0.07438356
C       -4.52605190       4.03695841       0.58277533       0.00000000       0.00000000      -0.01419671      -0.02283466      -0.00797565      -0.05472748
C       -3.17232947       4.49321556       0.03851116       0.00000000       0.00000000      -0.02416762       0.00857175       0.05544366      -0.06713640
C       -2.93603136       5.99034584       0.26512301       0.00000000       0.00000000       0.01366977      -0.01847194      -0.02079847      -0.05553663
C       -2.84180618       6.37409957       1.73928235       0.00000000       0.00000000      -0.01049319      -0.01614070      -0.05828193      -0.10824523
C       -4.73164649       0.69862942       1.74703189       0.00000000       0.00000000       0.03466623      -0.02569104       0.04844907       0.12634104
C       -6.06433026       0.83283173       2.38946837       0.00000000       0.00000000      -0.02914154      -0.01380215       0.04494459      -0.07488492
C       -6.23724792       2.11323687       3.22768510       0.00000000       0.00000000      -0.01550866       0.02093896      -0.03591836      -0.05994951
C       -5.16417602       2.31849153       4.29937197       0.00000000       0.00000000      -0.04537674      -0.03408851      -0.03901319      -0.05849276
C       -5.15422506       1.21581731       5.35809246       0.00000000       0.00000000       0.00290242       0.02866720      -0.02690997      -0.05660648
C       -4.20781273       1.55652796       6.50541806       0.00000000       0.00000000      -0.03439638      -0.03387816      -0.04128581      -0.10690692
N       -4.00095421      -0.32829758       2.15352282       0.00000000       0.00000000       0.05596863       0.05627903       0.07966489      -0.21513681
N       -0.64228430      -1.50924887       1.59269609       0.00000000       0.00000000      -0.04891511       0.10044579       0.02078149      -0.13124132
N        1.77443977      -1.33294930       0.48846370       0.00000000       0.00000000      -0.01861022       0.06273527      -0.08960925      -0.13184261
N        4.20671583       0.31799805      -1.57879960       0.00000000       0.00000000       0.01388223      -0.04822770      -0.09290068      -0.21048072
C        4.21863511       1.35233280      -2.40812140       0.00000000       0.00000000       0.03180956      -0.00642884       0.05840979       0.12526324
C        5.49891987       1.60655825      -3.12373360       0.00000000       0.00000000       0.01017865      -0.00411369      -0.03848127      -0.07134141
C        6.70161743       1.58087172      -2.16641082       0.00000000       0.00000000      -0.03086679      -0.06041732      -0.05954211      -0.06065867
C        6.62037705       2.69802070      -1.13312000       0.00000000       0.00000000      -0.01041055      -0.02785487      -0.01037595      -0.05754722
C        7.80817146       2.69617054      -0.17645637       0.00000000       0.00000000       0.03755612       0.01463952       0.00436933      -0.05550193
C        7.66970098       3.79465587       0.87011087       0.00000000       0.00000000       0.00591360       0.00597995       0.01024891      -0.10544930
H        3.67591915       7.26925193       1.18505421       0.00000000       0.00000000       0.01993322      -0.00244056       0.01718095       0.04388229
H        4.98608071       6.63549712       0.18932158       0.00000000       0.00000000      -0.01598210      -0.00845598      -0.00611945       0.03765004
H        4.12174475       5.56712434       1.29689757       0.00000000       0.00000000       0.00824345      -0.00132407       0.00889320       0.03383874
H        2.88542232       6.94631844      -1.13217253       0.00000000       0.00000000      -0.01018313       0.03565798      -0.00903856       0.03782839
H        2.03089690       5.86772059      -0.03221186       0.00000000       0.00000000       0.01071692      -0.00387927       0.03081808       0.03719371
H        3.60105936       4.02500363      -0.66530660       0.00000000       0.00000000       0.01423801      -0.03125161       0.03788079       0.01843273
H        4.38451981       5.10984937      -1.81318041       0.00000000       0.00000000       0.02121732       0.03323544       0.01258531       0.03609314
H        2.16467974       5.40387125      -2.97926791       0.00000000       0.00000000       0.03190883       0.00103730       0.01468538       0.05665040
H        1.46414531       4.21328952      -1.88000879       0.00000000       0.00000000       0.00369231      -0.04721166      -0.00163439       0.06458043
H        3.81470773       3.71623890      -3.76727613       0.00000000       0.00000000       0.04448736      -0.05872876       0.00010296       0.06212723
H        2.13807737       3.24962753      -4.07495690       0.00000000       0.00000000      -0.03025754      -0.01734919      -0.02931599       0.08853947
H        4.93682314      -1.90296402      -0.47503282       0.00000000       0.00000000      -0.02068290      -0.08558409      -0.04361551       0.09774970
H        4.48286517      -4.03325705       0.77208960       0.00000000       0.00000000       0.02958242      -0.06465479       0.06555985       0.08770887
H        2.31663147      -4.32568521       1.88320644       0.00000000       0.00000000      -0.08346259      -0.10877546       0.11493837       0.08139659
H        0.72099793      -3.98969066       3.36345091       0.00000000       0.00000000       0.08102713      -0.11483733       0.10422332       0.08113068
H       -1.51181382      -3.96618408       4.41415990       0.00000000       0.00000000      -0.01604854      -0.06357204       0.02875768       0.08790109
H       -3.22962313      -2.35235770       3.56423203       0.00000000       0.00000000      -0.00122252       0.05429836       0.04866914       0.09852791
H       -6.02753004       2.51247414       0.20103610       0.00000000       0.00000000       0.00009465      -0.01046218       0.00503555       0.06121768
H       -4.71864149       2.60788336      -1.00020737       0.00000000       0.00000000      -0.04186260      -0.01389991      -0.07571764       0.08450910
H       -4.49409275       4.02224040       1.67485424       0.00000000       0.00000000      -0.02417098       0.05885873      -0.07193011       0.04485334
H       -5.29563943       4.74846932       0.27059168       0.00000000       0.00000000       0.06080695      -0.02982648       0.02647210       0.05667181
H       -3.12094378       4.28727571      -1.03406675       0.00000000       0.00000000      -0.02463985       0.01792279       0.07161722       0.04512797
H       -2.36811045       3.93275455       0.51982817       0.00000000       0.00000000       0.01577215      -0.05104557      -0.04473420       0.05086150
H       -3.73930510       6.56027617      -0.21143442       0.00000000       0.00000000       0.04020588      -0.02452647       0.03691419       0.03474230
H       -2.00148226       6.26309095      -0.22925020       0.00000000       0.00000000      -0.00889043      -0.00603040       0.00624000       0.03964570
H       -3.80015039       6.24985533       2.23728001       0.00000000       0.00000000       0.01297197      -0.01800562       0.02238926       0.03260848
H       -2.54920484       7.41712542       1.83606008       0.00000000       0.00000000      -0.00247793      -0.01850483      -0.00643975       0.04057999
H       -2.09773505       5.76261728       2.24602567       0.00000000       0.00000000      -0.01827230      -0.00029310      -0.01222886       0.04206309
H       -6.19532317      -0.03876301       3.02794080       0.00000000       0.00000000      -0.04313737      -0.04975716       0.04080770       0.08144834
H       -6.84322037       0.81513175       1.62421695       0.00000000       0.00000000       0.00766951       0.03746189      -0.04562342       0.07394638
H       -7.21603025       2.05289875       3.71070619       0.00000000       0.00000000       0.06198776       0.01128457      -0.02004623       0.05703954
H       -6.24975241       2.97747842       2.56405443       0.00000000       0.00000000      -0.01558645       0.02803946       0.02263919       0.04834228
H       -5.35944758       3.27671683       4.78714053       0.00000000       0.00000000      -0.00823546      -0.03151386       0.00960761       0.04717464
H       -4.17371490       2.38988415       3.83943943       0.00000000       0.00000000      -0.02213176      -0.03204551      -0.02518968       0.02175601
H       -4.84061952       0.27411590       4.89485003       0.00000000       0.00000000      -0.03825545       0.06681037       0.09748140       0.02894240
H       -6.16867746       1.08860311       5.75044700       0.00000000       0.00000000       0.10814163      -0.01856832      -0.03979024       0.03908331
H       -3.19338036       1.69265742       6.13530851       0.00000000       0.00000000      -0.00881522      -0.00807018       0.01973099       0.03403260
H       -4.20612989       0.75820509       7.24251664       0.00000000       0.00000000       0.03098443      -0.01803075       0.00706065       0.04033670
H       -4.51587455       2.47350309       7.00363016       0.00000000       0.00000000      -0.00886455      -0.01526237      -0.05031455       0.04274705
H        5.46063877       2.55087147      -3.66591557       0.00000000       0.00000000       0.03132895      -0.01455639       0.04505472       0.06394117
H        5.63205734       0.80340950      -3.85663897       0.00000000       0.00000000      -0.03659703       0.02949217       0.02723150       0.08738882
H        7.61667756       1.67831345      -2.75224059       0.00000000       0.00000000      -0.01606471       0.03245211       0.00597273       0.05479725
H        6.72617003       0.61604806      -1.66029206       0.00000000       0.00000000       0.00119299      -0.01216589       0.01845513       0.05580729
H        5.70377995       2.57755386      -0.55298429       0.00000000       0.00000000      -0.06299408       0.02468227       0.03746578       0.02390751
H        6.56879030       3.66264164      -1.64105607       0.00000000       0.00000000       0.01402919       0.03080467       0.00068661       0.03858234
H        8.72956308       2.84677827      -0.74074136       0.00000000       0.00000000       0.02038225       0.00311437      -0.02105632       0.03845245
H        7.88032184       1.72393764       0.31813135       0.00000000       0.00000000      -0.03072298       0.03365398      -0.01093756       0.03215330
H        7.62038289       4.77265217       0.39715280       0.00000000       0.00000000       0.00172065      -0.00378791      -0.01701999       0.03936012
H        8.51934733       3.78796559       1.54666842       0.00000000       0.00000000       0.00544513      -0.00993652       0.01711596       0.04336995
H        6.76242105       3.65367871       1.45333535       0.00000000       0.00000000       0.00367071      -0.00067089       0.02024972       0.03401686
N        0.30443184       2.19537954       1.50432198       0.00000000       0.00000000      -0.13325424       0.00161591      -0.09130541       0.77729969
O        0.13499444       2.98130565       2.38209873       0.00000000       0.00000000      -0.05754740      -0.00561688       0.00947819      -0.39607440
O       -0.01587054       2.44441561       0.33542331       0.00000000       0.00000000       0.03556749       0.10955175      -0.07679035      -0.41761640
O        0.81412038       1.08048560       1.71964755       0.00000000       0.00000000       0.04804109      -0.04932190       0.04004168      -0.47539924
N       -0.68284997      -0.53732358      -2.24952811       0.00000000       0.00000000       0.02815105       0.06079480      -0.00275395       0.77915467
O       -0.41896683      -0.86702821      -3.36301166       0.00000000       0.00000000       0.07096858       0.06668480       0.05090303      -0.39911275
O       -0.61123451      -1.34127407      -1.30223478       0.00000000       0.00000000       0.04358078      -0.03143633       0.08059676      -0.47650789
O       -1.04512420       0.61094807      -1.96994348       0.00000000       0.00000000      -0.01015589       0.08925489      -0.04673608      -0.42254325
