340
Properties=species:S:1:pos:R:3:initial_charges:R:1:initial_magmoms:R:1:forces:R:3:charge:R:1 energy=-10770.338547221832 free_energy=-10770.338547221832 dipole="0.1331253584321885 0.7725667884880157 -1.1644916740983746" pbc="F F F"
Gd       0.09887541      -0.05773705      -0.01377500       3.00000000       0.00000000      -0.05105237       0.00874372      -0.07222085       0.86388933
C       -0.89893161       2.21876732       4.45657315       0.00000000       0.00000000      -0.02173127      -0.03869333      -0.02946446      -0.09841292
C       -0.32898412       3.30876103       5.36312695       0.00000000       0.00000000      -0.07192324      -0.06741944       0.00761867      -0.05977669
C        0.61089573       4.28619514       4.63858637       0.00000000       0.00000000      -0.05796110      -0.05845307      -0.00071334      -0.06959307
C        2.10454460       4.27071813       4.99995330       0.00000000       0.00000000      -0.03277129      -0.02700798       0.00081436      -0.06881121
C        3.12977005       3.40145186       4.22085313       0.00000000       0.00000000       0.01872116      -0.03900241       0.09568130      -0.02817886
C        3.46449280       2.08303987       4.95214867       0.00000000       0.00000000      -0.03402671      -0.06546674       0.01224671      -0.06435372
C        2.30023447       1.11788583       5.13775196       0.00000000       0.00000000       0.00976884      -0.01581359       0.01182211      -0.10807534
C        2.95878897       3.07997675       2.70082354       0.00000000       0.00000000      -0.01976577      -0.04014663       0.02083102      -0.01521204
N        1.87911033       3.68344685       1.90397246       0.00000000       0.00000000      -0.09952147      -0.06166289      -0.06963568      -0.05003267
C        2.18980390       5.12298078       1.70452615       0.00000000       0.00000000      -0.03804437      -0.07124888      -0.04232133      -0.03342798
C        1.29363737       6.30241265       1.24989352       0.00000000       0.00000000      -0.00794618       0.03675043       0.02401012      -0.03694915
C        0.12452909       6.65057418       2.19059022       0.00000000       0.00000000      -0.04814430       0.00831095      -0.01055089      -0.07427135
C       -1.14955642       5.82970226       2.06825218       0.00000000       0.00000000      -0.02328547       0.00705057      -0.00533299      -0.11790225
C        0.93373230       6.46416930      -0.24233857       0.00000000       0.00000000       0.00755405       0.05026772      -0.01305171      -0.07159466
C        2.11195766       6.82194570      -1.16413022       0.00000000       0.00000000       0.06322289       0.00917571      -0.02623918      -0.07262392
C        2.51147902       5.71670795      -2.14635263       0.00000000       0.00000000       0.05263163      -0.03113649      -0.00478724      -0.05534954
C        3.05382718       4.45574878      -1.48248834       0.00000000       0.00000000       0.00934879      -0.05505882       0.01187342      -0.10085177
C        1.07484944       2.83401264       1.27124440       0.00000000       0.00000000      -0.07549336      -0.03745819      -0.08242530       0.25880636
O        1.16381293       1.58519133       1.39166897       0.00000000       0.00000000      -0.00300212       0.00560335       0.05979985      -0.41699487
C       -0.07124889       3.29357717       0.36714007       0.00000000       0.00000000       0.07688085       0.07153849       0.05537378       0.04228033
O       -0.12114501       2.39391061      -0.74279519       0.00000000       0.00000000       0.03651702       0.01422358       0.05680560      -0.24711242
C       -0.10888145       2.87953457      -2.07661872       0.00000000       0.00000000      -0.00158342       0.04590931       0.01904215       0.05113177
C        0.53028015       1.72619427      -2.86595656       0.00000000       0.00000000       0.05242388      -0.05851293      -0.01904103       0.25852481
O        0.96813316       0.78925323      -2.17208012       0.00000000       0.00000000       0.01740908      -0.13921996      -0.00808427      -0.38564042
N        0.68202462       1.76631048      -4.19642621       0.00000000       0.00000000      -0.00960389      -0.03213631      -0.00256786      -0.07300419
C        1.89476555       1.04122585      -4.64487555       0.00000000       0.00000000       0.01015854      -0.00141944       0.04387839      -0.01733145
C        2.08092962       0.25843032      -5.95565109       0.00000000       0.00000000       0.06132674       0.06544596      -0.02115789      -0.02711848
C        1.94055862       1.06021496      -7.25075616       0.00000000       0.00000000       0.03295991       0.06926950      -0.08628413      -0.07076979
C        3.06247420       2.08559533      -7.39966684       0.00000000       0.00000000       0.04892497       0.02054607      -0.03191725      -0.11241873
C        1.52021348      -1.17476770      -5.97142884       0.00000000       0.00000000       0.00119471       0.01624172      -0.00962021      -0.07940345
C        0.06251920      -1.49659356      -6.28429025       0.00000000       0.00000000      -0.08081348       0.01184207      -0.01204546      -0.06471212
C       -0.26904097      -1.54900189      -7.77595939       0.00000000       0.00000000      -0.05487697      -0.01594330      -0.07414544      -0.06197061
C       -1.55049327      -2.33159818      -8.04610595       0.00000000       0.00000000      -0.04157123      -0.01490281      -0.00343033      -0.10863623
C        0.30240241       2.93598012      -4.98250255       0.00000000       0.00000000       0.05663516       0.01224423       0.02027304      -0.02793047
C       -0.97722720       2.96978780      -5.88354248       0.00000000       0.00000000       0.04265327       0.09360539       0.02279186      -0.03238741
C       -2.05535250       3.84811810      -5.24468004       0.00000000       0.00000000      -0.04390860       0.04828549      -0.03759008      -0.05478381
C       -3.00433911       4.42255302      -6.29131763       0.00000000       0.00000000      -0.00793649       0.01317818      -0.03627977      -0.11704581
C       -1.52321597       1.64411992      -6.45542066       0.00000000       0.00000000       0.01306971       0.07959260      -0.01574552      -0.07765720
C       -2.54812863       0.80585572      -5.68495575       0.00000000       0.00000000      -0.04361713       0.00078028      -0.00466477      -0.05938820
C       -4.01241074       1.24142267      -5.72773533       0.00000000       0.00000000      -0.10613090      -0.01996691       0.01234547      -0.06277153
C       -4.93433806       0.15962603      -5.16751990       0.00000000       0.00000000      -0.01078038      -0.03764219       0.00865959      -0.10667178
H       -1.59176698       1.59048766       5.01400653       0.00000000       0.00000000       0.00615747       0.03961511       0.00515159       0.03533730
H       -0.12475418       1.57825744       4.04228720       0.00000000       0.00000000       0.01077762       0.04939851      -0.06287879       0.02796897
H       -1.44307760       2.66562095       3.62415461       0.00000000       0.00000000      -0.03808348       0.00221750       0.05170039       0.01863894
H        0.17064157       2.86659831       6.22424100       0.00000000       0.00000000      -0.01953143      -0.02992753       0.00356302       0.04259308
H       -1.18049582       3.86277941       5.75998972       0.00000000       0.00000000       0.02150084       0.06009719       0.01525927       0.04337559
H        0.24767560       5.29069680       4.86223893       0.00000000       0.00000000       0.06552651      -0.03719654       0.03879631       0.04353884
H        0.50274766       4.13821220       3.57180379       0.00000000       0.00000000      -0.04114941      -0.03299133      -0.02478506       0.03854579
H        2.19890142       4.00781304       6.05524514       0.00000000       0.00000000       0.05009160      -0.01167077      -0.02891506       0.06133908
H        2.45240013       5.30550756       4.92746194       0.00000000       0.00000000      -0.02405112      -0.04449570      -0.01817028       0.03839933
H        4.06362382       3.97013822       4.28847111       0.00000000       0.00000000      -0.02546098       0.06649408       0.00179662       0.04839745
H        3.87449688       2.31655525       5.93828178       0.00000000       0.00000000      -0.04674201       0.06171835      -0.10376674       0.05754411
H        4.26182181       1.58895939       4.38773193       0.00000000       0.00000000       0.02559235       0.03891615       0.06886117       0.02616930
H        1.56382025       1.53278309       5.81612034       0.00000000       0.00000000       0.05526351      -0.01586597      -0.00896113       0.06317114
H        2.64606478       0.18074866       5.57334264       0.00000000       0.00000000       0.03694469       0.04264147      -0.02442450       0.03301343
H        1.80607617       0.90381200       4.18939192       0.00000000       0.00000000       0.06569288       0.05578079       0.02956954       0.02105546
H        2.86236314       2.00193676       2.58283781       0.00000000       0.00000000      -0.16741353      -0.03678117       0.00622332       0.07647768
H        3.89540751       3.35609430       2.20625394       0.00000000       0.00000000       0.00857062       0.02584109       0.00058481       0.05587199
H        3.05225913       5.12179992       1.03273329       0.00000000       0.00000000       0.03554434       0.07113498      -0.00481547       0.07634744
H        2.55275116       5.41151966       2.69284866       0.00000000       0.00000000      -0.03588168       0.08655799      -0.06382198       0.09322669
H        1.98974802       7.13530035       1.41634113       0.00000000       0.00000000       0.06808059      -0.00989932       0.03898176       0.07199613
H       -0.14254856       7.69182022       2.00083906       0.00000000       0.00000000       0.04135706       0.00701352      -0.01802131       0.05650129
H        0.48080767       6.60282746       3.21976295       0.00000000       0.00000000       0.03957987       0.02150787      -0.06897847       0.05231837
H       -1.54779632       5.89071678       1.06170945       0.00000000       0.00000000      -0.00806152      -0.00797190       0.01653978       0.03603402
H       -1.89901096       6.22856533       2.74634278       0.00000000       0.00000000       0.05269388       0.03228610       0.00313297       0.05917014
H       -0.99035937       4.78976961       2.33531800       0.00000000       0.00000000      -0.01932029       0.03584233      -0.00089295       0.02199424
H        0.20084608       7.27029058      -0.28329761       0.00000000       0.00000000       0.04358427       0.09749634       0.04340790       0.05652920
H        0.44237699       5.60864293      -0.69315387       0.00000000       0.00000000      -0.06404864       0.04443804      -0.01086949       0.02791714
H        2.97968728       7.10561551      -0.57064419       0.00000000       0.00000000       0.05504468       0.02253966      -0.01533773       0.04895959
H        1.83009393       7.68725399      -1.76431555       0.00000000       0.00000000       0.06959665       0.04822602       0.03548846       0.05416004
H        3.29074889       6.10682333      -2.80150839       0.00000000       0.00000000      -0.00309356       0.06119153      -0.01136735       0.05273017
H        1.65644734       5.47550675      -2.78883115       0.00000000       0.00000000       0.00970129       0.00885493       0.04462274       0.01226085
H        3.93809463       4.69869812      -0.89815755       0.00000000       0.00000000       0.00584872       0.01996308      -0.04524606       0.04925652
H        3.34064159       3.71796727      -2.23068848       0.00000000       0.00000000      -0.02500329       0.02922585      -0.05985772       0.02627244
H        2.32881366       3.98637488      -0.82269522       0.00000000       0.00000000      -0.02072919      -0.03065268       0.01097129       0.01883858
H        0.04171790       4.32557256       0.07756976       0.00000000       0.00000000      -0.05258313       0.04793808      -0.09670702       0.09732583
H       -1.01552531       3.17572918       0.92186349       0.00000000       0.00000000       0.11241479      -0.06353908       0.03307552       0.09515486
H        0.53567892       3.75842043      -2.17323882       0.00000000       0.00000000       0.08523231       0.04714634      -0.01204826       0.08547986
H       -1.11102127       3.15278243      -2.42425630       0.00000000       0.00000000      -0.10905170      -0.07632360       0.02985511       0.07287127
H        2.11005729       0.34316736      -3.83632136       0.00000000       0.00000000       0.04262928      -0.07231135       0.01617886       0.07971399
H        2.68099331       1.80603442      -4.63292773       0.00000000       0.00000000      -0.00379158      -0.01530416      -0.04913824       0.05725152
H        3.16214312       0.06577629      -5.88575125       0.00000000       0.00000000       0.06058239      -0.02482286      -0.03962485       0.05611449
H        0.98854061       1.57285883      -7.32914641       0.00000000       0.00000000      -0.05090507      -0.00039282       0.00261061       0.04654968
H        2.00140605       0.36439540      -8.08579461       0.00000000       0.00000000       0.03821972      -0.05123407      -0.02190723       0.05920588
H        3.01536963       2.85836928      -6.63222304       0.00000000       0.00000000       0.02135592      -0.01133177      -0.06907224       0.02498974
H        3.00117776       2.57238914      -8.36942465       0.00000000       0.00000000      -0.01957394      -0.00798026       0.03196540       0.05713949
H        4.03426879       1.60189688      -7.32881702       0.00000000       0.00000000       0.00215067       0.01200577      -0.03289938       0.04498935
H        1.75073240      -1.59305469      -4.98951918       0.00000000       0.00000000       0.01496052       0.04845450       0.03431308       0.02704304
H        2.11657831      -1.72237953      -6.70002419       0.00000000       0.00000000       0.00840802       0.03043766      -0.04622008       0.06180358
H       -0.59095119      -0.81505605      -5.75221185       0.00000000       0.00000000      -0.10660384       0.05023701       0.01980984       0.02799991
H       -0.14435729      -2.49767052      -5.89258229       0.00000000       0.00000000       0.04522233      -0.02700653       0.03075106       0.02147578
H        0.54872504      -2.04696383      -8.29853830       0.00000000       0.00000000       0.02580660       0.00191338      -0.00896750       0.04296790
H       -0.36781350      -0.54905257      -8.19414691       0.00000000       0.00000000       0.02056934       0.03815563      -0.01332187       0.04002095
H       -1.46757001      -3.34777910      -7.66378014       0.00000000       0.00000000      -0.00030340       0.02153132      -0.01873817       0.03658253
H       -1.74292744      -2.38952083      -9.11442778       0.00000000       0.00000000       0.03228063       0.02312197       0.03876317       0.05411521
H       -2.41232105      -1.86022642      -7.57744817       0.00000000       0.00000000       0.01399385       0.00425336       0.00176866       0.02929170
H        1.16275766       3.13053028      -5.62098158       0.00000000       0.00000000      -0.04597948       0.02126474      -0.09115047       0.08333972
H        0.21817832       3.78623000      -4.30261989       0.00000000       0.00000000       0.06095303       0.04477307      -0.05565039       0.04069189
H       -0.63286189       3.53207938      -6.75790813       0.00000000       0.00000000      -0.00835283      -0.00638535      -0.04345887       0.06167927
H       -1.58209039       4.69491274      -4.73812984       0.00000000       0.00000000       0.03342189      -0.01688007      -0.03791952       0.02415544
H       -2.59503238       3.26958727      -4.49451182       0.00000000       0.00000000      -0.02565505      -0.01737053      -0.05922517       0.02095746
H       -2.43471753       5.01763131      -7.00134347       0.00000000       0.00000000      -0.05239021       0.01190311       0.00214360       0.05082317
H       -3.75476039       5.06717016      -5.83793120       0.00000000       0.00000000       0.05987396      -0.05876166       0.03495941       0.04930123
H       -3.51403203       3.63685198      -6.83825252       0.00000000       0.00000000       0.00019559       0.05372070      -0.01323522       0.05353751
H       -0.66557182       1.00271760      -6.62941717       0.00000000       0.00000000      -0.00593918       0.00589777      -0.00877924       0.06158742
H       -1.95477951       1.85737868      -7.43297075       0.00000000       0.00000000      -0.02476872       0.07302639      -0.02235608       0.05666938
H       -2.21087139       0.68227238      -4.65637562       0.00000000       0.00000000      -0.01404103       0.04041590       0.03584822       0.00239747
H       -2.54269488      -0.18619331      -6.13883563       0.00000000       0.00000000       0.07849578      -0.03548075      -0.02780705       0.04822469
H       -4.29902335       1.43307661      -6.76161175       0.00000000       0.00000000       0.03196604      -0.02911011      -0.03316492       0.04967669
H       -4.18269399       2.15738620      -5.16765071       0.00000000       0.00000000      -0.00418685       0.03270767       0.00287198       0.03280475
H       -5.97174554       0.48736252      -5.21064914       0.00000000       0.00000000       0.08617247       0.00998384      -0.00511157       0.04966101
H       -4.85321825      -0.75875335      -5.74588262       0.00000000       0.00000000       0.02030866       0.02904389       0.00906017       0.04411122
H       -4.68952711      -0.06626355      -4.12807231       0.00000000       0.00000000      -0.01566230       0.01351459      -0.04144409       0.01167247
C        4.14821329      -6.47135914       1.50633635       0.00000000       0.00000000      -0.00955178      -0.02829488      -0.04112294      -0.10726948
C        4.52001227      -5.41211403       2.53865929       0.00000000       0.00000000      -0.02940216      -0.07248433       0.00544090      -0.05821238
C        5.28005637      -4.25236783       1.89843945       0.00000000       0.00000000      -0.02821681      -0.02336509      -0.03142922      -0.06591987
C        5.79393907      -3.22704778       2.90782542       0.00000000       0.00000000       0.02976382       0.00071024       0.02622246      -0.07609720
C        4.73176748      -2.28749009       3.49596428       0.00000000       0.00000000      -0.00483505       0.06080229       0.03534800      -0.02916216
C        5.10939962      -1.91767260       4.93941193       0.00000000       0.00000000       0.02033928       0.01107616       0.09196958      -0.06569506
C        4.98226051      -3.05961647       5.93806075       0.00000000       0.00000000      -0.00684025      -0.04786041       0.03661677      -0.11113234
C        4.57057715      -0.94576928       2.74715839       0.00000000       0.00000000      -0.07053827       0.05004084      -0.04630778      -0.02883021
N        3.99213407      -0.97315180       1.41045406       0.00000000       0.00000000      -0.05565547      -0.00607171      -0.01469459      -0.05689646
C        4.95681179      -1.15754152       0.31328862       0.00000000       0.00000000      -0.02504033      -0.06244082       0.01206292      -0.02168531
C        5.33660691      -0.08963509      -0.74252558       0.00000000       0.00000000      -0.00847755      -0.04366686      -0.04352198      -0.02963627
C        4.43782761      -0.13637815      -1.98502665       0.00000000       0.00000000      -0.04222742       0.02161318      -0.06814638      -0.05814037
C        5.10871484       0.51009337      -3.19683163       0.00000000       0.00000000       0.01314396      -0.00069921      -0.01270594      -0.10952017
C        5.56150653       1.35530788      -0.26469343       0.00000000       0.00000000      -0.03625486      -0.00181042       0.03771715      -0.06075331
C        6.96610175       1.85102872      -0.63607271       0.00000000       0.00000000       0.04181796       0.01000391       0.01479033      -0.06859178
C        7.14029954       3.37110773      -0.58175605       0.00000000       0.00000000      -0.01008495       0.07162819      -0.00885930      -0.05634345
C        6.69168148       4.07087811      -1.86097382       0.00000000       0.00000000      -0.00969526       0.01496873      -0.04362344      -0.10748899
C        2.68308212      -1.04406987       1.17481240       0.00000000       0.00000000      -0.04957533       0.01022967      -0.01533960       0.26526020
O        2.21944722      -0.90382588       0.02920087       0.00000000       0.00000000      -0.04182953       0.13999337      -0.01685018      -0.37760236
C        1.70445778      -1.42549026       2.31375701       0.00000000       0.00000000      -0.03829443       0.02339982       0.07583486       0.05041528
O        0.35792279      -1.12881408       1.92714632       0.00000000       0.00000000      -0.06392348      -0.04975065      -0.03265817      -0.22729454
C       -0.69501435      -1.81376584       2.63699748       0.00000000       0.00000000       0.00887189       0.04334581       0.09986044       0.04102455
C       -1.93310623      -2.02520867       1.68998770       0.00000000       0.00000000       0.04462894       0.08358404       0.00081343       0.26547373
O       -1.93775022      -1.39249499       0.63261610       0.00000000       0.00000000       0.03722325      -0.00091954      -0.00568706      -0.37396848
N       -2.92218340      -2.83374387       2.06504838       0.00000000       0.00000000       0.05503381       0.03114264       0.00163824      -0.06453820
C       -4.02807164      -3.43792310       1.25909020       0.00000000       0.00000000      -0.02342556      -0.00977730       0.00181659      -0.01763010
C       -4.51335502      -3.20751266      -0.20059176       0.00000000       0.00000000       0.01389383      -0.03024370      -0.01779519      -0.02427127
C       -3.40779270      -3.27328546      -1.25035113       0.00000000       0.00000000       0.06664749      -0.01062237      -0.03513935      -0.06935155
C       -3.91136138      -3.68799858      -2.63234143       0.00000000       0.00000000       0.01588190      -0.00685778      -0.01983166      -0.11306376
C       -5.45756503      -2.01677426      -0.43790173       0.00000000       0.00000000       0.01031512      -0.01500764       0.04864571      -0.06426063
C       -6.57302415      -2.30835710      -1.45733478       0.00000000       0.00000000      -0.01024300      -0.03684393       0.00642029      -0.06755370
C       -7.79762713      -1.39413837      -1.37519854       0.00000000       0.00000000      -0.02421979       0.02943915       0.02440194      -0.06064047
C       -7.55931973       0.02465935      -1.87570081       0.00000000       0.00000000       0.00965674       0.03885354      -0.00719644      -0.10770447
C       -2.95909980      -3.43588272       3.39444106       0.00000000       0.00000000       0.05115101      -0.01089961      -0.04814043      -0.02911431
C       -3.95893943      -2.82177923       4.39053511       0.00000000       0.00000000       0.03972339       0.03378268      -0.03161532      -0.02650910
C       -3.44276171      -1.49719283       4.96012010       0.00000000       0.00000000       0.00459639       0.06976330       0.03750553      -0.05973621
C       -4.44599732      -0.83112583       5.89535397       0.00000000       0.00000000      -0.04021686       0.00726767       0.03979507      -0.11070887
C       -4.23672632      -3.88126713       5.46460137       0.00000000       0.00000000      -0.03307719       0.00814172      -0.01576038      -0.07386063
C       -3.02184698      -4.27110897       6.30078876       0.00000000       0.00000000       0.00560639      -0.00370496       0.04009984      -0.06109028
C       -3.33773969      -5.41394410       7.26134198       0.00000000       0.00000000      -0.03065380      -0.08721178       0.04808252      -0.05965626
C       -3.56214218      -6.74825490       6.56156745       0.00000000       0.00000000      -0.00369779      -0.07569161      -0.02216405      -0.10787279
H        3.58551669      -7.28157540       1.96609271       0.00000000       0.00000000       0.03555678       0.03752076       0.01213474       0.04387501
H        5.04214665      -6.90106652       1.06100843       0.00000000       0.00000000       0.00988677       0.01892762       0.02447240       0.04663175
H        3.54798361      -6.03998849       0.70579672       0.00000000       0.00000000      -0.00291789       0.00403748       0.00308758       0.02161485
H        5.13047543      -5.87942096       3.30992352       0.00000000       0.00000000       0.08283210       0.02522036       0.02007388       0.04723554
H        3.61485963      -5.04452769       3.02336735       0.00000000       0.00000000      -0.01645823       0.03249588       0.01908830       0.02191389
H        4.63368026      -3.77184378       1.16501044       0.00000000       0.00000000      -0.03880851       0.02917537      -0.04631120       0.01732468
H        6.13417609      -4.67027478       1.36512045       0.00000000       0.00000000       0.03869568       0.03719519      -0.02054637       0.04828134
H        6.60081030      -2.63782863       2.47139069       0.00000000       0.00000000       0.00735637       0.02210123      -0.05058714       0.03810760
H        6.23966674      -3.78857418       3.72560182       0.00000000       0.00000000       0.05287784      -0.01838219       0.05187868       0.06846271
H        3.77048455      -2.80649946       3.50600107       0.00000000       0.00000000       0.00091405      -0.01395343       0.04131617       0.03196521
H        4.47044706      -1.10485643       5.28820661       0.00000000       0.00000000      -0.01742650       0.03456506      -0.01132465       0.03040805
H        6.13431329      -1.54593437       4.93914247       0.00000000       0.00000000       0.03502044      -0.00295916       0.04675706       0.04934279
H        3.97056929      -3.45977173       5.94964348       0.00000000       0.00000000      -0.00882454       0.02084602      -0.00862663       0.03614930
H        5.21514278      -2.69062876       6.93329379       0.00000000       0.00000000      -0.01116153      -0.03562406      -0.00108772       0.05750982
H        5.66605514      -3.87370335       5.72014462       0.00000000       0.00000000       0.00681176      -0.00570038      -0.00554827       0.05102495
H        5.55000175      -0.46637164       2.66371338       0.00000000       0.00000000      -0.04369140      -0.06110740       0.02186923       0.07933305
H        3.94302374      -0.28967790       3.35131883       0.00000000       0.00000000       0.01122927      -0.01289110       0.06523090       0.05697478
H        4.60471426      -2.02229653      -0.24943258       0.00000000       0.00000000       0.01961698      -0.01443888      -0.08828639       0.06933128
H        5.87259050      -1.44415221       0.82431150       0.00000000       0.00000000       0.05091272       0.00370493      -0.06615505       0.08222669
H        6.30967229      -0.46303092      -1.08140669       0.00000000       0.00000000       0.03961629      -0.02329769      -0.01568808       0.06275628
H        3.47610222       0.34058482      -1.78227030       0.00000000       0.00000000      -0.03735620       0.02824469       0.05772764       0.04176353
H        4.23388241      -1.18061947      -2.23171646       0.00000000       0.00000000      -0.00003345      -0.00501305       0.01929608       0.03119451
H        5.19944547       1.58793651      -3.08743521       0.00000000       0.00000000      -0.02015127      -0.04737721       0.02945389       0.04261724
H        4.54098468       0.30719389      -4.10247759       0.00000000       0.00000000       0.01888871      -0.00179916       0.04755536       0.03148435
H        6.10799723       0.10422754      -3.34048877       0.00000000       0.00000000      -0.03139221      -0.02858084       0.01707089       0.04962964
H        5.43402193       1.43686034       0.81461044       0.00000000       0.00000000      -0.02705483      -0.04927478       0.08772859       0.02382743
H        4.81266669       1.99979712      -0.72438862       0.00000000       0.00000000      -0.05009668       0.03648837       0.01213846       0.03689057
H        7.21697221       1.52150835      -1.64287684       0.00000000       0.00000000       0.00262187      -0.00082146      -0.03454094       0.04954870
H        7.68081457       1.38458140       0.04079906       0.00000000       0.00000000       0.05482101      -0.02325536       0.05993840       0.03641282
H        8.19496345       3.60466871      -0.43595209       0.00000000       0.00000000       0.01301821      -0.04895470       0.04688199       0.04864463
H        6.59901791       3.77712094       0.27526346       0.00000000       0.00000000      -0.03684880      -0.00260487       0.03924025       0.02180118
H        7.31421580       3.76923890      -2.69987781       0.00000000       0.00000000       0.03486731      -0.02013264       0.03238752       0.04334333
H        6.77744935       5.15022228      -1.75498284       0.00000000       0.00000000       0.01274531      -0.02759575       0.01550754       0.04042555
H        5.66099740       3.83626340      -2.11052557       0.00000000       0.00000000       0.00319312      -0.03963126       0.01580940       0.02461202
H        1.94772252      -0.91223616       3.24733231       0.00000000       0.00000000       0.00080826       0.06746323       0.11994026       0.08761188
H        1.83482658      -2.50458616       2.47366609       0.00000000       0.00000000      -0.06650527      -0.04142291      -0.04525864       0.09064400
H       -0.99702688      -1.18075194       3.47913875       0.00000000       0.00000000      -0.06866925       0.00459030       0.11059289       0.08701526
H       -0.32042632      -2.76547426       3.01814091       0.00000000       0.00000000       0.00604444      -0.04563540      -0.10510936       0.08930530
H       -4.91621782      -3.29721026       1.87873580       0.00000000       0.00000000      -0.02265461      -0.05822563       0.01902950       0.07629326
H       -3.77055048      -4.50397833       1.28288851       0.00000000       0.00000000      -0.04816593       0.01883223      -0.00071158       0.06417472
H       -5.14006887      -4.09862096      -0.33574509       0.00000000       0.00000000       0.02512058      -0.04717813       0.01530975       0.06083401
H       -2.65559800      -3.98993118      -0.93300230       0.00000000       0.00000000       0.00986696      -0.08173953       0.04247405       0.04150274
H       -2.92404027      -2.30247906      -1.28010393       0.00000000       0.00000000       0.07365104       0.03550289       0.00931067       0.04488997
H       -4.51041930      -2.91508011      -3.10328057       0.00000000       0.00000000       0.07972878       0.01546884      -0.00163979       0.03962733
H       -4.52919768      -4.57968299      -2.55482555       0.00000000       0.00000000       0.03025542       0.01859111      -0.00698465       0.05210077
H       -3.08525547      -3.92205556      -3.30191228       0.00000000       0.00000000       0.01503074       0.01639107       0.04642821       0.03012753
H       -4.86660661      -1.15875896      -0.76223645       0.00000000       0.00000000      -0.01062859       0.01544932       0.01718628       0.02154879
H       -5.94425728      -1.76630279       0.50258032       0.00000000       0.00000000      -0.02620701      -0.04053037       0.05819982       0.04835386
H       -6.92257795      -3.32755566      -1.29780601       0.00000000       0.00000000      -0.01555290      -0.07314503       0.03532217       0.04242888
H       -6.20125151      -2.25472115      -2.47810382       0.00000000       0.00000000       0.03701764       0.02694790      -0.01258399       0.03804048
H       -8.16836854      -1.36289604      -0.35073094       0.00000000       0.00000000      -0.00511006       0.01393023       0.05047507       0.03879361
H       -8.58061876      -1.83576206      -1.99334777       0.00000000       0.00000000      -0.00524351      -0.03984739       0.03486800       0.04928341
H       -6.84751767       0.54488746      -1.24329126       0.00000000       0.00000000       0.03016647      -0.00213711       0.00436406       0.02381572
H       -8.48967225       0.58657360      -1.85863598       0.00000000       0.00000000      -0.01128582      -0.02868486      -0.01206998       0.04574674
H       -7.18685342       0.01895017      -2.89853553       0.00000000       0.00000000      -0.01108426      -0.04363491      -0.00165240       0.03111989
H       -1.97549117      -3.38314197       3.84860909       0.00000000       0.00000000       0.00963989      -0.04909005      -0.01353375       0.05564568
H       -3.22379069      -4.48803347       3.26274094       0.00000000       0.00000000       0.03799782      -0.02677246       0.08885492       0.07353544
H       -4.90504983      -2.61955072       3.87911803       0.00000000       0.00000000       0.00215548      -0.00876228       0.00841878       0.04274080
H       -3.23011997      -0.81478832       4.13474212       0.00000000       0.00000000      -0.00382751      -0.02029544      -0.06903242       0.01974704
H       -2.50984241      -1.66710346       5.49968588       0.00000000       0.00000000       0.02102507      -0.01709636       0.01910745       0.03069815
H       -5.41732751      -0.74066885       5.41579590       0.00000000       0.00000000       0.00691093      -0.00402606       0.00391574       0.04427568
H       -4.11133760       0.16556669       6.17633538       0.00000000       0.00000000       0.02402597      -0.04534386      -0.02541894       0.04099409
H       -4.56828440      -1.41091967       6.80424957       0.00000000       0.00000000      -0.00204624       0.01892598       0.02513422       0.05570387
H       -4.61925718      -4.76765959       4.95934201       0.00000000       0.00000000      -0.06090535      -0.04184576       0.02334017       0.04500825
H       -5.01988260      -3.52710834       6.13156715       0.00000000       0.00000000      -0.03484012       0.02426268       0.01296997       0.06028688
H       -2.69406950      -3.41163647       6.88325568       0.00000000       0.00000000       0.02962749       0.05226743       0.05777176       0.03491007
H       -2.19373325      -4.57811301       5.66029249       0.00000000       0.00000000       0.01033823      -0.04098079      -0.01372697       0.01904897
H       -4.22336702      -5.15842516       7.84152929       0.00000000       0.00000000      -0.04050317       0.00381280       0.05261819       0.04359585
H       -2.50712525      -5.52425502       7.95904664       0.00000000       0.00000000       0.03219942       0.00898063       0.02104599       0.04107634
H       -4.45835417      -6.73902142       5.94639025       0.00000000       0.00000000      -0.00819240       0.02527233       0.01647272       0.03462874
H       -3.67928548      -7.53528303       7.30047322       0.00000000       0.00000000      -0.00522047      -0.00867260       0.00670232       0.05012294
H       -2.71415011      -7.00422862       5.92896108       0.00000000       0.00000000       0.02929078       0.01860716       0.00730650       0.02997661
C        6.57651984      -2.52575539      -6.03012614       0.00000000       0.00000000       0.03939820       0.03148053      -0.03096001      -0.10945845
C        5.59099475      -3.44295815      -5.31439372       0.00000000       0.00000000       0.08295337      -0.00608339       0.00236805      -0.05783797
C        4.17483223      -3.16328612      -5.80286340       0.00000000       0.00000000      -0.00626669      -0.00150104       0.00682102      -0.06479816
C        3.04757006      -4.02226770      -5.22281901       0.00000000       0.00000000      -0.07016809      -0.05870441       0.00478456      -0.07692450
C        2.79238474      -3.84706115      -3.70988562       0.00000000       0.00000000      -0.02828548      -0.04603167       0.06192345      -0.02618981
C        3.73627788      -4.83823332      -2.98901067       0.00000000       0.00000000       0.05277606      -0.05036286       0.03053661      -0.07321596
C        4.46999543      -4.28185714      -1.77246753       0.00000000       0.00000000      -0.01952148       0.03119819       0.02159387      -0.10846627
C        1.25959670      -4.04959363      -3.46311558       0.00000000       0.00000000      -0.04048752       0.03234518       0.03347398      -0.02585606
N        0.74027946      -3.70492325      -2.13926804       0.00000000       0.00000000      -0.02028142       0.08681096      -0.00918175      -0.05579501
C        1.21728040      -4.61042688      -1.07538248       0.00000000       0.00000000      -0.07560480       0.04116646       0.00674017      -0.02569613
C        0.30802715      -5.75761124      -0.57375001       0.00000000       0.00000000      -0.02505693      -0.05333886       0.01881129      -0.03017156
C       -0.23057644      -6.68594312      -1.67413270       0.00000000       0.00000000      -0.05575772       0.03115191      -0.07014666      -0.06458990
C       -1.36757684      -6.12230934      -2.51861412       0.00000000       0.00000000      -0.05267295       0.02307036      -0.04446824      -0.11084131
C       -0.77736092      -5.31361583       0.42349855       0.00000000       0.00000000      -0.01978392       0.02330423       0.01488625      -0.06999954
C       -0.53722866      -5.79690410       1.85694835       0.00000000       0.00000000      -0.00423463      -0.02502143       0.02182439      -0.06972229
C        0.75501393      -5.28028556       2.48220306       0.00000000       0.00000000       0.06793385      -0.01355648       0.02815085      -0.05812924
C        0.75569021      -5.39268404       4.00345393       0.00000000       0.00000000      -0.01097645      -0.01481426       0.03235830      -0.10654415
C        0.11779615      -2.58405806      -1.73667682       0.00000000       0.00000000      -0.07568355       0.06224632       0.11478906       0.26069138
O        0.11541738      -2.30172830      -0.52606525       0.00000000       0.00000000      -0.02581549      -0.01286398      -0.00611669      -0.37875941
C       -0.73307986      -1.60563047      -2.62642587       0.00000000       0.00000000      -0.01956774       0.00662091      -0.09522411       0.04733200
O       -1.19227684      -0.53212096      -1.75824640       0.00000000       0.00000000      -0.02177391      -0.01510255      -0.05902936      -0.23776645
C       -2.36679079       0.25301725      -2.04550005       0.00000000       0.00000000      -0.04633003      -0.04069128      -0.01327589       0.05723545
C       -2.71097510       1.15212585      -0.79918743       0.00000000       0.00000000      -0.00438361      -0.08096979      -0.04043297       0.25964344
O       -1.97469711       1.04392362       0.19791235       0.00000000       0.00000000      -0.00099061      -0.09440334       0.09662843      -0.38200401
N       -3.74454020       2.00877557      -0.79292555       0.00000000       0.00000000       0.12128309      -0.03056894      -0.06114675      -0.06084265
C       -4.47807449       2.45505866      -1.98213686       0.00000000       0.00000000       0.01347396      -0.01703116       0.03317638      -0.02072409
C       -4.87657949       3.95843149      -2.06167270       0.00000000       0.00000000       0.05974657      -0.02396880       0.03002251      -0.02652223
C       -3.70206834       4.91846875      -2.26344716       0.00000000       0.00000000       0.06060615       0.02985442      -0.00302985      -0.07736646
C       -2.81361395       5.19693269      -1.06098035       0.00000000       0.00000000       0.01631354       0.00462824       0.03738619      -0.10769318
C       -5.83469550       4.07605885      -3.26691566       0.00000000       0.00000000       0.00378796      -0.04872904       0.00448707      -0.06842362
C       -6.26025889       5.47289689      -3.73817338       0.00000000       0.00000000      -0.03182586       0.00674315      -0.00185451      -0.06433460
C       -7.14861361       6.28656838      -2.79423594       0.00000000       0.00000000      -0.03141900       0.04067804       0.06392378      -0.06159291
C       -6.42019269       7.06334426      -1.70291786       0.00000000       0.00000000       0.03532976       0.02007831       0.05911888      -0.10463470
C       -4.14912094       2.60734276       0.49973027       0.00000000       0.00000000       0.02184079       0.00076574      -0.03490541      -0.01865878
C       -5.60900359       2.33501526       0.89582227       0.00000000       0.00000000      -0.05752519      -0.03759788      -0.01143060      -0.02630887
C       -5.84209389       0.86451291       1.24239742       0.00000000       0.00000000       0.02916565      -0.07149568       0.04540311      -0.06767939
C       -5.15202599       0.33305334       2.48748771       0.00000000       0.00000000       0.01993615      -0.00955521       0.07355886      -0.10203941
C       -6.18977626       3.30086970       1.95001913       0.00000000       0.00000000      -0.00891420       0.04174083      -0.01467767      -0.07083006
C       -5.49759682       3.52548415       3.30096911       0.00000000       0.00000000       0.02519703       0.00916139      -0.00134435      -0.06988953
C       -4.41216156       4.60106123       3.33154777       0.00000000       0.00000000       0.02860588       0.07260433      -0.02523657      -0.05597463
C       -4.94149726       6.00265867       3.05622931       0.00000000       0.00000000      -0.02306584       0.06352057      -0.01803677      -0.10733522
H        7.59040873      -2.68680656      -5.67337140       0.00000000       0.00000000      -0.02727404      -0.02634160       0.00859468       0.04622948
H        6.31632844      -1.48146496      -5.86252856       0.00000000       0.00000000       0.02194445      -0.00557313       0.01085914       0.02846588
H        6.56254444      -2.70851601      -7.10150732       0.00000000       0.00000000       0.00195111      -0.01517441       0.00541669       0.04571110
H        5.66612900      -3.26771597      -4.24236093       0.00000000       0.00000000       0.00219666       0.04423861       0.04213768       0.03031420
H        5.86089434      -4.47976838      -5.50868855       0.00000000       0.00000000       0.01123941      -0.06567414      -0.03604982       0.03956315
H        4.16421135      -3.31113134      -6.88406090       0.00000000       0.00000000      -0.00583359       0.02579377      -0.03120082       0.04764770
H        3.97069579      -2.11018620      -5.61024794       0.00000000       0.00000000      -0.02430196       0.03005774       0.03439231       0.03043734
H        3.26902421      -5.07228425      -5.40797269       0.00000000       0.00000000       0.00559278      -0.04790835      -0.07009583       0.05320367
H        2.14118408      -3.80090545      -5.78258757       0.00000000       0.00000000      -0.04541140       0.03318729      -0.05214287       0.04029855
H        3.05476864      -2.82869034      -3.40281711       0.00000000       0.00000000      -0.02851438       0.01308934      -0.03609729       0.03769659
H        4.51696852      -5.13655000      -3.68379308       0.00000000       0.00000000       0.00223707      -0.00749530      -0.09214061       0.07129168
H        3.20643404      -5.76136034      -2.75074923       0.00000000       0.00000000       0.01372823      -0.04690382       0.01811137       0.03890535
H        5.14644031      -3.48864032      -2.08777421       0.00000000       0.00000000      -0.01790631      -0.01484820       0.03419058       0.03848958
H        5.07224193      -5.05907435      -1.30471753       0.00000000       0.00000000      -0.06591965       0.02486621      -0.06117361       0.05382035
H        3.78954816      -3.88017365      -1.02584155       0.00000000       0.00000000      -0.01347859       0.03606822      -0.00724097       0.02143589
H        1.03890979      -5.10516730      -3.64030009       0.00000000       0.00000000      -0.03586488       0.06377319      -0.04756750       0.08699298
H        0.71202304      -3.45130304      -4.19177228       0.00000000       0.00000000       0.00757518      -0.03138554      -0.01747115       0.05093992
H        1.48884893      -3.98924655      -0.21992578       0.00000000       0.00000000       0.02409648      -0.03624770       0.04902393       0.06551991
H        2.10170719      -5.09025666      -1.46837844       0.00000000       0.00000000      -0.03587871       0.04758280       0.07476138       0.09202458
H        1.00652411      -6.38521373      -0.01239848       0.00000000       0.00000000       0.08197902      -0.01372085       0.04568525       0.05929658
H       -0.58909042      -7.59912544      -1.19188439       0.00000000       0.00000000       0.05472477       0.04185323      -0.02783505       0.05525253
H        0.59551700      -6.97730146      -2.32731602       0.00000000       0.00000000       0.01078556       0.01392128       0.04007286       0.03735000
H       -2.28956773      -6.06908214      -1.94746152       0.00000000       0.00000000       0.00041022      -0.02345940      -0.00859341       0.04268536
H       -1.55562859      -6.76603988      -3.37425874       0.00000000       0.00000000       0.03356334      -0.03649933       0.03073836       0.05088578
H       -1.13699778      -5.12689301      -2.88727018       0.00000000       0.00000000      -0.00144490      -0.00581954       0.00492589       0.02281453
H       -1.74249033      -5.71839834       0.11984984       0.00000000       0.00000000       0.01353181       0.01814961      -0.04843406       0.04492280
H       -0.84559136      -4.22570243       0.42079079       0.00000000       0.00000000      -0.03130963       0.04050325       0.01787238       0.03653362
H       -0.53077234      -6.88629423       1.88147955       0.00000000       0.00000000       0.00346910      -0.04610904      -0.02896202       0.04965093
H       -1.37721170      -5.46923223       2.47008032       0.00000000       0.00000000      -0.03482557      -0.01066032       0.00703394       0.03071070
H        0.90736569      -4.24102536       2.18013539       0.00000000       0.00000000      -0.03384190       0.04133069      -0.02422327       0.00556441
H        1.59802021      -5.84414162       2.09512049       0.00000000       0.00000000       0.06052839      -0.07776699      -0.03379224       0.04859164
H       -0.03427521      -4.78949878       4.45077082       0.00000000       0.00000000       0.01201565      -0.01471825      -0.00356849       0.02201664
H        1.70919893      -5.07232096       4.42238114       0.00000000       0.00000000      -0.04977889       0.00486633      -0.02871863       0.03583691
H        0.59682367      -6.42424502       4.30573774       0.00000000       0.00000000      -0.00921900       0.00301237      -0.02809585       0.05614583
H       -1.58836817      -2.14487828      -3.04460762       0.00000000       0.00000000       0.01128155      -0.06928595      -0.04116958       0.09856249
H       -0.11964010      -1.19292908      -3.43383599       0.00000000       0.00000000       0.00416711       0.07293221      -0.09007214       0.09391297
H       -3.21828703      -0.40058729      -2.26694174       0.00000000       0.00000000      -0.09703452      -0.02225345       0.06965029       0.08973091
H       -2.19582256       0.88810870      -2.92511197       0.00000000       0.00000000       0.10161055       0.04460515       0.04829074       0.06945563
H       -5.40126250       1.87235225      -2.06145038       0.00000000       0.00000000       0.00793871       0.01150236      -0.02132789       0.07255266
H       -3.87267224       2.22361849      -2.86146947       0.00000000       0.00000000      -0.02055743      -0.00588129       0.07268708       0.04481773
H       -5.42254844       4.24412586      -1.16311237       0.00000000       0.00000000      -0.01109685      -0.00437749      -0.00740243       0.05930196
H       -4.10571668       5.87968252      -2.56616992       0.00000000       0.00000000      -0.06799461       0.02432963       0.02745384       0.07415188
H       -3.09689597       4.56759331      -3.09210671       0.00000000       0.00000000       0.06875546      -0.05819290      -0.01376656       0.03171580
H       -3.39840594       5.63804055      -0.25552868       0.00000000       0.00000000       0.00958936      -0.00688745      -0.01666428       0.04663233
H       -2.05143625       5.92340229      -1.34450440       0.00000000       0.00000000      -0.03346440      -0.04997449       0.00028881       0.03617013
H       -2.32421264       4.29604537      -0.69892901       0.00000000       0.00000000       0.01663466       0.03252633      -0.02436771       0.01568434
H       -6.73986757       3.50889828      -3.04692240       0.00000000       0.00000000      -0.02756699      -0.02681343       0.02400533       0.04353311
H       -5.34977107       3.59657027      -4.12000421       0.00000000       0.00000000      -0.03168343      -0.02371112      -0.04246698       0.03205716
H       -6.83032003       5.30623572      -4.65357945       0.00000000       0.00000000      -0.03188805      -0.02169599      -0.02889473       0.04860796
H       -5.39333277       6.06902610      -4.02443761       0.00000000       0.00000000      -0.01166732       0.01508117      -0.01934333       0.03776341
H       -7.89719737       5.63460711      -2.34342071       0.00000000       0.00000000      -0.00576241      -0.05194973       0.02940285       0.03928275
H       -7.68568497       7.01926327      -3.39732962       0.00000000       0.00000000      -0.02392759      -0.01992278      -0.05030077       0.04880023
H       -5.95571138       6.41191835      -0.96800295       0.00000000       0.00000000       0.01255563      -0.04671709       0.00591708       0.02331790
H       -7.12581133       7.70143345      -1.17623838       0.00000000       0.00000000      -0.01300264      -0.02355915      -0.01368895       0.04694048
H       -5.65381632       7.70797315      -2.12912696       0.00000000       0.00000000      -0.00790721      -0.01299971      -0.02716645       0.03437316
H       -4.01833850       3.68124565       0.42250266       0.00000000       0.00000000       0.00567660       0.05112734       0.08778566       0.08130884
H       -3.47897963       2.21490505       1.26152988       0.00000000       0.00000000       0.02828752      -0.00509291       0.00177315       0.07495279
H       -6.21584252       2.51593459       0.00375978       0.00000000       0.00000000      -0.07173254       0.03656513      -0.03174169       0.04406047
H       -5.49091524       0.28680279       0.39447933       0.00000000       0.00000000       0.06376688       0.02615087      -0.04171602       0.03583816
H       -6.91553323       0.68898760       1.33656928       0.00000000       0.00000000       0.01065082       0.05244125       0.00746091       0.04712625
H       -4.09547085       0.59547410       2.49338797       0.00000000       0.00000000      -0.00623437      -0.05760133      -0.00144907       0.02336004
H       -5.23174545      -0.75169283       2.51628914       0.00000000       0.00000000       0.01491714       0.04144157      -0.05407909       0.03171943
H       -5.61990220       0.71710445       3.38633248       0.00000000       0.00000000      -0.01021711      -0.01652171       0.03398424       0.05194000
H       -7.18989370       2.91344731       2.15870479       0.00000000       0.00000000       0.01404607       0.04690382      -0.01004753       0.05400431
H       -6.32994281       4.27583422       1.48359403       0.00000000       0.00000000       0.00329751       0.03573548      -0.03995178       0.04393689
H       -5.06811588       2.60513495       3.68431218       0.00000000       0.00000000       0.02498366      -0.04577298      -0.03934632       0.03989394
H       -6.27162142       3.83237518       4.00749836       0.00000000       0.00000000      -0.00136856      -0.00537929      -0.01304831       0.04989119
H       -3.61623182       4.36166849       2.62492519       0.00000000       0.00000000       0.02296469      -0.02256925      -0.04046905       0.01321895
H       -3.97329180       4.59761407       4.33181058       0.00000000       0.00000000       0.02260284      -0.02298345      -0.00805101       0.03493481
H       -5.33479910       6.09838441       2.04709288       0.00000000       0.00000000       0.00180586      -0.00391450      -0.01194225       0.02995543
H       -4.15274419       6.74202778       3.17621792       0.00000000       0.00000000      -0.00926350      -0.00420364       0.01040254       0.03424590
H       -5.73850194       6.24825128       3.75248756       0.00000000       0.00000000      -0.00163600      -0.00781672      -0.00130173       0.05063195
