196
Properties=species:S:1:pos:R:3:initial_charges:R:1:initial_magmoms:R:1:forces:R:3:charge:R:1 energy=-7687.024463451724 free_energy=-7687.024463451724 dipole="1.3643254079256812 -0.3007295628676026 0.4059064668347726" pbc="F F F"
Gd      -0.05807590      -0.07799633       0.04544183       3.00000000       0.00000000       0.04182775       0.00394614      -0.02506055       0.69538864
C       -3.85846652       3.88320877       5.40370813       0.00000000       0.00000000       0.03513167      -0.00453627       0.00568832      -0.11881459
C       -2.47732487       3.30233375       5.22778531       0.00000000       0.00000000       0.03361791       0.03167008       0.03753371       0.01410319
C       -1.33165107       4.35042270       5.20378649       0.00000000       0.00000000       0.03482485       0.04809140       0.01784296      -0.06482136
C       -0.05042508       3.53435155       5.44728184       0.00000000       0.00000000       0.02001103       0.06350807      -0.00356063      -0.05865998
C       -0.57172233       2.08294795       5.56235603       0.00000000       0.00000000       0.00596124       0.00356573      -0.03640298      -0.02680690
C       -1.01508023       1.81069439       4.17327012       0.00000000       0.00000000       0.01468588      -0.01198624      -0.03734591       0.09025553
N       -0.41115931       1.27148431       3.15383926       0.00000000       0.00000000       0.11541626      -0.10303442       0.00704316      -0.13852248
N       -1.09469018       1.14534292       2.01924600       0.00000000       0.00000000      -0.03393221       0.02458301       0.02251452      -0.11558784
C       -2.36826733       1.52838923       1.98924663       0.00000000       0.00000000      -0.04265719      -0.01298070      -0.02467594       0.16557282
C       -3.17221601       0.99573382       0.87731485       0.00000000       0.00000000       0.00629308       0.04928088       0.02128643       0.08711554
C       -4.48396579       1.40204275       0.63606760       0.00000000       0.00000000       0.04450748      -0.02725026      -0.00223454      -0.02107249
C       -5.18253758       0.77646988      -0.38589667       0.00000000       0.00000000      -0.00352634      -0.05421733       0.02789481       0.00274973
C       -4.57443301      -0.24649947      -1.09944710       0.00000000       0.00000000      -0.02735836      -0.01093126      -0.04142348      -0.02061786
C       -3.25395675      -0.57085756      -0.80160993       0.00000000       0.00000000       0.05949088      -0.02722253      -0.05536990       0.09264828
C       -2.51432863      -1.63138554      -1.51550940       0.00000000       0.00000000      -0.03323584      -0.05615889       0.00666924       0.17359558
N       -1.19384383      -1.60230756      -1.39706428       0.00000000       0.00000000      -0.04727437       0.00994670      -0.01267504      -0.10417951
N       -0.44575454      -2.58859740      -1.88801809       0.00000000       0.00000000       0.08400548       0.01454570       0.00945578      -0.14098302
C       -1.07510548      -3.59077808      -2.43536529       0.00000000       0.00000000       0.03417218       0.00648605       0.08169164       0.09253872
C       -2.49427091      -3.57683064      -2.59221466       0.00000000       0.00000000       0.01492808       0.00141541      -0.00131569       0.12557877
N       -3.21845226      -2.58051962      -2.15316815       0.00000000       0.00000000      -0.07955278       0.03018254      -0.04342820      -0.22146774
C       -2.88212074      -4.90714334      -3.12442463       0.00000000       0.00000000       0.01269638       0.02033464      -0.04485548       0.01382266
C       -4.35040529      -5.24219708      -3.03140971       0.00000000       0.00000000      -0.02074641      -0.01424573       0.01089839      -0.11861148
C       -2.30284454      -4.93702598      -4.56638879       0.00000000       0.00000000      -0.02359442      -0.00112093      -0.01281632      -0.06538612
C       -0.77918291      -4.98035905      -4.37517365       0.00000000       0.00000000       0.00873358       0.00595865      -0.03636569      -0.06138787
C       -0.61055384      -4.94077785      -2.84401377       0.00000000       0.00000000      -0.00210353       0.04100969      -0.02131035      -0.02935925
C       -1.82950767      -5.75713025      -2.32364271       0.00000000       0.00000000      -0.05704564      -0.03392012      -0.05038294       0.02277358
C       -1.98871424      -5.62894077      -0.80380241       0.00000000       0.00000000      -0.00467835      -0.06597913      -0.00549164      -0.10583214
C       -1.81013578      -7.23134520      -2.68917798       0.00000000       0.00000000       0.00573813      -0.02477995      -0.00456744      -0.12238088
N       -2.56571937       0.04447837       0.15976014       0.00000000       0.00000000      -0.03983187       0.13013058      -0.00443160      -0.15888468
N       -2.94856178       2.32029013       2.90445343       0.00000000       0.00000000      -0.07802473       0.00109614      -0.02173879      -0.21843018
C       -2.25199709       2.50309101       3.99373276       0.00000000       0.00000000       0.05453062      -0.04842406      -0.03399615       0.12113177
C       -1.93790880       2.26600366       6.27444028       0.00000000       0.00000000      -0.10795108       0.12442638      -0.00391238       0.02016844
C       -1.81276377       2.77867227       7.70054935       0.00000000       0.00000000      -0.01768657       0.00351381       0.01469704      -0.12292999
C       -2.80983400       1.01158283       6.29098631       0.00000000       0.00000000       0.01020750       0.03288684       0.03907952      -0.11066738
H       -4.03369802       4.63310193       4.63635330       0.00000000       0.00000000      -0.07927523      -0.01464911       0.02625311       0.06332263
H       -3.94480079       4.35335960       6.37868828       0.00000000       0.00000000      -0.03985281       0.01278009      -0.00590282       0.07043122
H       -4.60638144       3.10126530       5.31181943       0.00000000       0.00000000      -0.06519748       0.05345797       0.00400423       0.06120103
H       -1.50475821       5.07921680       5.99387124       0.00000000       0.00000000      -0.00127553      -0.00849533      -0.04030246       0.07834774
H       -1.30986173       4.88437434       4.25369121       0.00000000       0.00000000      -0.00833069       0.01293333       0.01083852       0.04227652
H        0.45814714       3.83082865       6.36157575       0.00000000       0.00000000      -0.02620162      -0.01675137       0.03627775       0.07311345
H        0.66885700       3.61999427       4.63201230       0.00000000       0.00000000      -0.01194610       0.02965453      -0.03241507       0.03619023
H        0.13945892       1.39178883       6.00179262       0.00000000       0.00000000      -0.00387103      -0.07221293      -0.02368881       0.05247671
H       -4.92332459       2.16989104       1.25308118       0.00000000       0.00000000      -0.01349173       0.01601365      -0.05159532       0.10313076
H       -6.19335097       1.06821172      -0.61577966       0.00000000       0.00000000      -0.09362376       0.01112914       0.01956969       0.09665784
H       -5.09163037      -0.79779460      -1.86703470       0.00000000       0.00000000      -0.04025059       0.02353506      -0.04486638       0.10056525
H       -4.91248549      -4.57754738      -3.68401138       0.00000000       0.00000000      -0.03095599      -0.03498886       0.06062255       0.06580999
H       -4.69868495      -5.10773095      -2.01101846       0.00000000       0.00000000      -0.06803831      -0.01467606      -0.01891104       0.05734164
H       -4.53427413      -6.26645223      -3.34130591       0.00000000       0.00000000       0.01042007      -0.00521067       0.00080284       0.07057405
H       -2.62253103      -4.05808899      -5.12751175       0.00000000       0.00000000      -0.02751449      -0.04492506       0.01584976       0.04788260
H       -2.67337618      -5.81824822      -5.08785059       0.00000000       0.00000000      -0.01165734       0.04493255       0.03086279       0.07765622
H       -0.27153629      -4.13446380      -4.83968401       0.00000000       0.00000000      -0.02331226      -0.00224718      -0.00971225       0.04365529
H       -0.34112814      -5.88909752      -4.78207512       0.00000000       0.00000000      -0.01076509      -0.01392365       0.02958461       0.07237562
H        0.37579326      -5.23280485      -2.49769452       0.00000000       0.00000000       0.01888070       0.02732606       0.07535008       0.05140267
H       -2.01764049      -4.59280471      -0.46436713       0.00000000       0.00000000      -0.00877210      -0.05334797       0.02110826       0.00809824
H       -1.15849717      -6.11748700      -0.30061449       0.00000000       0.00000000       0.05854340      -0.05019574      -0.01610152       0.04875355
H       -2.90417963      -6.11392094      -0.47819515       0.00000000       0.00000000      -0.05028041      -0.03257499      -0.03199236       0.06452872
H       -1.70901021      -7.39449724      -3.75611708       0.00000000       0.00000000      -0.01234234      -0.02696359       0.02319295       0.06428483
H       -2.72757533      -7.70797765      -2.35239793       0.00000000       0.00000000      -0.00326902       0.02198893      -0.02870986       0.06809388
H       -0.98173016      -7.72418840      -2.18601631       0.00000000       0.00000000       0.03158748       0.00899932      -0.02108409       0.05962855
H       -1.22196031       3.68311436       7.77722179       0.00000000       0.00000000      -0.02325540       0.02560541       0.01953645       0.05968458
H       -1.34276126       2.01448301       8.31510602       0.00000000       0.00000000       0.02184908      -0.00196789       0.01517911       0.05792027
H       -2.79685658       2.97368593       8.11727661       0.00000000       0.00000000      -0.00810995       0.02563756      -0.01560080       0.06675541
H       -3.00102186       0.63699512       5.28661995       0.00000000       0.00000000      -0.04597890      -0.01307654       0.01154366       0.02118217
H       -3.76840884       1.24059528       6.74821735       0.00000000       0.00000000      -0.01968032       0.01531388       0.00519830       0.06919005
H       -2.34582479       0.22922148       6.88383107       0.00000000       0.00000000       0.05257570      -0.01846284       0.07838980       0.04984914
C       -0.98327593       4.39273797      -6.01524882       0.00000000       0.00000000       0.01388528       0.01082910       0.00952105      -0.11723578
C       -1.50165582       3.06739829      -5.51250704       0.00000000       0.00000000      -0.04011650       0.04288904       0.05064343       0.01409818
C       -3.05399758       2.95584241      -5.54365312       0.00000000       0.00000000      -0.05472190       0.00574811      -0.00301362      -0.06478329
C       -3.34373705       1.44959287      -5.44991674       0.00000000       0.00000000      -0.04657147       0.00119060       0.01362848      -0.05990659
C       -1.93422088       0.83106578      -5.32837447       0.00000000       0.00000000      -0.03733095       0.00133473       0.01457176      -0.02739321
C       -1.48830949       1.29667549      -3.99011215       0.00000000       0.00000000       0.00351326      -0.00207664       0.08169533       0.09630301
N       -1.46205799       0.70368625      -2.83096365       0.00000000       0.00000000       0.06419045      -0.09102821       0.04806812      -0.14543440
N       -0.95567450       1.38073024      -1.79595849       0.00000000       0.00000000       0.03851450       0.05033229      -0.02918536      -0.12203411
C       -0.52973962       2.62491728      -1.96491688       0.00000000       0.00000000       0.03848886      -0.01072324      -0.00817032       0.17240456
C        0.25457305       3.20262775      -0.84728638       0.00000000       0.00000000      -0.08052111       0.00868905      -0.08082298       0.09358151
C        0.56967698       4.55740591      -0.77832725       0.00000000       0.00000000       0.00379163       0.01535748      -0.02774128      -0.02043813
C        1.42943977       4.98233930       0.22450724       0.00000000       0.00000000       0.02245982       0.01955767      -0.00584756       0.00205465
C        2.01400624       4.04565614       1.06503086       0.00000000       0.00000000       0.01048452      -0.04591658      -0.02775394      -0.02371839
C        1.63739521       2.71061678       0.93118211       0.00000000       0.00000000       0.01759395      -0.01093351       0.01899191       0.08740847
C        2.28556069       1.61480579       1.69028747       0.00000000       0.00000000       0.01994114      -0.00407544      -0.05505158       0.16962815
N        1.67901788       0.43866943       1.63322692       0.00000000       0.00000000       0.01035525       0.03407490      -0.06344668      -0.10416811
N        2.27326659      -0.65828598       2.09811358       0.00000000       0.00000000       0.01227895      -0.07467671      -0.08295203      -0.14125172
C        3.49510087      -0.52557507       2.53557029       0.00000000       0.00000000      -0.06805825       0.04341438      -0.09422711       0.09307763
C        4.09325677       0.76395126       2.68620105       0.00000000       0.00000000      -0.06237959      -0.03135722      -0.02773125       0.12354784
N        3.47463276       1.84508600       2.27935134       0.00000000       0.00000000       0.05318556       0.07190114       0.02459078      -0.22802100
C        5.45206378       0.52684039       3.24963913       0.00000000       0.00000000      -0.05582300       0.01801871       0.04273597       0.01416197
C        6.41502025       1.68820299       3.23700044       0.00000000       0.00000000       0.01524435       0.06765032      -0.02803933      -0.11768710
C        5.16652330      -0.01669307       4.68016686       0.00000000       0.00000000       0.02091839       0.01220073       0.02793669      -0.06573881
C        4.57553916      -1.41660831       4.46153332       0.00000000       0.00000000      -0.01272914       0.00528448       0.03677278      -0.06285158
C        4.51025511      -1.53245288       2.92529220       0.00000000       0.00000000      -0.01391381      -0.00763729       0.02308391      -0.02860864
C        5.79313813      -0.78736474       2.45950214       0.00000000       0.00000000       0.04375834       0.04211109       0.05558626       0.02135577
C        5.82950264      -0.57428812       0.94220637       0.00000000       0.00000000       0.01718465      -0.01173761       0.01280831      -0.10066000
C        7.09288235      -1.45161508       2.88575934       0.00000000       0.00000000       0.00090706      -0.00964666       0.01652950      -0.12354695
N        0.73516251       2.31511278       0.02748523       0.00000000       0.00000000       0.00303317       0.00880621       0.06747434      -0.15900646
N       -0.69530623       3.35134301      -3.08631269       0.00000000       0.00000000       0.02461097       0.09045390      -0.03571654      -0.22216127
C       -1.17470854       2.68705264      -4.10875987       0.00000000       0.00000000       0.02627407      -0.01269330       0.03940288       0.12380635
C       -1.07542542       1.74611207      -6.23936790       0.00000000       0.00000000      -0.02472039       0.06721784      -0.01434702       0.02095816
C       -1.43389974       1.69027765      -7.71734820       0.00000000       0.00000000      -0.00871453      -0.00337745       0.00810959      -0.12290153
C        0.41617188       1.45758848      -6.08734436       0.00000000       0.00000000      -0.00900346      -0.00067963      -0.02186224      -0.10643980
H       -1.45282807       5.19892345      -5.45665695       0.00000000       0.00000000       0.07193612       0.02560963      -0.01747936       0.06534566
H       -1.22727105       4.51477355      -7.06730047       0.00000000       0.00000000       0.01126291       0.00973108       0.02570340       0.07106089
H        0.09377454       4.45880167      -5.89194326       0.00000000       0.00000000       0.01041471       0.03124116       0.00914840       0.05426238
H       -3.41908983       3.38245160      -6.47600882       0.00000000       0.00000000       0.00174157       0.01689994       0.03983209       0.08041459
H       -3.49851335       3.51528688      -4.72054800       0.00000000       0.00000000      -0.01430416       0.02196214      -0.03069779       0.04762225
H       -3.84789240       1.07158818      -6.33714233       0.00000000       0.00000000       0.04002981       0.00616718       0.00029559       0.07544259
H       -3.95526122       1.18833901      -4.58609198       0.00000000       0.00000000      -0.02657958       0.03104766       0.01079236       0.04128856
H       -1.89591271      -0.23674141      -5.51708475       0.00000000       0.00000000       0.04259197      -0.03454261       0.06600615       0.05544366
H        0.16734717       5.23518636      -1.51443402       0.00000000       0.00000000      -0.02866353       0.02542794       0.04727187       0.10381739
H        1.66951866       6.02841605       0.33237463       0.00000000       0.00000000       0.03848260       0.02493230      -0.04504486       0.09663081
H        2.76478281       4.31967378       1.78676806       0.00000000       0.00000000      -0.00894976       0.03127977       0.08126270       0.09873110
H        6.04536263       2.46618884       3.90206893       0.00000000       0.00000000       0.04055715       0.02035735      -0.06638472       0.06611602
H        6.51224301       2.10220410       2.23723648       0.00000000       0.00000000       0.01691754       0.02209624      -0.00248823       0.05364658
H        7.39449973       1.37585983       3.58958927       0.00000000       0.00000000      -0.02749146      -0.00582922      -0.02255434       0.07150032
H        4.47703202       0.64273385       5.20878292       0.00000000       0.00000000       0.04674718      -0.00193687       0.00027563       0.04827860
H        6.09576745      -0.04954897       5.24655942       0.00000000       0.00000000      -0.02486988       0.03019704      -0.03610417       0.07899231
H        3.58259355      -1.51822686       4.89633087       0.00000000       0.00000000       0.02366565      -0.00393398       0.01568285       0.04723506
H        5.20459091      -2.20210234       4.87486049       0.00000000       0.00000000       0.00741271       0.01692487      -0.02124395       0.07343028
H        4.34442456      -2.54030339       2.55735987       0.00000000       0.00000000      -0.00321990      -0.00734574      -0.05282581       0.05362550
H        4.92889598      -0.08872479       0.56134611       0.00000000       0.00000000       0.01736048      -0.01197494       0.00803714      -0.00002966
H        5.93514389      -1.52649912       0.42808766       0.00000000       0.00000000      -0.00380116      -0.05966155       0.03241135       0.05010038
H        6.68559460       0.04037567       0.67731581       0.00000000       0.00000000       0.02544992       0.03604789       0.02534571       0.06141264
H        7.13889079      -1.61856814       3.95533988       0.00000000       0.00000000       0.05210931      -0.00252846      -0.00882339       0.06474014
H        7.93968012      -0.83421140       2.59847415       0.00000000       0.00000000      -0.00861500       0.02357213       0.00746995       0.06714192
H        7.20186551      -2.41104821       2.38550133       0.00000000       0.00000000      -0.04044238      -0.00751358       0.00665669       0.06036569
H       -2.47979670       1.89937377      -7.90724716       0.00000000       0.00000000      -0.00087234       0.02450168      -0.01257795       0.06169692
H       -1.21080116       0.70320881      -8.11447789       0.00000000       0.00000000      -0.00541873      -0.03807234       0.03281306       0.05936459
H       -0.83483354       2.40628289      -8.27408751       0.00000000       0.00000000      -0.00782327       0.02116890       0.03137715       0.06577173
H        0.72225175       1.49034431      -5.04202774       0.00000000       0.00000000       0.01529218      -0.00423949      -0.00519955       0.01166759
H        0.99772480       2.18734297      -6.64283067       0.00000000       0.00000000      -0.01291200       0.02972400      -0.00775573       0.06354110
H        0.65714195       0.47385995      -6.48177183       0.00000000       0.00000000      -0.04172812      -0.04727964      -0.02423652       0.05099235
C        0.49325179      -5.22464355       5.32688744       0.00000000       0.00000000       0.00351257       0.02556142      -0.00401815      -0.11855783
C       -0.43940684      -4.09040548       4.97505550       0.00000000       0.00000000      -0.03560371      -0.06396901      -0.03753978       0.01398261
C       -1.94323552      -4.46012913       5.11503300       0.00000000       0.00000000      -0.05014426      -0.02290777       0.00274375      -0.06626717
C       -2.68267265      -3.11418681       5.16142400       0.00000000       0.00000000      -0.04614723      -0.03513904      -0.01776376      -0.06135016
C       -1.54467201      -2.09356890       4.97611092       0.00000000       0.00000000      -0.04052858       0.02141030      -0.00427823      -0.03189312
C       -1.06926690      -2.31725942       3.59028277       0.00000000       0.00000000       0.05073272       0.06587928      -0.04856688       0.09481500
N       -1.23357895      -1.63465576       2.49307501       0.00000000       0.00000000       0.00189131       0.11333939      -0.02000588      -0.12511103
N       -0.48529320      -1.98560479       1.44523582       0.00000000       0.00000000       0.01180542      -0.02036575      -0.00333459      -0.11720142
C        0.36293716      -2.99848448       1.54898695       0.00000000       0.00000000       0.07770578      -0.01527968      -0.02101941       0.17146203
C        1.38423218      -3.11231333       0.48872851       0.00000000       0.00000000      -0.07427075      -0.04536709       0.04525179       0.09141816
C        2.07509141      -4.30317208       0.27852429       0.00000000       0.00000000      -0.05764644       0.03184270       0.01738617      -0.02227530
C        3.05088334      -4.32993699      -0.70478179       0.00000000       0.00000000       0.02066874       0.01981486      -0.01209249       0.00112786
C        3.33285911      -3.16882308      -1.40932629       0.00000000       0.00000000       0.00296019       0.01205519      -0.02002200      -0.02123050
C        2.59268862      -2.02071045      -1.13092898       0.00000000       0.00000000      -0.01576275       0.05006996      -0.08149081       0.08938722
C        2.83342705      -0.73928121      -1.82828825       0.00000000       0.00000000       0.03444901      -0.01990327       0.01156592       0.16737098
N        1.90923990       0.20166471      -1.65339657       0.00000000       0.00000000       0.05559703      -0.00761194       0.00478979      -0.13012027
N        2.19416042       1.45755468      -2.00933278       0.00000000       0.00000000      -0.02034403       0.06149202       0.09475395      -0.15957302
C        3.33889630       1.69649210      -2.58237661       0.00000000       0.00000000      -0.03970704      -0.03267780       0.10022721       0.09452884
C        4.17678129       0.62176569      -3.01090996       0.00000000       0.00000000       0.00795392      -0.05291698       0.13062027       0.12284773
N        3.94988849      -0.59021539      -2.56596145       0.00000000       0.00000000      -0.00831729      -0.01597113      -0.05452128      -0.22410044
C        5.32153451       1.23866961      -3.74185398       0.00000000       0.00000000      -0.05172094       0.08088703      -0.05279356       0.01530937
C        6.05410643       0.37952908      -4.74366227       0.00000000       0.00000000      -0.00013070      -0.01519097       0.02499106      -0.11826849
C        6.14289217       1.75745224      -2.52365469       0.00000000       0.00000000       0.01879146      -0.01695225       0.02409024      -0.06215575
C        5.28324518       2.90169102      -1.94898596       0.00000000       0.00000000       0.05605932      -0.01317665       0.06029422      -0.05805035
C        4.05974423       2.95436772      -2.89543468       0.00000000       0.00000000      -0.02598351      -0.01045394       0.05453430      -0.02898377
C        4.68872616       2.57687663      -4.25872232       0.00000000       0.00000000       0.07356612      -0.04760636      -0.04099849       0.02069475
C        5.69008220       3.59790626      -4.78602618       0.00000000       0.00000000      -0.02315141      -0.01417115       0.00269337      -0.12420178
C        3.61208528       2.36496880      -5.31716454       0.00000000       0.00000000       0.04877342      -0.00128074       0.01659382      -0.11193379
N        1.62708451      -1.99774647      -0.20705868       0.00000000       0.00000000       0.00636828      -0.06552613      -0.03157032      -0.15032137
N        0.40214155      -3.87773346       2.56616543       0.00000000       0.00000000       0.04096833      -0.03922380       0.04631105      -0.21979105
C       -0.31911565      -3.53296757       3.60101580       0.00000000       0.00000000       0.08201338       0.05233033      -0.03069977       0.12408710
C       -0.36803187      -2.73161844       5.76103194       0.00000000       0.00000000       0.00717301      -0.11191377       0.01484582       0.02163357
C        0.94767938      -1.97924762       5.54693713       0.00000000       0.00000000      -0.01135605      -0.01640143       0.03802670      -0.10550962
C       -0.59529212      -2.86972848       7.25862134       0.00000000       0.00000000      -0.01020470       0.00108116       0.02817953      -0.12084192
H        0.22286340      -6.10054928       4.74181970       0.00000000       0.00000000       0.08345244      -0.00567798       0.01702441       0.06601065
H        0.40670278      -5.47660818       6.37997963       0.00000000       0.00000000       0.00499935       0.00644573      -0.00801243       0.07047769
H        1.52167926      -4.95708310       5.10536179       0.00000000       0.00000000       0.04673185      -0.03221800      -0.00185700       0.05595425
H       -2.08792436      -5.03394499       6.02773608       0.00000000       0.00000000       0.01207456      -0.02474099      -0.02327573       0.07789518
H       -2.26774724      -5.07597196       4.27665525       0.00000000       0.00000000       0.01405589      -0.03442686       0.02560815       0.04921456
H       -3.18540839      -2.95117095       6.11298655       0.00000000       0.00000000       0.02375297      -0.00333182      -0.01778083       0.07221317
H       -3.42814153      -3.01425474       4.37280186       0.00000000       0.00000000      -0.00214315      -0.02366311      -0.00322230       0.04660231
H       -1.80978381      -1.07441947       5.21878853       0.00000000       0.00000000       0.03479492       0.04326457      -0.01996895       0.05823635
H        1.83484528      -5.15862906       0.89061369       0.00000000       0.00000000       0.03914779      -0.03140865      -0.07076319       0.10001428
H        3.58372547      -5.24204587      -0.91824912       0.00000000       0.00000000       0.08461210      -0.02921217       0.01217059       0.09434602
H        4.10662207      -3.13236515      -2.15772718       0.00000000       0.00000000       0.01292646      -0.01162349      -0.05790784       0.10058388
H        6.42242911      -0.52549242      -4.26784135       0.00000000       0.00000000       0.01871330       0.00678789      -0.01532014       0.06414133
H        6.89332283       0.92445391      -5.16839179       0.00000000       0.00000000      -0.01538754      -0.03882733       0.03011415       0.07140040
H        5.37570204       0.09920409      -5.54754137       0.00000000       0.00000000       0.07977247      -0.02822993       0.02034741       0.06038963
H        7.11583437       2.10359203      -2.86829452       0.00000000       0.00000000      -0.04077424       0.00113478      -0.01884450       0.08254851
H        6.31645117       0.95816983      -1.80554178       0.00000000       0.00000000       0.01128704      -0.02551282       0.05593419       0.04603204
H        5.80898603       3.85289587      -1.96734438       0.00000000       0.00000000      -0.00044900       0.02782201      -0.05380927       0.07393015
H        4.98025057       2.72462007      -0.91535539       0.00000000       0.00000000      -0.02702930      -0.06593843       0.00789022       0.02915419
H        3.47929183       3.86946418      -2.83550132       0.00000000       0.00000000      -0.02173997       0.00479708      -0.03838365       0.05557794
H        6.50137810       3.80738558      -4.09915967       0.00000000       0.00000000      -0.00082500      -0.02370609       0.00283324       0.05815987
H        5.17820167       4.53469919      -4.99029431       0.00000000       0.00000000      -0.03254158       0.01065486      -0.00250721       0.06063210
H        6.12038551       3.24932085      -5.72063869       0.00000000       0.00000000      -0.00560315      -0.03522456      -0.00403758       0.06761619
H        2.92130860       1.58175367      -5.01776106       0.00000000       0.00000000      -0.00412444      -0.05333477      -0.04363031       0.02273141
H        4.05330219       2.09531579      -6.27194421       0.00000000       0.00000000       0.01936951      -0.01390425      -0.00472897       0.06631977
H        3.05223042       3.28784981      -5.45054402       0.00000000       0.00000000      -0.00309049      -0.00417659      -0.02428261       0.05149989
H        1.17137481      -1.80969332       4.49347457       0.00000000       0.00000000       0.00460043      -0.01085549       0.02100091       0.01893121
H        1.76264050      -2.53978298       5.99767575       0.00000000       0.00000000       0.01806114      -0.05102674      -0.01952782       0.05874809
H        0.90460605      -1.01116071       6.04010959       0.00000000       0.00000000      -0.04509563       0.03910306       0.01911875       0.04416164
H       -1.51278336      -3.39380492       7.49898804       0.00000000       0.00000000       0.03013619      -0.00984228       0.02705534       0.06387361
H       -0.63273009      -1.88618865       7.72223537       0.00000000       0.00000000      -0.03851462       0.01372255      -0.03044108       0.05311743
H        0.23664827      -3.40615908       7.70864044       0.00000000       0.00000000      -0.02761977      -0.02756834      -0.01340310       0.06608945
