260
Properties=species:S:1:pos:R:3:initial_charges:R:1:initial_magmoms:R:1:forces:R:3:charge:R:1 energy=-8555.130014906792 free_energy=-8555.130014906792 dipole="0.48883300252574424 -0.7697714154773296 1.1344822855503185" pbc="F F F"
Gd      -0.03051705      -0.24766431       0.07966898       3.00000000       0.00000000       0.01597364       0.03913867      -0.04263127       0.83635467
C       -8.95351752       1.81665054      -0.60829197       0.00000000       0.00000000       0.00145012       0.01334257      -0.00031327      -0.11461110
C       -7.76675410       2.60552028      -0.06763772       0.00000000       0.00000000       0.00500710      -0.00418967      -0.00441870      -0.06022999
C       -6.42961116       2.15398249      -0.66211032       0.00000000       0.00000000       0.00820086      -0.01257741       0.01187018      -0.06972093
C       -6.09551234       0.71934040      -0.23646703       0.00000000       0.00000000       0.00424614       0.00436809      -0.01014723      -0.02151553
N       -4.78310840       0.23867405      -0.64948466       0.00000000       0.00000000       0.01771927       0.01059761       0.01260392      -0.05789348
C       -4.76202596      -0.69294078      -1.77035174       0.00000000       0.00000000       0.00518444      -0.00430974       0.01754483      -0.01930355
C       -5.31536336      -0.10411449      -3.06879844       0.00000000       0.00000000       0.00632275      -0.01751607       0.00842174      -0.07225097
C       -4.48604784       1.05074374      -3.62994835       0.00000000       0.00000000      -0.02283277      -0.00707383      -0.00109105      -0.05870542
C       -3.13299621       0.58578892      -4.15417096       0.00000000       0.00000000      -0.00645352      -0.00871700       0.01927056      -0.11665059
C       -3.65445880       0.46223025       0.02353202       0.00000000       0.00000000       0.00588957       0.01341183      -0.01541133       0.25494573
O       -2.58910513      -0.13714829      -0.21732382       0.00000000       0.00000000      -0.00996356       0.01779882      -0.02694764      -0.38447030
C       -3.65196709       1.49206933       1.14416135       0.00000000       0.00000000      -0.02252925      -0.02310001       0.00933814      -0.08411444
C       -2.98720654       0.85700894       2.38276221       0.00000000       0.00000000       0.00713382      -0.02319825       0.01176342      -0.10026298
C       -1.69229768       1.57619778       2.67945403       0.00000000       0.00000000      -0.00567877      -0.00470310       0.00504102       0.26435004
O       -0.74679132       1.44498677       1.87463049       0.00000000       0.00000000       0.02402472       0.02503936      -0.01765641      -0.39716594
N       -1.62044653       2.37689609       3.74661412       0.00000000       0.00000000      -0.01314481       0.00189718      -0.02345552      -0.06862748
C       -2.56153780       2.32673075       4.86004787       0.00000000       0.00000000       0.00348783      -0.00314717      -0.00572135      -0.01445895
C       -3.77692737       3.24235533       4.69457980       0.00000000       0.00000000      -0.00257211       0.00470873       0.00406533      -0.07024046
C       -4.83653297       2.99653884       5.77087722       0.00000000       0.00000000      -0.00763354      -0.00403031      -0.01226864      -0.06016880
C       -4.36901768       3.35941881       7.17492491       0.00000000       0.00000000       0.00158796      -0.00461959      -0.00741157      -0.11439144
C       -0.48364125       3.28138334       3.87620092       0.00000000       0.00000000       0.00337057      -0.01192655       0.00094236      -0.00651739
C       -0.41572233       4.31068952       2.74189358       0.00000000       0.00000000       0.00912076      -0.01652825       0.00206489      -0.06556186
C       -1.55108877       5.33637762       2.77534165       0.00000000       0.00000000       0.01208212      -0.00263516      -0.00219946      -0.05952160
C       -1.46481952       6.28632120       3.96440162       0.00000000       0.00000000       0.00150455       0.00792529      -0.00100842      -0.11287948
H       -9.88024946       2.24327137      -0.23725901       0.00000000       0.00000000      -0.00764789       0.01046137      -0.00703478       0.05826576
H       -8.92148196       0.77504834      -0.29813042       0.00000000       0.00000000      -0.00360229       0.01764697       0.00930380       0.03574123
H       -8.97312712       1.85754218      -1.69457082       0.00000000       0.00000000      -0.01775436       0.00257866      -0.00071690       0.04570066
H       -7.73261956       2.51773322       1.02126677       0.00000000       0.00000000      -0.00683915      -0.00612088      -0.01757571       0.03445987
H       -7.90686534       3.66086035      -0.30587216       0.00000000       0.00000000      -0.00407791      -0.01286301      -0.00858103       0.05322507
H       -5.64453686       2.83681631      -0.33039501       0.00000000       0.00000000       0.01126996      -0.00781140      -0.01040609       0.02915970
H       -6.48396689       2.21998764      -1.74874000       0.00000000       0.00000000      -0.01066578      -0.01566394       0.01708446       0.05744178
H       -6.82811302       0.04213939      -0.67564287       0.00000000       0.00000000       0.01250256       0.01392749      -0.00516066       0.08246603
H       -6.19026758       0.63121332       0.84948519       0.00000000       0.00000000      -0.00608912      -0.00777031      -0.00312326       0.05595595
H       -5.35193910      -1.57615390      -1.50067599       0.00000000       0.00000000       0.02391844       0.01668663       0.01919400       0.05417329
H       -3.72214564      -0.98832854      -1.90378929       0.00000000       0.00000000       0.00211294       0.00584196      -0.00225074       0.08620232
H       -6.34558040       0.21728575      -2.91776124       0.00000000       0.00000000       0.00775555       0.02409579      -0.00928838       0.05684422
H       -5.33685300      -0.90603666      -3.80843147       0.00000000       0.00000000      -0.02382798      -0.01825109       0.00045183       0.05555185
H       -4.33890104       1.81236314      -2.86094692       0.00000000       0.00000000      -0.00878813      -0.00788704       0.00817011       0.02713493
H       -5.04811902       1.50869669      -4.44430389       0.00000000       0.00000000       0.01308317       0.01147595      -0.01689274       0.05293520
H       -2.53295462       0.18385022      -3.34164464       0.00000000       0.00000000       0.01822432      -0.00624800       0.00163281       0.04229458
H       -2.59639408       1.41479962      -4.60824039       0.00000000       0.00000000      -0.00667182       0.00664614       0.00922340       0.04201968
H       -3.26468337      -0.18703820      -4.90775196       0.00000000       0.00000000      -0.00368840       0.00917290      -0.00621795       0.04075073
H       -4.64078830       1.86272526       1.38926199       0.00000000       0.00000000      -0.01370876       0.00616316       0.00207934       0.07575777
H       -3.05472302       2.33834095       0.79007497       0.00000000       0.00000000       0.00878017      -0.00292228       0.02011888       0.06960606
H       -2.70430909      -0.16219425       2.11343551       0.00000000       0.00000000      -0.01605628      -0.03845909       0.01638815       0.11609449
H       -3.68511739       0.84199655       3.21217442       0.00000000       0.00000000      -0.00602483       0.01708889       0.00231462       0.06772806
H       -2.01394047       2.61310969       5.75909593       0.00000000       0.00000000      -0.00954457       0.01274893      -0.01072236       0.07259083
H       -2.88853329       1.29489078       5.00758544       0.00000000       0.00000000      -0.02417415      -0.00119024       0.01115305       0.05120593
H       -4.22201192       3.07469574       3.71151242       0.00000000       0.00000000      -0.00477367       0.02439408       0.00413672       0.03443026
H       -3.45855510       4.28275803       4.74792797       0.00000000       0.00000000      -0.01835071       0.00079352       0.00941809       0.06283896
H       -5.14810677       1.94961856       5.74772853       0.00000000       0.00000000      -0.00049513      -0.00733193       0.00654769       0.03240664
H       -5.70834735       3.60421166       5.52600146       0.00000000       0.00000000      -0.01221900      -0.00066085       0.00450142       0.05447148
H       -3.57503487       2.70028772       7.51719282       0.00000000       0.00000000       0.00631792       0.00037018      -0.00465154       0.03321705
H       -5.19716195       3.27070631       7.87194240       0.00000000       0.00000000       0.00683263       0.01028741      -0.00048217       0.05827075
H       -4.01100829       4.38550327       7.20506031       0.00000000       0.00000000      -0.00461097      -0.00306057       0.00718475       0.04732020
H        0.42763677       2.67669217       3.89306196       0.00000000       0.00000000       0.01649350       0.01177018       0.00696682       0.04279851
H       -0.56175359       3.79865440       4.83039259       0.00000000       0.00000000      -0.02499528       0.00130080      -0.00628877       0.07511543
H       -0.43535998       3.78291069       1.78542744       0.00000000       0.00000000       0.01446655       0.00068980      -0.01152058       0.04127704
H        0.53895143       4.83567676       2.81663906       0.00000000       0.00000000      -0.00334482       0.00938389       0.03111328       0.04535737
H       -2.51035622       4.81657801       2.78149324       0.00000000       0.00000000       0.00603932       0.00478717      -0.01586067       0.03596977
H       -1.50790891       5.92703201       1.85807794       0.00000000       0.00000000       0.01585435      -0.00509266      -0.00048732       0.04089295
H       -1.55103565       5.76189735       4.91305501       0.00000000       0.00000000      -0.00156892       0.00789057      -0.01199426       0.03729993
H       -2.26565230       7.01858213       3.91510782       0.00000000       0.00000000       0.00045849       0.00240835      -0.00715173       0.05495079
H       -0.51844996       6.82107328       3.95627657       0.00000000       0.00000000       0.00101317       0.00376630       0.00320074       0.04617062
C        3.70195214      -8.64286562      -0.35901823       0.00000000       0.00000000      -0.00102318       0.01404784      -0.01073728      -0.11280933
C        2.40634599      -8.09374714       0.22192386       0.00000000       0.00000000      -0.03839668       0.07131859       0.00720156      -0.06057049
C        2.06633871      -6.68747656      -0.28546758       0.00000000       0.00000000      -0.02089304       0.02836684      -0.01211787      -0.07134883
C        2.91223206      -5.58905884       0.37623356       0.00000000       0.00000000      -0.02063813      -0.01890713      -0.00931079      -0.01891829
N        2.66759680      -4.26112421      -0.18052627       0.00000000       0.00000000       0.01924398      -0.00769909       0.02270199      -0.06492833
C        3.69566769      -3.70787838      -1.06689200       0.00000000       0.00000000       0.01343451      -0.03474169       0.02563338      -0.00801193
C        4.19406633      -4.65769375      -2.15674287       0.00000000       0.00000000      -0.01740873      -0.02173977       0.02013476      -0.07511229
C        3.14640336      -4.94050190      -3.23819017       0.00000000       0.00000000       0.01122580      -0.03504827      -0.04482260      -0.05726740
C        3.27815955      -3.99568907      -4.42580235       0.00000000       0.00000000       0.05305394       0.02260825      -0.01642698      -0.11155963
C        1.66636301      -3.47098545       0.21511487       0.00000000       0.00000000       0.01144129       0.02198379      -0.03279882       0.25879378
O        1.54118078      -2.29408491      -0.17752784       0.00000000       0.00000000      -0.00356169      -0.00223717       0.01325282      -0.39310837
C        0.64062079      -3.98994161       1.20792734       0.00000000       0.00000000       0.00064192       0.01154561       0.00156560      -0.08792441
C        0.75182162      -3.17215503       2.51430369       0.00000000       0.00000000      -0.02288621       0.00423538       0.01440763      -0.09705823
C       -0.56417931      -2.48189561       2.80428758       0.00000000       0.00000000       0.01599789      -0.02718255       0.00010762       0.26396587
O       -0.96209425      -1.63070435       1.97836308       0.00000000       0.00000000      -0.03384717       0.00668185       0.00975024      -0.39825049
N       -1.26333037      -2.78973372       3.89847843       0.00000000       0.00000000       0.02666407       0.00632674      -0.02123225      -0.06109176
C       -0.76579103      -3.64221944       4.97244997       0.00000000       0.00000000       0.01453306      -0.01247639       0.00921843      -0.01640749
C       -0.88205100      -5.14746116       4.71791266       0.00000000       0.00000000       0.00716115      -0.01316454      -0.01260523      -0.06849062
C       -0.11351577      -5.94548077       5.77503357       0.00000000       0.00000000       0.00003758       0.00119048      -0.02220061      -0.05985271
C       -0.71127763      -5.82243036       7.17237673       0.00000000       0.00000000       0.01394117      -0.01168874      -0.01915636      -0.11488698
C       -2.53782045      -2.11407776       4.12454870       0.00000000       0.00000000      -0.01894908       0.00260819      -0.01818076      -0.01058167
C       -3.64584212      -2.54682371       3.15882754       0.00000000       0.00000000      -0.00304771       0.02024620      -0.00106636      -0.06559728
C       -4.20981160      -3.93831014       3.45380660       0.00000000       0.00000000       0.03490152       0.02403743      -0.02089368      -0.06087622
C       -4.97148272      -4.00589061       4.77216722       0.00000000       0.00000000       0.00534287      -0.02351273      -0.01209533      -0.11293005
H        3.87517180      -9.64741476       0.01198419       0.00000000       0.00000000       0.00870593      -0.03616601       0.00896802       0.05752694
H        4.55832270      -8.03501791      -0.08181065       0.00000000       0.00000000       0.02566695       0.02574156       0.01076721       0.03501913
H        3.64151155      -8.69098733      -1.44369334       0.00000000       0.00000000       0.02005148       0.01283697       0.00005035       0.04403311
H        2.46067468      -8.09033282       1.31219771       0.00000000       0.00000000       0.00800646       0.00920000       0.00435274       0.03788517
H        1.59139709      -8.76060395      -0.06484331       0.00000000       0.00000000       0.01287535       0.00362766       0.02192008       0.05104945
H        1.00830001      -6.48828984      -0.09700280       0.00000000       0.00000000       0.02458351      -0.01780426      -0.03449148       0.03124021
H        2.21537026      -6.66412794      -1.36551276       0.00000000       0.00000000       0.01243182       0.01583394       0.05482736       0.05792539
H        3.96941999      -5.81051665       0.23689517       0.00000000       0.00000000      -0.00869171       0.00144217      -0.00534698       0.08057506
H        2.73654117      -5.57240408       1.45500607       0.00000000       0.00000000      -0.01674866      -0.02557119      -0.01435204       0.05322578
H        4.54922153      -3.40250856      -0.44776018       0.00000000       0.00000000      -0.05247445       0.00283154      -0.01087680       0.05173901
H        3.26048471      -2.81723980      -1.52419075       0.00000000       0.00000000       0.01075889       0.00554844       0.03520312       0.07325959
H        4.54094306      -5.58881280      -1.71230021       0.00000000       0.00000000      -0.03846207      -0.02293085      -0.01861877       0.05895259
H        5.06606986      -4.19826015      -2.62336666       0.00000000       0.00000000       0.00553760       0.03752604       0.02529246       0.06282556
H        2.14889416      -4.84209901      -2.80282212       0.00000000       0.00000000      -0.00646038      -0.04186247       0.00972155       0.02599238
H        3.25749673      -5.96268514      -3.60329401       0.00000000       0.00000000      -0.01822353       0.01748076       0.03553590       0.04900834
H        3.23082278      -2.96164961      -4.09542333       0.00000000       0.00000000      -0.00620252       0.04826854       0.00433441       0.02658932
H        2.48497881      -4.17086966      -5.14770111       0.00000000       0.00000000       0.01122095      -0.00383193      -0.03176730       0.04066439
H        4.22981885      -4.14487368      -4.93103498       0.00000000       0.00000000      -0.02762046      -0.02618163       0.03143453       0.05256971
H        0.72494482      -5.05136271       1.41178325       0.00000000       0.00000000      -0.02805942      -0.00341611      -0.00762790       0.07162155
H       -0.33371925      -3.79963621       0.74864763       0.00000000       0.00000000       0.01876228       0.03398389      -0.00924156       0.09500054
H        1.45733470      -2.35586528       2.33452548       0.00000000       0.00000000      -0.00408985      -0.02603965       0.01856727       0.11260287
H        1.11153016      -3.79368778       3.32955558       0.00000000       0.00000000      -0.01568998       0.00844041      -0.05664907       0.06729364
H       -1.34317069      -3.40739143       5.86553735       0.00000000       0.00000000       0.02426762       0.02223132       0.01795380       0.07716258
H        0.27355852      -3.38432566       5.19273013       0.00000000       0.00000000       0.04028661      -0.00480661      -0.03315326       0.05108279
H       -0.49663163      -5.39076333       3.72640473       0.00000000       0.00000000       0.00717028       0.00459068      -0.00645779       0.03360616
H       -1.93009671      -5.44474272       4.74853821       0.00000000       0.00000000       0.00282795      -0.00109716       0.00850039       0.06017346
H        0.92871699      -5.61604206       5.79351755       0.00000000       0.00000000      -0.00308520      -0.03192183       0.00491112       0.03184885
H       -0.12253986      -6.99619919       5.48180393       0.00000000       0.00000000      -0.00824981       0.00908394       0.00151799       0.05364500
H       -0.57740119      -4.82388542       7.58221372       0.00000000       0.00000000      -0.01383012      -0.01291454      -0.01902242       0.03428306
H       -0.22214983      -6.52363086       7.84212653       0.00000000       0.00000000      -0.00894375       0.00728302       0.00807197       0.05846687
H       -1.77284049      -6.05758151       7.15483471       0.00000000       0.00000000       0.01518453       0.00181437       0.01166121       0.04830435
H       -2.36080591      -1.03974817       4.03067856       0.00000000       0.00000000       0.01599453      -0.00321520      -0.00732516       0.04672907
H       -2.85651514      -2.31645987       5.14491802       0.00000000       0.00000000      -0.00235286       0.01168317       0.00019074       0.07432485
H       -3.25913062      -2.51355727       2.13786169       0.00000000       0.00000000      -0.01314730       0.00480185       0.01757998       0.04329520
H       -4.45663683      -1.81871418       3.23325852       0.00000000       0.00000000       0.00410979      -0.01595317       0.00830958       0.04632108
H       -3.39867941      -4.66648035       3.45038266       0.00000000       0.00000000      -0.00751472      -0.00375626       0.00070854       0.03978128
H       -4.88862833      -4.21249541       2.64461929       0.00000000       0.00000000      -0.01444238       0.03728641       0.00672669       0.04433475
H       -4.32659121      -3.82271435       5.62757715       0.00000000       0.00000000       0.01353750      -0.01694935       0.00424887       0.03555199
H       -5.41121999      -4.99061143       4.89569801       0.00000000       0.00000000      -0.01173663      -0.02187875       0.00146840       0.05532492
H       -5.77477972      -3.27452493       4.78776921       0.00000000       0.00000000      -0.02223506       0.01370317      -0.00446890       0.04448991
C       -1.60021848      -6.58854053      -6.20704259       0.00000000       0.00000000       0.00960707       0.02493336      -0.00196438      -0.11400462
C       -0.38090561      -5.78270804      -5.77173434       0.00000000       0.00000000       0.02404308      -0.00244810      -0.03352970      -0.05977585
C       -0.53527386      -5.08921995      -4.41541391       0.00000000       0.00000000       0.00740207       0.00974309      -0.05592839      -0.07159549
C       -1.57744611      -3.96686589      -4.42797469       0.00000000       0.00000000      -0.04583938      -0.00382888      -0.00308058      -0.02084790
N       -1.62870402      -3.25391231      -3.15777220       0.00000000       0.00000000       0.01696217      -0.01484399       0.00131253      -0.06300571
C       -2.78519600      -3.55804187      -2.31581621       0.00000000       0.00000000      -0.01375247      -0.02407103      -0.01409997      -0.01598155
C       -3.01221078      -5.04447456      -2.02862475       0.00000000       0.00000000       0.00110776      -0.02363923       0.05932006      -0.07494059
C       -2.10710294      -5.61155098      -0.93292994       0.00000000       0.00000000       0.00933984      -0.02305985       0.02224870      -0.05720175
C       -2.59326409      -5.23378530       0.46360931       0.00000000       0.00000000       0.02290895      -0.02468433      -0.04144642      -0.10921562
C       -0.76392342      -2.31167838      -2.76643796       0.00000000       0.00000000      -0.02175158      -0.03481877       0.04380216       0.26119895
O       -0.85312717      -1.76656287      -1.64835921       0.00000000       0.00000000       0.03208587       0.01177911       0.02302683      -0.38207362
C        0.35297674      -1.89073781      -3.70952419       0.00000000       0.00000000      -0.00900425      -0.01235337       0.02923936      -0.08508261
C        0.48687620      -0.35204295      -3.78474544       0.00000000       0.00000000      -0.02080334      -0.03285077      -0.00471549      -0.10059483
C        1.66582794       0.10009214      -2.94975033       0.00000000       0.00000000       0.00447528       0.03080135      -0.04274871       0.26386058
O        1.58599026       0.04048896      -1.70677246       0.00000000       0.00000000       0.03077895       0.04202056       0.02720558      -0.38055544
N        2.77656170       0.54017500      -3.55092039       0.00000000       0.00000000       0.01021734       0.00823492       0.00999841      -0.06511286
C        2.88407924       0.79968149      -4.98248576       0.00000000       0.00000000      -0.00391476       0.00592277       0.00081805      -0.01741092
C        3.10734494      -0.44324826      -5.84663718       0.00000000       0.00000000      -0.00730115      -0.00095013       0.01246019      -0.07233094
C        2.95060238      -0.13856273      -7.33761841       0.00000000       0.00000000      -0.00510536      -0.00695076      -0.03894106      -0.06068862
C        4.05664738       0.75458872      -7.88361836       0.00000000       0.00000000       0.03209010       0.02636833       0.00682152      -0.11452299
C        3.86921348       0.98665550      -2.69262766       0.00000000       0.00000000      -0.01197795       0.01466240       0.02777393      -0.00726014
C        4.71148198      -0.14203389      -2.09398739       0.00000000       0.00000000       0.03153000      -0.00904464       0.00346715      -0.06792637
C        5.53319793      -0.95202665      -3.09773580       0.00000000       0.00000000       0.00978278       0.00574827       0.01773133      -0.05909868
C        6.55184758      -0.11165631      -3.86177272       0.00000000       0.00000000      -0.02000723      -0.04432907       0.03738588      -0.11275722
H       -1.36699826      -7.13305618      -7.11836879       0.00000000       0.00000000      -0.01118683      -0.00467766       0.03605222       0.05759426
H       -2.45156574      -5.94759718      -6.41866796       0.00000000       0.00000000      -0.01386188       0.03082920       0.02843399       0.03763684
H       -1.88595925      -7.31093143      -5.44520594       0.00000000       0.00000000       0.03143532       0.02661596      -0.00678274       0.04330113
H       -0.14454105      -5.04210833      -6.53983640       0.00000000       0.00000000      -0.03642227       0.01606539       0.02347351       0.03610013
H        0.47400556      -6.45727865      -5.70440984       0.00000000       0.00000000       0.00491854      -0.02157088       0.01421549       0.04923107
H        0.42460764      -4.65843519      -4.13203201       0.00000000       0.00000000       0.01764771      -0.02956599       0.01605181       0.03602131
H       -0.80120147      -5.83154218      -3.66128325       0.00000000       0.00000000       0.01039265       0.01207511      -0.03592815       0.05179178
H       -2.56784381      -4.38863339      -4.59979942       0.00000000       0.00000000       0.01271494       0.03822621      -0.03745649       0.08011599
H       -1.37661403      -3.27788902      -5.25219842       0.00000000       0.00000000      -0.00639018       0.00244406       0.01819098       0.05880600
H       -3.66776877      -3.16879448      -2.83419437       0.00000000       0.00000000      -0.00681690      -0.00944054      -0.01195952       0.05561695
H       -2.65465505      -3.00826266      -1.38141448       0.00000000       0.00000000      -0.00851572      -0.02106627      -0.01419901       0.08365132
H       -2.89007728      -5.63016391      -2.93833649       0.00000000       0.00000000      -0.01942030       0.02346692       0.01482092       0.06064761
H       -4.05184328      -5.16477299      -1.71813106       0.00000000       0.00000000       0.01386816       0.01013617       0.01369565       0.05938917
H       -1.08414280      -5.25204776      -1.08276163       0.00000000       0.00000000      -0.02840017      -0.03118980      -0.01860424       0.02500158
H       -2.09830078      -6.70186224      -1.01446278       0.00000000       0.00000000       0.01894870       0.08424733       0.00544051       0.04931005
H       -2.58024602      -4.15374653       0.60160528       0.00000000       0.00000000      -0.00556677      -0.01421254       0.02140847       0.02832130
H       -1.96832811      -5.69578587       1.22481197       0.00000000       0.00000000      -0.00261330       0.02768480      -0.01005637       0.03525249
H       -3.61083398      -5.58485789       0.61492097       0.00000000       0.00000000       0.00665404       0.00196663      -0.02424350       0.05109778
H        0.22083898      -2.29731196      -4.70834093       0.00000000       0.00000000       0.00269829       0.01511040       0.05267656       0.07523255
H        1.27836812      -2.29643527      -3.29544472       0.00000000       0.00000000      -0.02324934      -0.08997001       0.02206963       0.08376171
H       -0.40030362       0.11342389      -3.34895931       0.00000000       0.00000000       0.02255832      -0.02779369       0.02038271       0.11159369
H        0.56568785      -0.04597256      -4.82238412       0.00000000       0.00000000      -0.00975930       0.00267680       0.00622614       0.07584843
H        3.72516913       1.47407383      -5.12805084       0.00000000       0.00000000       0.02216860       0.03568805      -0.01168406       0.07535332
H        1.99010359       1.33146673      -5.31687591       0.00000000       0.00000000      -0.01882013      -0.01034815      -0.04782899       0.05699467
H        2.39813461      -1.21930146      -5.56368385       0.00000000       0.00000000      -0.03227543      -0.03656928      -0.01180294       0.03694152
H        4.11125120      -0.82796872      -5.67467259       0.00000000       0.00000000       0.02148821      -0.02062943      -0.02045873       0.05976829
H        1.97851434       0.32420455      -7.52082417       0.00000000       0.00000000      -0.00624068      -0.00219148      -0.00899884       0.03438371
H        2.97265472      -1.08272072      -7.88090949       0.00000000       0.00000000      -0.01159507      -0.05700655       0.00393785       0.05161374
H        3.96046257       1.77403194      -7.51988964       0.00000000       0.00000000       0.03117409       0.01300065       0.01741491       0.03505071
H        4.02194186       0.78374095      -8.96865961       0.00000000       0.00000000      -0.05996636       0.00624758       0.00803133       0.05725769
H        5.02972147       0.36443503      -7.59721503       0.00000000       0.00000000       0.03431360       0.02372368       0.01272626       0.04611777
H        3.42093307       1.53650241      -1.85997854       0.00000000       0.00000000       0.00459129       0.04369004      -0.03251654       0.05020096
H        4.49605224       1.66987855      -3.26246673       0.00000000       0.00000000       0.03804380      -0.01628149       0.02174152       0.06845229
H        4.04615627      -0.80434773      -1.53505313       0.00000000       0.00000000       0.01988662       0.03393814      -0.00941045       0.04556777
H        5.40269505       0.31534864      -1.38344992       0.00000000       0.00000000      -0.01580209       0.02215300       0.03583977       0.04695718
H        4.86876226      -1.46313946      -3.79560554       0.00000000       0.00000000       0.03075915       0.03854359       0.01005165       0.03632913
H        6.07413196      -1.71987383      -2.53920357       0.00000000       0.00000000      -0.03426581       0.00222800      -0.02065717       0.04014181
H        6.07322920       0.63320861      -4.49159794       0.00000000       0.00000000       0.01189174      -0.01363092      -0.01162806       0.03710900
H        7.15516804      -0.75136847      -4.49966790       0.00000000       0.00000000      -0.00019872       0.00277725      -0.00476460       0.05286148
H        7.21890044       0.39547464      -3.16875947       0.00000000       0.00000000      -0.00804674       0.01419241      -0.01658158       0.04479904
C        5.98291121       6.73484514      -0.50395190       0.00000000       0.00000000       0.02051560      -0.01144774       0.01340109      -0.11491045
C        6.01188906       5.22461242      -0.29689342       0.00000000       0.00000000      -0.00132729       0.01303539      -0.00097053      -0.06022692
C        4.78906097       4.50547904      -0.87663072       0.00000000       0.00000000      -0.00183712      -0.01899895      -0.00270722      -0.06818678
C        3.52555141       4.82671962      -0.06815915       0.00000000       0.00000000       0.04116025       0.01767620      -0.00365225      -0.02134158
N        2.32297334       4.11575881      -0.48372670       0.00000000       0.00000000      -0.01043349      -0.00940924       0.00219618      -0.06194193
C        1.33543443       4.88911362      -1.23193255       0.00000000       0.00000000       0.01310311       0.00529681       0.00107899      -0.01077677
C        1.76910042       5.18414693      -2.66951924       0.00000000       0.00000000      -0.00947639       0.00380163      -0.01276378      -0.07514302
C        1.68788576       3.95451627      -3.57762426       0.00000000       0.00000000      -0.02672151      -0.03909314       0.00061968      -0.06016166
C        0.29191506       3.78385800      -4.16713922       0.00000000       0.00000000      -0.00757952      -0.01510186       0.01009222      -0.11398581
C        2.04874925       2.86946368      -0.10835641       0.00000000       0.00000000      -0.02191748      -0.06200638       0.00982593       0.26076124
O        0.96464964       2.31062225      -0.37830690       0.00000000       0.00000000       0.03078680       0.04134814       0.01831697      -0.43214951
C        3.02634115       2.09149976       0.74651502       0.00000000       0.00000000       0.01062360      -0.02152464      -0.01106966      -0.08993097
C        2.48592534       2.10232988       2.19095006       0.00000000       0.00000000      -0.00178840       0.01861225      -0.00705627      -0.09318131
C        2.36081102       0.67451209       2.68434253       0.00000000       0.00000000      -0.03506998      -0.00438647      -0.03769555       0.26575742
O        1.77584645      -0.15967175       1.96553513       0.00000000       0.00000000       0.00152714      -0.02653312       0.02303985      -0.39292354
N        2.92395826       0.35477473       3.85220714       0.00000000       0.00000000       0.00495466       0.01364056      -0.01377791      -0.06984583
C        3.22563645       1.33248746       4.89372858       0.00000000       0.00000000      -0.01439224      -0.01641687      -0.01191096      -0.01445677
C        4.68809533       1.77542264       4.96367768       0.00000000       0.00000000       0.00766660      -0.00494945       0.00466232      -0.06908938
C        4.90767928       2.82738781       6.05505631       0.00000000       0.00000000       0.01063968       0.00396549       0.00324619      -0.06102342
C        4.79752286       2.27127731       7.47025136       0.00000000       0.00000000      -0.00375547       0.00028365      -0.00601059      -0.11359570
C        3.09933621      -1.05186874       4.20003371       0.00000000       0.00000000      -0.00024711       0.00362001      -0.00051934      -0.00768067
C        3.99679717      -1.79618050       3.20540210       0.00000000       0.00000000       0.01733400       0.00308434      -0.01441242      -0.06739367
C        5.45938854      -1.34516980       3.24592358       0.00000000       0.00000000       0.02030130      -0.01228753       0.00573076      -0.05949502
C        6.20574729      -1.84235465       4.47953691       0.00000000       0.00000000      -0.00389932       0.00356103       0.00416502      -0.11238440
H        6.87362517       7.17917009      -0.06856528       0.00000000       0.00000000      -0.00462848       0.00150091      -0.02823749       0.05836407
H        5.11901379       7.19304774      -0.02910132       0.00000000       0.00000000       0.01638440      -0.00728364       0.00760350       0.03641258
H        5.96843161       6.97814330      -1.56341469       0.00000000       0.00000000      -0.01423083      -0.00826944       0.00706330       0.04770153
H        6.08889419       5.00415371       0.77089117       0.00000000       0.00000000      -0.00193976       0.00549431      -0.01808759       0.03515276
H        6.90664547       4.82578977      -0.77840956       0.00000000       0.00000000      -0.02762689       0.00580130       0.00612917       0.05265821
H        4.97655603       3.42970294      -0.87135123       0.00000000       0.00000000      -0.01688412       0.00530231      -0.02770145       0.03077203
H        4.65609567       4.80741229      -1.91536692       0.00000000       0.00000000       0.00309762       0.00428278       0.00297206       0.05325568
H        3.31794791       5.89172024      -0.16627621       0.00000000       0.00000000      -0.02852927       0.00080173      -0.00373245       0.08129900
H        3.71266860       4.62651710       0.99008524       0.00000000       0.00000000       0.00114184       0.00895005      -0.00124074       0.05657963
H        1.16419498       5.82950159      -0.70048033       0.00000000       0.00000000       0.03746533      -0.01060236       0.01160198       0.06221427
H        0.40256988       4.32213222      -1.22429181       0.00000000       0.00000000       0.01515172       0.01526118      -0.01293356       0.06400955
H        2.78137030       5.58313722      -2.66711540       0.00000000       0.00000000       0.02697681       0.00555680       0.04173633       0.05823763
H        1.12369080       5.96546589      -3.07077714       0.00000000       0.00000000      -0.02704054       0.01182087       0.01497014       0.06737097
H        1.95816747       3.06312017      -3.00731512       0.00000000       0.00000000       0.00593331       0.01310464       0.01987956       0.02255254
H        2.40654265       4.05353607      -4.39158285       0.00000000       0.00000000      -0.01741358       0.03313113      -0.00550871       0.04572417
H       -0.45975211       3.77825057      -3.38180939       0.00000000       0.00000000      -0.03825962      -0.01743141      -0.00823373       0.03147210
H        0.21284824       2.85456098      -4.72586419       0.00000000       0.00000000      -0.00810507      -0.00336672       0.01491184       0.03363967
H        0.06365077       4.60269640      -4.84360015       0.00000000       0.00000000       0.01421897       0.01358381       0.00009254       0.05779917
H        4.04859902       2.45324096       0.71418461       0.00000000       0.00000000      -0.00702329       0.00999351      -0.02652376       0.07036626
H        2.99627974       1.06215413       0.36679359       0.00000000       0.00000000       0.00099566       0.01742908       0.02149678       0.10616393
H        1.47632992       2.51346300       2.16531243       0.00000000       0.00000000      -0.00516923      -0.00700962      -0.00322845       0.09759280
H        3.11508919       2.71807088       2.82711902       0.00000000       0.00000000      -0.00602478      -0.01551909      -0.03378461       0.06758086
H        2.94484005       0.87875034       5.84623872       0.00000000       0.00000000       0.01410526      -0.01813447       0.00929551       0.07152721
H        2.58657288       2.20719152       4.76004608       0.00000000       0.00000000      -0.01453743       0.00942343       0.01726354       0.04866059
H        4.98931117       2.19411866       4.00102863       0.00000000       0.00000000       0.00830269      -0.01306628      -0.01603588       0.03398827
H        5.32576998       0.91693307       5.16862561       0.00000000       0.00000000       0.01003476      -0.00647907       0.01272223       0.06330944
H        4.19208687       3.64272773       5.92651049       0.00000000       0.00000000       0.00656115       0.01187042      -0.00199596       0.03376819
H        5.90709128       3.24390505       5.92565088       0.00000000       0.00000000       0.00540697      -0.00248252      -0.00397301       0.05580737
H        3.78340036       1.95461787       7.70390851       0.00000000       0.00000000       0.01224434      -0.00604454      -0.01386171       0.03197138
H        5.07830055       3.03792967       8.18720248       0.00000000       0.00000000      -0.00901995      -0.01793700      -0.01065705       0.05828264
H        5.46885563       1.42609718       7.60349828       0.00000000       0.00000000      -0.01084795       0.01096358      -0.00287630       0.04708351
H        2.11517711      -1.52697293       4.24549428       0.00000000       0.00000000      -0.03005065      -0.01439001       0.01006721       0.04391953
H        3.54690429      -1.09717670       5.19037633       0.00000000       0.00000000       0.01465580       0.00561638       0.02621220       0.07720909
H        3.60835580      -1.65389422       2.19457879       0.00000000       0.00000000      -0.01313531       0.00159905       0.00375881       0.04275130
H        3.94717109      -2.86159982       3.43932207       0.00000000       0.00000000       0.00477332       0.00992677       0.00341150       0.04848757
H        5.50463072      -0.25600915       3.19496698       0.00000000       0.00000000       0.00380285      -0.01750952      -0.02094155       0.03685883
H        5.96673675      -1.73165631       2.35948270       0.00000000       0.00000000      -0.02545074      -0.01081658       0.00973414       0.04063969
H        5.77379927      -1.45693823       5.40053366       0.00000000       0.00000000       0.00200732      -0.00742399      -0.01919107       0.03657295
H        7.24516929      -1.52730949       4.43958676       0.00000000       0.00000000      -0.02133121       0.00338281       0.00204934       0.05418157
H        6.18589039      -2.92879089       4.52485089       0.00000000       0.00000000      -0.00190511       0.01487949      -0.00054762       0.04572726
O       -1.11047543       1.51999074      -1.71823506       0.00000000       0.00000000       0.06318541      -0.05053989      -0.05036080      -0.51765882
H       -1.87173487       2.08759327      -1.55475875       0.00000000       0.00000000      -0.02406325      -0.04793051      -0.00685606       0.31824223
H       -0.32518250       2.09301749      -1.67840050       0.00000000       0.00000000      -0.00079874       0.00612444       0.03645748       0.35777455
