160
Properties=species:S:1:pos:R:3:initial_charges:R:1:initial_magmoms:R:1:forces:R:3:charge:R:1 energy=-6627.560401620294 free_energy=-6627.560401620294 dipole="-0.5644649829239567 0.17867502809962713 -0.30365851673988714" pbc="F F F"
Gd       0.00144401      -0.00133110       0.05573784       3.00000000       0.00000000      -0.07370978      -0.03769778       0.08640218       0.86770162
C       -3.73544577      -2.63375586      -1.75086505       0.00000000       0.00000000       0.01982721      -0.04579187      -0.02088487      -0.06138061
N       -3.99659328      -2.01894657      -0.45743127       0.00000000       0.00000000      -0.04717964      -0.05942379      -0.11684793      -0.04700198
C       -3.04427960      -1.25365887       0.08190152       0.00000000       0.00000000       0.04433137      -0.05757974      -0.12475859       0.27242172
O       -1.88163009      -1.27378541      -0.36753049       0.00000000       0.00000000      -0.05678201      -0.00428715       0.01593709      -0.38642539
C       -3.41936158      -0.26681509       1.17659435       0.00000000       0.00000000      -0.04805770       0.04312799       0.00666829      -0.11961243
C       -2.39931677      -0.37468650       2.29843902       0.00000000       0.00000000       0.11989013      -0.02657777       0.03255509       0.27072547
O       -1.20105192      -0.40677454       1.97280386       0.00000000       0.00000000      -0.11168917      -0.02588825      -0.04995589      -0.37574862
N       -2.75669546      -0.47963535       3.57879649       0.00000000       0.00000000       0.02116375      -0.02268987       0.11359885      -0.04454336
C       -1.70985206      -0.75186120       4.55745148       0.00000000       0.00000000       0.01437272      -0.00210082      -0.01016288      -0.06554414
C       -4.06499842      -0.27309140       4.08906084       0.00000000       0.00000000      -0.00717897      -0.10456291       0.02871785       0.04853489
C       -4.85004661       0.75822402       3.59187249       0.00000000       0.00000000      -0.05682856       0.08707485      -0.00743960      -0.05181691
C       -6.12727326       0.95530829       4.08242166       0.00000000       0.00000000      -0.00029562      -0.03494039       0.05858274      -0.02354299
C       -6.60493157       0.14610804       5.09990373       0.00000000       0.00000000      -0.09982166       0.03429139      -0.00331586      -0.02049236
C       -5.80908647      -0.85355065       5.63272960       0.00000000       0.00000000      -0.01812682      -0.01502298      -0.02026831      -0.01899068
C       -4.54221055      -1.06902639       5.12551730       0.00000000       0.00000000       0.05480238       0.03086981      -0.07891177      -0.03959683
C       -5.21211087      -2.36884248       0.19153394       0.00000000       0.00000000       0.06017753       0.03529068       0.05114695       0.04756068
C       -6.37542850      -2.56942531      -0.53683502       0.00000000       0.00000000      -0.05601174      -0.01584028      -0.01571575      -0.03954586
C       -7.53608605      -2.95320261       0.11180780       0.00000000       0.00000000       0.01803418       0.01563873       0.03965558      -0.01827570
C       -7.53988527      -3.11612241       1.48677686       0.00000000       0.00000000      -0.09518740      -0.01576126       0.03262799      -0.01971796
C       -6.37779037      -2.93144178       2.21785226       0.00000000       0.00000000      -0.02440945      -0.03404012      -0.01843615      -0.02225607
C       -5.21088655      -2.58428816       1.56836796       0.00000000       0.00000000       0.03760210      -0.01772582      -0.06784749      -0.04953522
H       -2.76338650      -2.29712428      -2.10588429       0.00000000       0.00000000       0.02161545      -0.03861273       0.04004189       0.08005488
H       -4.48696650      -2.32199651      -2.47658141       0.00000000       0.00000000      -0.00738583      -0.00593407       0.07296944       0.08199147
H       -3.75438767      -3.71985609      -1.66964943       0.00000000       0.00000000       0.01011639      -0.01856642      -0.00064223       0.07740583
H       -4.45617031      -0.33565750       1.48051386       0.00000000       0.00000000      -0.07397504      -0.10604570       0.04582031       0.09131012
H       -3.23704896       0.70899363       0.71678349       0.00000000       0.00000000      -0.00723864       0.11987065      -0.08216835       0.12848881
H       -0.75081018      -0.75094408       4.04365096       0.00000000       0.00000000       0.00221710       0.05488199      -0.01360220       0.09523464
H       -1.86513062      -1.73017008       5.01068416       0.00000000       0.00000000       0.01811471       0.00603222       0.00059636       0.07828483
H       -1.71033193       0.00795225       5.33815433       0.00000000       0.00000000      -0.07895436       0.00430492      -0.02455782       0.07867723
H       -4.44899934       1.42578697       2.84705732       0.00000000       0.00000000      -0.00920564       0.06190199      -0.00594370       0.03153980
H       -6.73777898       1.74858828       3.67679004       0.00000000       0.00000000       0.01453858      -0.03935998       0.07190327       0.05902282
H       -7.59374905       0.30752913       5.48830526       0.00000000       0.00000000      -0.12467247       0.01467864       0.05302456       0.07136189
H       -6.16632264      -1.47338301       6.44229308       0.00000000       0.00000000      -0.02516668       0.07238549      -0.05861402       0.07086282
H       -3.92802662      -1.84861563       5.54095686       0.00000000       0.00000000      -0.01873294      -0.08398785       0.00763701       0.05667650
H       -6.38778130      -2.44038498      -1.60510993       0.00000000       0.00000000      -0.03894742       0.05015261      -0.03233006       0.05687266
H       -8.43255785      -3.12542860      -0.46541688       0.00000000       0.00000000       0.03622950       0.02350652       0.07687498       0.07303272
H       -8.44583035      -3.40559721       1.98761919       0.00000000       0.00000000      -0.10307617      -0.02956229       0.05893898       0.07245995
H       -6.36405811      -3.07511301       3.28802624       0.00000000       0.00000000      -0.05636481      -0.02086119      -0.05565129       0.05783658
H       -4.28757328      -2.50486466       2.11846829       0.00000000       0.00000000       0.04711679      -0.05008682       0.06268096       0.03048737
C        1.62374283       4.34044413       1.80978084       0.00000000       0.00000000      -0.04837574       0.01685476       0.01120104      -0.06044605
N        2.50008408       3.21188076       2.08436561       0.00000000       0.00000000      -0.03891423       0.10308804       0.00800866      -0.04144861
C        2.18605195       2.02786574       1.55889258       0.00000000       0.00000000      -0.01796216       0.10273506      -0.06930736       0.27195319
O        1.14073438       1.88169118       0.89160145       0.00000000       0.00000000       0.01417931       0.04271424      -0.04881849      -0.39872187
C        3.14756290       0.85978082       1.66079440       0.00000000       0.00000000       0.07937737       0.00759688      -0.01008935      -0.12317762
C        2.44192053      -0.30241462       2.34952505       0.00000000       0.00000000       0.06563142      -0.09850909       0.08545953       0.26916222
O        1.28088892      -0.56370673       2.01354089       0.00000000       0.00000000      -0.00750916       0.04482671      -0.02632397      -0.37031630
N        3.05833091      -1.01666821       3.29990568       0.00000000       0.00000000      -0.01942563      -0.06975125       0.02195877      -0.05212546
C        2.27695596      -2.02212869       4.01164480       0.00000000       0.00000000      -0.01150405      -0.01425801      -0.00455154      -0.06228187
C        4.43299321      -0.92529006       3.64330539       0.00000000       0.00000000      -0.00657782       0.03361051       0.08941226       0.04655791
C        5.39618429      -0.80803054       2.65043459       0.00000000       0.00000000       0.06900736      -0.00653121      -0.07675713      -0.05335766
C        6.73261359      -0.70444106       2.98855562       0.00000000       0.00000000       0.00556721      -0.01929208       0.05352531      -0.02372278
C        7.11203649      -0.76597184       4.31892105       0.00000000       0.00000000       0.07719155       0.01127665      -0.01462229      -0.02094127
C        6.16060268      -0.93827580       5.31018115       0.00000000       0.00000000       0.01004598       0.03633523      -0.00151649      -0.01953669
C        4.82151016      -1.01159099       4.97644481       0.00000000       0.00000000      -0.06855200       0.02674911      -0.07058367      -0.04090758
C        3.58816389       3.48076905       2.96220776       0.00000000       0.00000000      -0.03142129      -0.09638412       0.01400415       0.04745206
C        4.29925069       4.66854565       2.84916242       0.00000000       0.00000000       0.02474131       0.03068290       0.01120932      -0.03864496
C        5.31148518       4.95358966       3.74823012       0.00000000       0.00000000       0.00020215      -0.04946806       0.00281477      -0.01809657
C        5.62915306       4.04535351       4.74390796       0.00000000       0.00000000       0.07403325       0.01316522       0.04889176      -0.01908964
C        4.92434088       2.85920066       4.85979377       0.00000000       0.00000000      -0.00492785       0.02336424       0.02473647      -0.02220954
C        3.89073325       2.58859634       3.98531182       0.00000000       0.00000000      -0.06511657       0.01745284      -0.02063850      -0.04873311
H        0.76650652       3.97255855       1.25249195       0.00000000       0.00000000      -0.06992600      -0.00871704       0.07102711       0.07828476
H        2.13659350       5.09870435       1.21724773       0.00000000       0.00000000       0.01456553      -0.05679861       0.02075975       0.07704435
H        1.29020187       4.78931916       2.74462323       0.00000000       0.00000000       0.03046276       0.00810099       0.01052381       0.08039654
H        4.09801572       1.13055517       2.10115464       0.00000000       0.00000000       0.08648145       0.05807261       0.08847020       0.09359894
H        3.28933936       0.54415029       0.62281625       0.00000000       0.00000000       0.10518476      -0.01907643      -0.09503422       0.12694088
H        1.39895864      -2.26759335       3.41695519       0.00000000       0.00000000      -0.01458965       0.03275785      -0.02233843       0.08779190
H        1.95689781      -1.63868349       4.98163011       0.00000000       0.00000000      -0.04072572      -0.00308436      -0.02803280       0.07442821
H        2.86548544      -2.92406699       4.16888629       0.00000000       0.00000000       0.10228832       0.06780149      -0.03139956       0.07888197
H        5.10229619      -0.82242157       1.61413422       0.00000000       0.00000000       0.03326529      -0.02546134      -0.07186498       0.03320945
H        7.47186230      -0.58513819       2.21030322       0.00000000       0.00000000      -0.01428022      -0.04625669       0.06685628       0.06100587
H        8.15270442      -0.69746490       4.57873947       0.00000000       0.00000000       0.11547301       0.01340362       0.04586677       0.07108413
H        6.45429682      -1.00948534       6.34710035       0.00000000       0.00000000       0.01501642       0.00424195      -0.07115783       0.06997116
H        4.08147389      -1.13725491       5.74755824       0.00000000       0.00000000      -0.02113976       0.03427219       0.07397673       0.05650577
H        4.07146188       5.38016847       2.07422800       0.00000000       0.00000000       0.01777642       0.00280186      -0.04571536       0.05603373
H        5.84498213       5.88938604       3.66947676       0.00000000       0.00000000      -0.00606656      -0.08328268       0.00826045       0.07307505
H        6.41589742       4.27060491       5.44084462       0.00000000       0.00000000       0.09766021       0.01477649       0.07136117       0.07274226
H        5.15466802       2.14883157       5.63922694       0.00000000       0.00000000       0.02945957       0.06511518       0.00072818       0.05803385
H        3.28987373       1.70392084       4.10973268       0.00000000       0.00000000      -0.04479298      -0.06057514       0.09383256       0.03333597
C       -1.90705117       1.20859216      -4.42924666       0.00000000       0.00000000      -0.06194597      -0.04773248      -0.01953201      -0.06927847
N       -1.59212920       2.35826615      -3.59532749       0.00000000       0.00000000      -0.02762874      -0.06056589      -0.10977901      -0.04941234
C       -1.13901135       2.12937183      -2.36410786       0.00000000       0.00000000      -0.01125240      -0.05045385      -0.07616964       0.25989904
O       -1.02966172       0.97794983      -1.91457402       0.00000000       0.00000000       0.07543590      -0.00297188      -0.03152263      -0.38540965
C       -0.68958230       3.27432182      -1.47556162       0.00000000       0.00000000       0.01857338       0.04708138       0.02339726      -0.12023557
C       -1.44974873       3.09300676      -0.16598142       0.00000000       0.00000000      -0.12206262       0.02966020       0.05643825       0.27053233
O       -1.47975358       1.96863364       0.36349337       0.00000000       0.00000000       0.03802823       0.01868411       0.00811936      -0.39579109
N       -2.13103558       4.11330758       0.35769878       0.00000000       0.00000000      -0.06934473       0.05156162       0.08413716      -0.05192106
C       -2.96512258       3.84567062       1.52074374       0.00000000       0.00000000      -0.00569710       0.00667934       0.03247459      -0.05947685
C       -2.11380780       5.45281512      -0.12331564       0.00000000       0.00000000      -0.10728398      -0.00019915      -0.02252695       0.04724552
C       -0.91824506       6.06441717      -0.47665554       0.00000000       0.00000000       0.07360539       0.05129832       0.00088971      -0.05230162
C       -0.92000216       7.35364834      -0.97733312       0.00000000       0.00000000      -0.05156985       0.01298195       0.03487028      -0.02309146
C       -2.11321374       8.04787644      -1.08733753       0.00000000       0.00000000       0.04028201       0.07836569      -0.03452552      -0.01971030
C       -3.30328959       7.45978283      -0.69400776       0.00000000       0.00000000       0.00906402       0.00298367      -0.02163987      -0.01876288
C       -3.30642051       6.16251969      -0.21820070       0.00000000       0.00000000       0.04824142      -0.07304591       0.00838697      -0.03918345
C       -1.93190424       3.61983631      -4.16207750       0.00000000       0.00000000      -0.01474425      -0.00467717       0.08114731       0.04577472
C       -1.56557774       3.91225740      -5.46876603       0.00000000       0.00000000       0.00640496       0.02154544      -0.04333056      -0.03911277
C       -1.99419191       5.08919532      -6.05584187       0.00000000       0.00000000       0.01650701       0.02005079       0.04672550      -0.01798875
C       -2.77291253       5.97714216      -5.33296915       0.00000000       0.00000000      -0.00826784       0.08847790      -0.01645281      -0.01874216
C       -3.13225203       5.69221607      -4.02640616       0.00000000       0.00000000      -0.01963222       0.00907458      -0.01559136      -0.02225038
C       -2.72561748       4.50700587      -3.44622135       0.00000000       0.00000000      -0.00855836      -0.06843295       0.00461693      -0.04816142
H       -1.75533923       0.31089613      -3.83463337       0.00000000       0.00000000      -0.05279667      -0.00560881       0.01634609       0.09340106
H       -1.26276743       1.18152926      -5.30807434       0.00000000       0.00000000      -0.01755347       0.03911581       0.04709925       0.07542733
H       -2.94312184       1.26710345      -4.75840946       0.00000000       0.00000000      -0.03728122       0.01388866      -0.00936983       0.07970295
H       -0.79423125       4.24841834      -1.93660468       0.00000000       0.00000000      -0.09523771       0.05050994      -0.03883905       0.09104190
H        0.35913691       3.08296167      -1.23498201       0.00000000       0.00000000       0.14972710       0.03798395       0.01319750       0.10802758
H       -2.73544006       2.84178546       1.87177244       0.00000000       0.00000000       0.03182862       0.03905834       0.08091550       0.08175670
H       -4.02091811       3.90183795       1.25411538       0.00000000       0.00000000       0.01262915      -0.02119549       0.02790273       0.07491453
H       -2.75959477       4.56263535       2.31369501       0.00000000       0.00000000       0.01925203       0.06928228      -0.06072599       0.08189785
H        0.01392153       5.54176491      -0.34242474       0.00000000       0.00000000       0.06191304       0.02058933       0.02865411       0.03542733
H        0.01306328       7.81263316      -1.26980610       0.00000000       0.00000000      -0.07822959       0.01107052       0.03984639       0.06256188
H       -2.11039758       9.05379985      -1.46590478       0.00000000       0.00000000      -0.01185490       0.11488420      -0.04844947       0.07312581
H       -4.23546954       8.00164532      -0.75883686       0.00000000       0.00000000       0.08169128       0.00478494      -0.00906177       0.07145098
H       -4.23508682       5.70448219       0.07381514       0.00000000       0.00000000      -0.08299883      -0.00208400      -0.02097732       0.05502323
H       -0.96046040       3.22638279      -6.03689111       0.00000000       0.00000000       0.05698889      -0.01307573      -0.01357155       0.05416686
H       -1.72489168       5.30462169      -7.07922472       0.00000000       0.00000000      -0.01271694       0.00925224       0.07462281       0.07378972
H       -3.11174495       6.88735430      -5.79388114       0.00000000       0.00000000      -0.03169991       0.10197958      -0.04317411       0.07386091
H       -3.75038235       6.37068473      -3.45933174       0.00000000       0.00000000       0.01372070       0.02609327      -0.05443982       0.05842703
H       -3.05079393       4.24081092      -2.45422057       0.00000000       0.00000000      -0.07681901       0.02581715       0.06990901       0.03034798
C        0.43860640      -1.26352239      -4.85800900       0.00000000       0.00000000       0.05418672       0.02732207      -0.05057699      -0.06562346
N        0.53144064      -2.41028653      -3.96516317       0.00000000       0.00000000       0.00958151       0.03773978      -0.14277902      -0.05233608
C        0.40287895      -2.19332643      -2.65679225       0.00000000       0.00000000       0.07863611       0.09360603      -0.08144558       0.26392342
O        0.35130868      -1.03559832      -2.21193555       0.00000000       0.00000000      -0.01062405       0.01186410      -0.07955260      -0.40081365
C        0.32515490      -3.34621433      -1.67568120       0.00000000       0.00000000      -0.01410901      -0.03913009       0.00826185      -0.11824457
C        1.41468547      -3.07375484      -0.64862622       0.00000000       0.00000000       0.09801737       0.00173313       0.02432548       0.26761448
O        1.48529826      -1.92944114      -0.15879173       0.00000000       0.00000000      -0.03730384       0.00058816       0.01058562      -0.40261361
N        2.33274248      -3.99585298      -0.35846364       0.00000000       0.00000000       0.08339500      -0.01343889       0.06286601      -0.04722238
C        3.45845469      -3.58980792       0.47130816       0.00000000       0.00000000       0.01963865      -0.00014766       0.01813768      -0.06069655
C        2.29548559      -5.35864758      -0.76952591       0.00000000       0.00000000       0.09509087       0.03128216      -0.04592449       0.04802229
C        1.10437529      -6.07124308      -0.73183773       0.00000000       0.00000000      -0.07201452      -0.05826042       0.02208245      -0.04851918
C        1.06646504      -7.37979184      -1.17917122       0.00000000       0.00000000       0.05057232       0.00099853       0.01809673      -0.02218995
C        2.22733413      -7.99215869      -1.62103717       0.00000000       0.00000000      -0.05027704      -0.08188967      -0.01579991      -0.01978530
C        3.42860314      -7.30510196      -1.60469207       0.00000000       0.00000000      -0.00439264       0.01314231      -0.02358524      -0.01932839
C        3.46426117      -5.98854060      -1.18675088       0.00000000       0.00000000      -0.06595014       0.08092101       0.01871895      -0.03992014
C        0.91779953      -3.62464927      -4.59109379       0.00000000       0.00000000       0.03324323      -0.00928406       0.04968035       0.04582974
C        0.34822995      -3.97911043      -5.80543687       0.00000000       0.00000000      -0.03472313      -0.02601644      -0.03748875      -0.04056705
C        0.82356347      -5.08274442      -6.48903351       0.00000000       0.00000000      -0.00533993      -0.04056397       0.02034106      -0.01801345
C        1.85528593      -5.83515040      -5.95265145       0.00000000       0.00000000       0.01841991      -0.07293180      -0.02417696      -0.01904666
C        2.42184169      -5.48482139      -4.73831278       0.00000000       0.00000000       0.01407365      -0.03538193      -0.05313566      -0.02227969
C        1.96643697      -4.36854227      -4.06652293       0.00000000       0.00000000      -0.00748469       0.04209408       0.02166834      -0.04911266
H        0.65462592      -0.36403230      -4.28537332       0.00000000       0.00000000      -0.06320014       0.03198056      -0.02659637       0.08036317
H       -0.56008730      -1.19395715      -5.29226405       0.00000000       0.00000000       0.04358747      -0.02630769       0.04440111       0.07441443
H        1.16261849      -1.36246200      -5.66275240       0.00000000       0.00000000       0.05726062      -0.05354675      -0.01429075       0.08370473
H        0.35926381      -4.31916954      -2.14827543       0.00000000       0.00000000       0.08997095      -0.06739758      -0.06082913       0.08814242
H       -0.62492625      -3.21189735      -1.15520531       0.00000000       0.00000000      -0.14587335      -0.01543524       0.07679247       0.11862686
H        3.29226321      -2.56171194       0.78468108       0.00000000       0.00000000      -0.00577545      -0.03333933       0.07179884       0.08293820
H        4.38484410      -3.63797034      -0.09960239       0.00000000       0.00000000       0.01321262       0.00380266       0.02096337       0.07743981
H        3.54533743      -4.23418108       1.34433208       0.00000000       0.00000000      -0.03103876      -0.05660450      -0.03206188       0.07839384
H        0.21653242      -5.61201163      -0.32808011       0.00000000       0.00000000      -0.04781943      -0.01039447       0.03684808       0.03852715
H        0.13109993      -7.91901095      -1.17103568       0.00000000       0.00000000       0.06499237      -0.00686135       0.02591499       0.06300746
H        2.19720292      -9.01166414      -1.96059839       0.00000000       0.00000000      -0.00217296      -0.11112101      -0.03768461       0.07217034
H        4.34323703      -7.78351476      -1.92261907       0.00000000       0.00000000      -0.07506348      -0.01341096       0.01457644       0.06996820
H        4.40007468      -5.45791947      -1.19037434       0.00000000       0.00000000       0.06782358       0.02120388      -0.05049068       0.05403968
H       -0.44923580      -3.38700024      -6.22054792       0.00000000       0.00000000      -0.06828526      -0.01655950      -0.03600232       0.05616306
H        0.39504881      -5.34401966      -7.44496026       0.00000000       0.00000000       0.02241620      -0.01638910       0.06286048       0.07313928
H        2.23196659      -6.68518947      -6.49249852       0.00000000       0.00000000       0.02996162      -0.09933464      -0.04384641       0.07334429
H        3.23792207      -6.05490508      -4.32256514       0.00000000       0.00000000      -0.02065138      -0.02486024      -0.04473034       0.05817680
H        2.44326124      -4.04277342      -3.15773201       0.00000000       0.00000000       0.09462949      -0.01263982       0.05275012       0.02812570
O        2.07313206       0.77369779      -1.32415610       0.00000000       0.00000000       0.00658241       0.00159699      -0.06018121      -0.50047988
H        1.68534968       1.35479931      -1.99249053       0.00000000       0.00000000       0.10657533      -0.04114623      -0.12478326       0.33529156
H        2.26612748      -0.06303325      -1.77510411       0.00000000       0.00000000       0.02455978       0.03439488      -0.04818439       0.35020197
