148
Properties=species:S:1:pos:R:3:initial_charges:R:1:initial_magmoms:R:1:forces:R:3:charge:R:1 energy=-5895.351042624096 free_energy=-5895.351042624096 dipole="-0.11489357910192156 -0.24899549048576594 0.8740211388453426" pbc="F F F"
Gd      -0.00998325      -0.07730651       0.02263711       3.00000000       0.00000000      -0.04651421      -0.02894427       0.00752562       0.80072946
C       -0.98963002       0.56169600      -5.37793356       0.00000000       0.00000000       0.01824149       0.01768535      -0.04455188      -0.11760348
C       -2.02496134      -0.50378849      -5.04247538       0.00000000       0.00000000      -0.04739169      -0.03773351       0.13289785      -0.01413629
N       -1.68130335      -1.18803379      -3.79662142       0.00000000       0.00000000       0.03511520      -0.04497099      -0.00445958      -0.04378277
C       -1.56415020      -0.63904147      -2.57978049       0.00000000       0.00000000      -0.01768070       0.10451317      -0.11534899       0.26208806
O       -0.88114676      -1.22283265      -1.70761841       0.00000000       0.00000000      -0.00433942       0.06390221      -0.04336164      -0.39162515
C       -2.27017948       0.63066636      -2.11887872       0.00000000       0.00000000      -0.04974411       0.00551454       0.01277902       0.07968834
C       -3.31635495       1.31250573      -2.73844436       0.00000000       0.00000000       0.00118352      -0.02537943      -0.02770400      -0.02484494
C       -3.86019202       2.42324485      -2.11061223       0.00000000       0.00000000      -0.05325032       0.03217338      -0.03388701       0.00232861
C       -3.38723845       2.83848861      -0.87875987       0.00000000       0.00000000      -0.06367416      -0.01404655      -0.04322084      -0.02466611
C       -2.38325997       2.07873849      -0.28023721       0.00000000       0.00000000      -0.03493021       0.05521428      -0.00465188       0.09798297
C       -1.88399977       2.37211187       1.09218172       0.00000000       0.00000000       0.04181720       0.04126479       0.03886025       0.09768152
C       -2.31986316       3.45773871       1.86068349       0.00000000       0.00000000      -0.00009521       0.01805655      -0.03651196      -0.02632399
C       -1.79576505       3.63202772       3.13129436       0.00000000       0.00000000       0.03861347       0.03954874       0.00082415       0.00152530
C       -0.87228722       2.72756549       3.63902796       0.00000000       0.00000000       0.00857675      -0.01804494      -0.08182546      -0.03216220
C       -0.50133370       1.65697849       2.82846906       0.00000000       0.00000000       0.03921381      -0.02234672       0.00651913       0.06973974
C        0.48696983       0.56491134       3.15617557       0.00000000       0.00000000      -0.01414673      -0.03871680      -0.03677731       0.25284070
O        0.78090040      -0.22934536       2.22981204       0.00000000       0.00000000      -0.04467486      -0.02928541      -0.07027603      -0.42035078
N        1.09333352       0.43785180       4.33049490       0.00000000       0.00000000      -0.02814732      -0.03012481      -0.00645823      -0.04407558
C        2.09994185      -0.62517143       4.42802213       0.00000000       0.00000000      -0.10938091       0.00565618       0.03674672      -0.00129702
C        3.36478712      -0.33481447       3.62766343       0.00000000       0.00000000      -0.02651756      -0.03483662       0.03560742      -0.11806950
C        0.80697661       1.12658183       5.54709665       0.00000000       0.00000000       0.07195520      -0.07180026      -0.02778775       0.02086904
C        1.83424097       1.85744086       6.13482426       0.00000000       0.00000000      -0.01827703      -0.01636110      -0.02295170      -0.04495768
C        1.62703011       2.49699314       7.33861072       0.00000000       0.00000000      -0.00351249       0.06346681       0.02936767      -0.03776802
C        0.39558778       2.42005006       7.97742291       0.00000000       0.00000000       0.02344423       0.02608311       0.00393467       0.03666950
C        0.13697264       3.14985750       9.25049747       0.00000000       0.00000000      -0.01234142      -0.02406602      -0.00575289      -0.12576395
C       -0.59503170       1.63174060       7.40007296       0.00000000       0.00000000      -0.07919175       0.01402528       0.02681921      -0.04663102
C       -0.41996433       0.96046440       6.20069824       0.00000000       0.00000000       0.07959220       0.01428294       0.02895077       0.00455209
C       -1.48809828       0.05588810       5.66046640       0.00000000       0.00000000       0.05095783       0.03646289       0.02491727      -0.11458799
N       -0.98095331       1.51978792       1.58301660       0.00000000       0.00000000       0.01300423       0.05705615       0.04984642      -0.15022115
N       -1.85572021       1.02054347      -0.90372944       0.00000000       0.00000000      -0.05396122       0.08781080      -0.00814631      -0.13462199
C       -1.16730333      -2.52229536      -3.97930014       0.00000000       0.00000000       0.00125633      -0.01142280      -0.03750834       0.04295638
C       -0.23404406      -2.77638821      -4.98258709       0.00000000       0.00000000       0.00553882       0.02424128       0.01774096      -0.04552601
C        0.20069303      -4.06061192      -5.24302962       0.00000000       0.00000000       0.00167450      -0.02073830       0.01362137      -0.03989167
C       -0.26291217      -5.13707873      -4.49534096       0.00000000       0.00000000       0.00397606       0.04208824      -0.02536639       0.03202737
C        0.20075861      -6.53212100      -4.76439380       0.00000000       0.00000000      -0.02920578       0.05422511       0.02071344      -0.12223745
C       -1.19866899      -4.86992204      -3.50371536       0.00000000       0.00000000      -0.04825522      -0.01457842       0.03390116      -0.04827754
C       -1.68110892      -3.59439571      -3.24001737       0.00000000       0.00000000       0.01030544      -0.00241585      -0.04190448       0.01347217
C       -2.78148710      -3.41361628      -2.23936815       0.00000000       0.00000000       0.00800771       0.00814419      -0.05045732      -0.11159518
H       -1.24195430       1.03374431      -6.31913481       0.00000000       0.00000000      -0.10778376       0.12086500      -0.06744852       0.07785490
H       -0.93253832       1.31349144      -4.59525897       0.00000000       0.00000000      -0.07056163       0.07886128       0.02087439       0.04259348
H       -0.00365829       0.12487602      -5.49096793       0.00000000       0.00000000       0.08866942      -0.07669659       0.02905356       0.05364668
H       -3.01891348      -0.06468319      -4.98910887       0.00000000       0.00000000      -0.03594595       0.01003360       0.04098249       0.06653467
H       -2.07638073      -1.27117338      -5.81967521       0.00000000       0.00000000       0.11950614       0.08000434       0.02456999       0.09218226
H       -3.73720441       1.00540673      -3.67835595       0.00000000       0.00000000       0.00456585      -0.01983188      -0.01207738       0.08959733
H       -4.66732096       2.95487302      -2.58469116       0.00000000       0.00000000      -0.06421525       0.07366951      -0.05294603       0.09930455
H       -3.80870422       3.70718650      -0.39994719       0.00000000       0.00000000      -0.01608635      -0.03796336      -0.04823887       0.08897509
H       -3.03294364       4.16972899       1.47982608       0.00000000       0.00000000      -0.02058018      -0.02394867       0.02778874       0.09020788
H       -2.09802213       4.47424467       3.73245150       0.00000000       0.00000000      -0.04031613       0.03322564       0.00726011       0.09888964
H       -0.45728360       2.86052877       4.62537206       0.00000000       0.00000000      -0.04731765       0.01601667      -0.06409792       0.09257570
H        2.33883548      -0.74933790       5.48320959       0.00000000       0.00000000       0.01136071       0.02192343       0.01666749       0.08513751
H        1.64282072      -1.54613392       4.05170995       0.00000000       0.00000000       0.03460246      -0.02638275       0.01237402       0.06503536
H        3.81491052       0.61245290       3.91112091       0.00000000       0.00000000      -0.04237364       0.02416075       0.02592654       0.05904111
H        4.08121035      -1.12024880       3.84108118       0.00000000       0.00000000       0.08034987      -0.03718026      -0.03896683       0.07493401
H        3.15086393      -0.33644033       2.56013009       0.00000000       0.00000000       0.02333954      -0.02085133      -0.02297782       0.04147720
H        2.80092491       1.92051169       5.65697797       0.00000000       0.00000000      -0.08269454       0.01632435      -0.03580775       0.04755648
H        2.42916742       3.05408267       7.78918179       0.00000000       0.00000000       0.07261507       0.07745933       0.02359986       0.06943582
H        1.01644970       3.70554353       9.56646975       0.00000000       0.00000000      -0.07234904      -0.02873629       0.02006596       0.06881221
H       -0.69466515       3.84333283       9.12240644       0.00000000       0.00000000       0.04722571      -0.01032606       0.01939480       0.07392450
H       -0.14591228       2.45171707      10.03721059       0.00000000       0.00000000       0.03249630       0.02248493       0.00199305       0.07987148
H       -1.53021890       1.53166540       7.92412870       0.00000000       0.00000000      -0.12166668      -0.04253636       0.02283663       0.06663898
H       -2.34493578       0.06120229       6.32798060       0.00000000       0.00000000       0.00268140      -0.02034903      -0.02390467       0.07124176
H       -1.81925024       0.36150526       4.66846164       0.00000000       0.00000000      -0.01974653      -0.01803167       0.00792593       0.03021728
H       -1.10962541      -0.96420767       5.59255752       0.00000000       0.00000000      -0.01966369       0.00607400      -0.00692641       0.05055809
H        0.16332908      -1.97869624      -5.59122066       0.00000000       0.00000000      -0.04248708       0.01645796       0.08011369       0.04934544
H        0.89071305      -4.22774957      -6.05461608       0.00000000       0.00000000       0.06484493       0.00315846       0.02357292       0.06287717
H        0.90800591      -6.55086274      -5.59020704       0.00000000       0.00000000      -0.04212113      -0.03556177       0.05167231       0.06542591
H        0.67817161      -6.95520329      -3.87994313       0.00000000       0.00000000      -0.00698523       0.03060622      -0.04265701       0.06294689
H       -0.64593386      -7.17234146      -5.01178089       0.00000000       0.00000000       0.03418777       0.04072558      -0.01323966       0.07540619
H       -1.60289955      -5.69976235      -2.94364868       0.00000000       0.00000000      -0.02130403      -0.01548965       0.04242414       0.05489176
H       -3.11133269      -4.38296239      -1.87492932       0.00000000       0.00000000      -0.07420986       0.04824038      -0.02191272       0.06093244
H       -2.44129323      -2.81211319      -1.39545529       0.00000000       0.00000000      -0.01268732      -0.02838600      -0.01026746       0.04397489
H       -3.62905067      -2.90800303      -2.70053687       0.00000000       0.00000000      -0.01992839       0.02134690       0.01532081       0.04959590
C        3.57006558       1.13145454      -4.80955514       0.00000000       0.00000000       0.03304447       0.04457932      -0.01639028      -0.12316937
C        3.55094689       2.29328916      -3.82436106       0.00000000       0.00000000      -0.09213234       0.02092851       0.13319996      -0.01429169
N        2.34873672       2.28841188      -2.98830912       0.00000000       0.00000000      -0.06692099       0.04522690      -0.00270283      -0.04553106
C        1.93339351       1.32752792      -2.15796369       0.00000000       0.00000000       0.08049106      -0.00055611      -0.03266270       0.26050377
O        0.76696821       1.35570591      -1.70263270       0.00000000       0.00000000       0.08246090       0.07131557       0.09511493      -0.40498376
C        2.81135089       0.18069760      -1.66003486       0.00000000       0.00000000      -0.01091589      -0.03904806       0.02616345       0.07473722
C        4.18065685      -0.01329268      -1.84356246       0.00000000       0.00000000      -0.02921333       0.02987883      -0.01394320      -0.03184973
C        4.79885596      -1.08636668      -1.21563138       0.00000000       0.00000000       0.04150963       0.00787983       0.00649951       0.00018341
C        4.06593885      -1.95446976      -0.42793355       0.00000000       0.00000000       0.05357636       0.02039280      -0.05609110      -0.02715989
C        2.69302461      -1.73145438      -0.30786603       0.00000000       0.00000000       0.03486293      -0.07327781       0.00293580       0.09742416
C        1.82169997      -2.63736057       0.49350613       0.00000000       0.00000000      -0.00378064      -0.00958507       0.08169653       0.09621708
C        2.30061192      -3.70992962       1.24914758       0.00000000       0.00000000       0.04507780       0.04415154       0.03500598      -0.02638714
C        1.40769102      -4.44635496       2.01664342       0.00000000       0.00000000      -0.00044372       0.07453295       0.09332254       0.00075551
C        0.06808504      -4.09120509       2.05036163       0.00000000       0.00000000       0.02182542       0.03825497       0.01290595      -0.02418140
C       -0.34060690      -3.02573930       1.25154780       0.00000000       0.00000000      -0.04320914       0.00456335       0.03880111       0.08283531
C       -1.72155947      -2.42261016       1.22508446       0.00000000       0.00000000      -0.01539304      -0.01876787      -0.04875356       0.25808223
O       -1.78624940      -1.19212506       1.00107362       0.00000000       0.00000000       0.06251115      -0.00443833       0.00154291      -0.39994112
N       -2.83237254      -3.13174692       1.42245255       0.00000000       0.00000000       0.00724957      -0.00347471      -0.02634577      -0.04223477
C       -4.09089357      -2.40209332       1.22486756       0.00000000       0.00000000       0.07668346      -0.04792655      -0.04683036       0.00166454
C       -4.35949743      -1.35978090       2.30182498       0.00000000       0.00000000      -0.00897284      -0.00645736      -0.03168228      -0.12049142
C       -2.88157715      -4.55621252       1.47279723       0.00000000       0.00000000      -0.02245793       0.05973790      -0.07821127       0.02522531
C       -2.12432011      -5.26692288       0.53982818       0.00000000       0.00000000      -0.02037941       0.02686493       0.00824042      -0.05428765
C       -2.13334211      -6.64352379       0.52549848       0.00000000       0.00000000       0.01527947      -0.05807607       0.01168849      -0.04191254
C       -2.92263425      -7.35211015       1.42315965       0.00000000       0.00000000       0.04690114      -0.02504317      -0.04112538       0.03444139
C       -2.94900580      -8.84127575       1.43477836       0.00000000       0.00000000      -0.01441092       0.00352614       0.00494931      -0.12465407
C       -3.69131546      -6.62848755       2.32273931       0.00000000       0.00000000      -0.02271470      -0.04279642       0.05768635      -0.04574911
C       -3.69621379      -5.24174700       2.38572324       0.00000000       0.00000000       0.05535219      -0.02792737      -0.05850595       0.01454488
C       -4.53188648      -4.58572716       3.44426493       0.00000000       0.00000000       0.06067200      -0.01343355      -0.03419735      -0.12146438
N        0.51927719      -2.33716613       0.49718923       0.00000000       0.00000000       0.01096311      -0.06995796       0.07209879      -0.14207311
N        2.11038832      -0.67834305      -0.89982047       0.00000000       0.00000000       0.04769049      -0.10109124       0.04080189      -0.14760739
C        1.49636216       3.43469248      -3.21998508       0.00000000       0.00000000       0.02045209       0.04713292      -0.04230254       0.04048518
C        1.02264169       3.66644083      -4.51308257       0.00000000       0.00000000      -0.00185260      -0.03265183       0.00368773      -0.04595641
C        0.33166480       4.81825131      -4.82828295       0.00000000       0.00000000      -0.02986864      -0.02409149       0.02838038      -0.04037880
C        0.07072406       5.78330198      -3.85409453       0.00000000       0.00000000       0.00444250      -0.06646281      -0.03461133       0.03183876
C       -0.66004261       7.04579664      -4.17889139       0.00000000       0.00000000       0.03706162      -0.07214329      -0.00669932      -0.12370689
C        0.54732074       5.53901750      -2.57793511       0.00000000       0.00000000       0.01000046      -0.00872917       0.04422091      -0.05099223
C        1.27454245       4.39939082      -2.23934842       0.00000000       0.00000000      -0.00364011       0.01830968      -0.05102909       0.01014271
C        1.83622947       4.33183141      -0.85177087       0.00000000       0.00000000      -0.01842451      -0.00480492      -0.03572152      -0.11423902
H        4.50042826       1.15639517      -5.36437288       0.00000000       0.00000000       0.09611566      -0.03604021      -0.05759622       0.08142168
H        2.75834636       1.22527874      -5.52419006       0.00000000       0.00000000      -0.03779862       0.00510374      -0.01302304       0.06164282
H        3.48043940       0.16854786      -4.31367992       0.00000000       0.00000000       0.00730490       0.00312002      -0.01397538       0.04458465
H        3.54531201       3.24049417      -4.37060966       0.00000000       0.00000000      -0.02283610      -0.08937822      -0.00775833       0.09208612
H        4.44126197       2.31658022      -3.19119274       0.00000000       0.00000000      -0.00664818      -0.02420518      -0.01326173       0.06464026
H        4.79356779       0.63525299      -2.44130209       0.00000000       0.00000000      -0.02802414      -0.00159054       0.01956878       0.09595191
H        5.85648303      -1.23812419      -1.35334173       0.00000000       0.00000000       0.07800418      -0.00838847       0.03027890       0.09842830
H        4.55493106      -2.76964634       0.08032800       0.00000000       0.00000000      -0.01016552       0.00494681      -0.10335537       0.08849551
H        3.35135364      -3.94482990       1.28975012       0.00000000       0.00000000      -0.02569857      -0.09396339      -0.05836739       0.08557858
H        1.76219814      -5.26828623       2.61822447       0.00000000       0.00000000       0.02216277      -0.02046064       0.00300500       0.09639900
H       -0.63941100      -4.60191044       2.68379252       0.00000000       0.00000000       0.09109367      -0.05272526       0.00920656       0.08629424
H       -4.89785227      -3.13053726       1.15947947       0.00000000       0.00000000       0.05229324       0.00564304       0.03400037       0.08087785
H       -4.00855590      -1.89610289       0.25571692       0.00000000       0.00000000      -0.03913637       0.05444621       0.01985744       0.06120124
H       -4.40495793      -1.80219652       3.29092288       0.00000000       0.00000000      -0.01197976      -0.02420164       0.00414258       0.06520507
H       -5.31049264      -0.88351454       2.09058690       0.00000000       0.00000000      -0.06388921       0.04178706       0.02707360       0.06680338
H       -3.57772180      -0.60572861       2.28836790       0.00000000       0.00000000      -0.00893800       0.05268400       0.02575362       0.05291880
H       -1.52358906      -4.73649797      -0.18569570       0.00000000       0.00000000      -0.03667575       0.03214879       0.07959965       0.03403469
H       -1.52717836      -7.17353255      -0.18860746       0.00000000       0.00000000       0.03848505      -0.04579176      -0.09189431       0.05340209
H       -2.28406007      -9.24861763       0.67686004       0.00000000       0.00000000      -0.05640700      -0.03207105       0.06055592       0.06208082
H       -3.96216656      -9.19869229       1.25272567       0.00000000       0.00000000       0.04923103      -0.02111598      -0.01831429       0.07881925
H       -2.64792394      -9.21206108       2.41477442       0.00000000       0.00000000       0.00315244      -0.01862742      -0.06416837       0.07499544
H       -4.30634686      -7.18004469       3.01397198       0.00000000       0.00000000      -0.06895528      -0.01245855       0.08047836       0.07024697
H       -4.94971967      -5.34667933       4.09831245       0.00000000       0.00000000       0.05200197       0.03514659       0.02564797       0.07250842
H       -5.36770559      -4.03144287       3.02301208       0.00000000       0.00000000       0.01108822      -0.03164073       0.00191077       0.06605474
H       -3.93341397      -3.90368190       4.04491806       0.00000000       0.00000000       0.01306624       0.01723617       0.00378015       0.04928683
H        1.22283515       2.94746314      -5.29365563       0.00000000       0.00000000      -0.03144543      -0.01398711       0.04723539       0.05045618
H        0.01303894       4.98125883      -5.84614100       0.00000000       0.00000000      -0.04151987      -0.00429136       0.01538935       0.06615441
H       -0.10911302       7.60762234      -4.93273218       0.00000000       0.00000000      -0.05403309      -0.02429660       0.00111426       0.08012196
H       -0.77684096       7.67605473      -3.29965614       0.00000000       0.00000000       0.01674131      -0.05923098      -0.04728116       0.06060108
H       -1.64684146       6.82235786      -4.58377719       0.00000000       0.00000000       0.05594766       0.02263729      -0.02495893       0.06792198
H        0.38913186       6.28881807      -1.81616897       0.00000000       0.00000000       0.01881007      -0.02748573       0.03691603       0.05534455
H        2.40427279       5.24113816      -0.65805862       0.00000000       0.00000000      -0.00852515      -0.03425576       0.04221444       0.07210495
H        2.48981721       3.47522961      -0.71959838       0.00000000       0.00000000       0.00149573       0.00158967      -0.02620404       0.04178548
H        1.01244374       4.28798931      -0.13640253       0.00000000       0.00000000       0.04054319      -0.02408712       0.02919580       0.03751598
O        1.88880321       1.77386399       0.86658865       0.00000000       0.00000000       0.01589069      -0.03067003       0.05400842      -0.52173334
H        1.62821281       2.65013363       1.18197635       0.00000000       0.00000000       0.08241829      -0.00724667      -0.07491516       0.32759305
H        2.59435172       1.47557927       1.45529435       0.00000000       0.00000000       0.06078988       0.03021627       0.01739166       0.32656224
