277
Properties=species:S:1:pos:R:3:initial_charges:R:1:initial_magmoms:R:1:forces:R:3:charge:R:1 energy=-8966.364559691307 free_energy=-8966.364559691307 dipole="-0.3219409331312205 0.41083724154461143 -4.5447154558122485" pbc="F F F"
Gd      -0.05672257       0.04533903      -0.46544990       3.00000000       0.00000000      -0.00776227       0.03678261       0.02094847       0.83759861
C       -0.52605129       6.47545433      -5.50913984       0.00000000       0.00000000       0.00287511       0.00083022       0.00463358      -0.10339442
C       -2.03197793       6.67192960      -5.38600187       0.00000000       0.00000000      -0.00472471      -0.00317356      -0.04190793      -0.05973581
C       -2.52726632       6.37024910      -3.97384991       0.00000000       0.00000000       0.05012939      -0.00300485      -0.02638853      -0.05707009
C       -4.02289915       6.62047836      -3.78798706       0.00000000       0.00000000       0.01779242      -0.00373657       0.01280825      -0.06429105
C       -4.92852987       5.62124107      -4.50939795       0.00000000       0.00000000       0.00486350       0.03882679       0.02587216      -0.06878762
C       -4.77385679       4.17347547      -4.00841882       0.00000000       0.00000000      -0.03349460       0.01842259      -0.02205285      -0.06121820
C       -4.29336837       3.25190886      -5.12629353       0.00000000       0.00000000       0.06810335      -0.01192932      -0.01040160      -0.07600526
C       -3.97371658       1.82343334      -4.66716945       0.00000000       0.00000000      -0.00849973      -0.07828914      -0.04477620      -0.02260192
N       -2.63143675       1.67901950      -4.11653934       0.00000000       0.00000000      -0.05738074       0.03922953      -0.06715833      -0.04810752
C       -1.56678231       1.72605708      -5.10747696       0.00000000       0.00000000       0.00372631       0.02877472      -0.03876094      -0.06011599
C       -2.27602359       1.44682098      -2.85761847       0.00000000       0.00000000       0.00758708       0.00394155       0.06362510       0.25972005
O       -1.09063525       1.22390834      -2.54821928       0.00000000       0.00000000       0.03616555      -0.02362157      -0.05734818      -0.39158905
C       -3.32086800       1.47829033      -1.72360687       0.00000000       0.00000000      -0.00861546      -0.08922100      -0.04453238      -0.06972834
C       -2.80185975       2.47472927      -0.66644835       0.00000000       0.00000000      -0.03916873       0.01931528       0.02801215      -0.07757053
C       -2.85057641       2.05650626       0.80515314       0.00000000       0.00000000      -0.00177295       0.02740184      -0.03592530       0.06189919
O       -1.53081895       1.82135897       1.32126041       0.00000000       0.00000000      -0.08654712       0.08362812       0.04457571      -0.27370318
C       -1.41533121       2.46642069       2.60678292       0.00000000       0.00000000       0.03257023      -0.01740056       0.05264972       0.07115256
C        0.01534227       2.56322228       3.13090645       0.00000000       0.00000000       0.02330034       0.00760988      -0.03718997      -0.07356914
C        0.65956923       3.91542086       2.79092411       0.00000000       0.00000000       0.01776845       0.02986622      -0.04798352      -0.06102629
C        1.87342095       4.24976457       3.66186931       0.00000000       0.00000000       0.06555452      -0.07312999      -0.02623894      -0.06879017
C        2.60328396       5.52684299       3.20404980       0.00000000       0.00000000      -0.06325651      -0.07534107      -0.01144323      -0.06178687
C        3.92937119       5.26495916       2.49839757       0.00000000       0.00000000       0.03924981      -0.07039447       0.04440490      -0.10733330
C       -3.33870036       0.00961294      -1.31485265       0.00000000       0.00000000      -0.04287562      -0.04715741       0.04572046       0.26348001
O       -2.33690198      -0.48554267      -0.76054707       0.00000000       0.00000000      -0.01027548       0.11283790      -0.05203469      -0.36333238
N       -4.36088623      -0.75828549      -1.70167948       0.00000000       0.00000000      -0.05287971      -0.00286186       0.01620958      -0.06381561
C       -5.70463807      -0.33193518      -2.05008768       0.00000000       0.00000000       0.08527032       0.05252698      -0.00143913      -0.06990385
C       -4.11195163      -2.18838037      -1.89525505       0.00000000       0.00000000       0.00060861       0.09400594      -0.04507671      -0.00848222
C       -4.20989410      -3.10051176      -0.67227432       0.00000000       0.00000000       0.01193737       0.00802950      -0.01061679      -0.07365365
C       -5.62053921      -3.52514692      -0.27661023       0.00000000       0.00000000      -0.01843218       0.02243661      -0.02066786      -0.06234713
C       -5.63568833      -4.59616960       0.82046305       0.00000000       0.00000000      -0.00252007      -0.02118952       0.00661173      -0.06329218
C       -5.09048669      -5.97561526       0.42629497       0.00000000       0.00000000       0.02368457      -0.07127822       0.00105035      -0.06838690
C       -3.56395680      -6.12155986       0.48052079       0.00000000       0.00000000      -0.01227687      -0.00908015      -0.03531218      -0.05554009
C       -3.09264122      -7.55519547       0.74266269       0.00000000       0.00000000      -0.01534110       0.01373451      -0.00127829      -0.05766545
C       -3.36184301      -8.49186492      -0.42877155       0.00000000       0.00000000      -0.01405365      -0.00165836       0.00081601      -0.10733957
H       -0.19692737       6.67552785      -6.52457555       0.00000000       0.00000000      -0.00497879      -0.00433622      -0.00949510       0.04785879
H       -0.24958543       5.45278286      -5.25190723       0.00000000       0.00000000       0.02199155      -0.03034749       0.00384155       0.00949488
H        0.00257111       7.15481979      -4.84500722       0.00000000       0.00000000       0.01642270       0.01331240       0.02243367       0.03388590
H       -2.53479869       6.02856382      -6.10942045       0.00000000       0.00000000      -0.01534574      -0.01032283       0.00624459       0.03252827
H       -2.28099552       7.70229127      -5.63828524       0.00000000       0.00000000       0.00576717       0.01580337      -0.00372919       0.04931401
H       -1.98119989       7.01212380      -3.27853884       0.00000000       0.00000000      -0.01078597       0.00797180       0.02313322       0.02930374
H       -2.28788227       5.33322294      -3.71905971       0.00000000       0.00000000       0.02602763      -0.01334228       0.00877542       0.01091959
H       -4.25612763       7.62349884      -4.14768042       0.00000000       0.00000000      -0.00851064      -0.02147138       0.00658358       0.05151162
H       -4.25376731       6.59675744      -2.72123430       0.00000000       0.00000000      -0.01957533      -0.00373348       0.04249604       0.03311883
H       -4.72888184       5.65796183      -5.57931502       0.00000000       0.00000000       0.00821630       0.02520748      -0.01015900       0.04856182
H       -5.95642116       5.95236136      -4.37354359       0.00000000       0.00000000      -0.05208783      -0.02315021       0.01834648       0.05080231
H       -5.73255712       3.80843831      -3.64031649       0.00000000       0.00000000      -0.04340325      -0.02102560       0.04196326       0.03409939
H       -4.06849138       4.14229353      -3.17753727       0.00000000       0.00000000       0.06632759       0.01019530       0.05099261       0.02464271
H       -3.41123178       3.68927942      -5.59322380       0.00000000       0.00000000       0.02084321       0.00224382      -0.00506439       0.06075540
H       -5.07235616       3.20013091      -5.88636629       0.00000000       0.00000000      -0.01315262      -0.03018861      -0.01479940       0.06762862
H       -4.02638991       1.14877128      -5.52893136       0.00000000       0.00000000      -0.01068566       0.02708302       0.03690356       0.07328714
H       -4.71958764       1.49208229      -3.94891497       0.00000000       0.00000000      -0.00660245       0.00441292      -0.01776492       0.06152954
H       -1.97356070       2.03855486      -6.06731381       0.00000000       0.00000000       0.03897498      -0.05080877       0.09417851       0.09268972
H       -1.10054793       0.74642659      -5.21321140       0.00000000       0.00000000      -0.01125119      -0.04053599       0.00443585       0.06781147
H       -0.80123702       2.43392408      -4.79636735       0.00000000       0.00000000       0.04785653       0.03526904       0.04873936       0.07314100
H       -4.29532682       1.79939217      -2.07577144       0.00000000       0.00000000       0.03246646       0.04201021      -0.00555489       0.07460558
H       -3.37991160       3.39070855      -0.78206799       0.00000000       0.00000000      -0.03786913       0.02666030      -0.02469939       0.07037629
H       -1.75872570       2.71823437      -0.87143336       0.00000000       0.00000000       0.07417844      -0.09417081      -0.00778374       0.11377047
H       -3.47095300       1.17101306       0.95618728       0.00000000       0.00000000       0.06373673       0.00378013       0.00879310       0.06832440
H       -3.29784724       2.87325729       1.38034863       0.00000000       0.00000000      -0.09365739      -0.03198379      -0.08309929       0.06435878
H       -2.05230468       1.93144910       3.32694860       0.00000000       0.00000000       0.08730380      -0.01136654      -0.03217204       0.04125828
H       -1.81808602       3.48567151       2.51560295       0.00000000       0.00000000       0.03083308      -0.06461752       0.03050638       0.05152002
H        0.59285704       1.72033698       2.73745049       0.00000000       0.00000000      -0.09735751       0.09758962      -0.04172158       0.06208620
H       -0.00528813       2.45880006       4.21577454       0.00000000       0.00000000      -0.05963666       0.02044327       0.04154952       0.06225456
H       -0.07375348       4.71109572       2.94557671       0.00000000       0.00000000      -0.01650295      -0.05078704       0.04316725       0.04494447
H        0.92639794       3.93951627       1.73239092       0.00000000       0.00000000       0.04000489       0.02445866      -0.01763501       0.02655400
H        2.57232425       3.40945273       3.67175978       0.00000000       0.00000000      -0.00823183       0.05445275       0.00425727       0.03143594
H        1.52043072       4.38958331       4.68311098       0.00000000       0.00000000       0.00524761      -0.04727601       0.02842066       0.04912501
H        2.80637124       6.15118062       4.07069606       0.00000000       0.00000000       0.00536076       0.05118760       0.03732918       0.05575463
H        1.94902617       6.09735469       2.54234887       0.00000000       0.00000000      -0.02442773       0.02019975       0.00870308       0.03236362
H        4.64395772       4.81280915       3.18625889       0.00000000       0.00000000      -0.08216580       0.00513159      -0.06665525       0.04640695
H        4.35221081       6.20754175       2.15767976       0.00000000       0.00000000       0.00441118      -0.05905783      -0.04007906       0.04864276
H        3.80646684       4.59805312       1.64290061       0.00000000       0.00000000      -0.01866947       0.04271886       0.04260451       0.00985869
H       -5.90270291       0.70480878      -1.78290788       0.00000000       0.00000000       0.03822104      -0.11938415       0.04877506       0.07275448
H       -6.41350145      -0.95912499      -1.50850890       0.00000000       0.00000000       0.01743033       0.01342819       0.00483378       0.10214887
H       -5.88416307      -0.47135096      -3.11791814       0.00000000       0.00000000      -0.01223981       0.02062247      -0.02891765       0.07451654
H       -3.09523042      -2.25239327      -2.30123427       0.00000000       0.00000000      -0.01262137      -0.02503952       0.01316269       0.05055686
H       -4.82048072      -2.52299988      -2.65681972       0.00000000       0.00000000       0.04306582      -0.02427570       0.03763537       0.07820746
H       -3.69976313      -2.63668514       0.17092260       0.00000000       0.00000000      -0.03722207       0.01654186       0.03188599       0.05251113
H       -3.66838849      -4.00364289      -0.93885166       0.00000000       0.00000000       0.01040543      -0.02505907       0.00675006       0.06235241
H       -6.13649112      -3.92332409      -1.15349046       0.00000000       0.00000000       0.00735288       0.02914515       0.01026529       0.04439101
H       -6.18395699      -2.66005844       0.08214917       0.00000000       0.00000000      -0.01552088      -0.01685764       0.00214841       0.03016618
H       -6.67707893      -4.73045330       1.11732587       0.00000000       0.00000000      -0.00879225       0.01139397       0.00668515       0.05056998
H       -5.09717104      -4.23738593       1.70135951       0.00000000       0.00000000       0.01915037       0.02701327      -0.02183793       0.02926383
H       -5.45061918      -6.23901528      -0.56862689       0.00000000       0.00000000      -0.02187756       0.01295254      -0.00074325       0.04234971
H       -5.51369734      -6.70082138       1.12417902       0.00000000       0.00000000      -0.00101521       0.02453174      -0.00517731       0.05308135
H       -3.17675450      -5.48015262       1.27729576       0.00000000       0.00000000       0.00191498       0.00576442      -0.00612417       0.01578142
H       -3.12212860      -5.80056437      -0.46778365       0.00000000       0.00000000      -0.00282720      -0.01401332       0.04360688       0.01531007
H       -3.58408069      -7.94003087       1.63682875       0.00000000       0.00000000      -0.00492230      -0.00702566      -0.00452405       0.04486889
H       -2.01640597      -7.53743286       0.94287660       0.00000000       0.00000000      -0.02249255      -0.00848565      -0.00322896       0.02250601
H       -4.42687043      -8.57529466      -0.62457858       0.00000000       0.00000000      -0.01033928       0.00956770       0.01055000       0.04601919
H       -2.98236027      -9.48589924      -0.20944819       0.00000000       0.00000000      -0.00131656       0.00606034       0.00308141       0.04836758
H       -2.87119759      -8.13379646      -1.33364464       0.00000000       0.00000000       0.00279314      -0.00341740       0.02526031       0.02519957
C        5.74356757      -3.07668628      -5.39216986       0.00000000       0.00000000       0.00782376      -0.00322671       0.00392559      -0.10261067
C        6.52446988      -1.77465873      -5.53547874       0.00000000       0.00000000      -0.02023870      -0.03115524      -0.03986886      -0.05900093
C        6.86280135      -1.15978041      -4.17825132       0.00000000       0.00000000       0.00399744      -0.01687219      -0.02528395      -0.05648108
C        7.65671603       0.14476940      -4.27471031       0.00000000       0.00000000       0.00841144       0.03257993      -0.00755545      -0.06545115
C        6.90134465       1.30765040      -4.92485602       0.00000000       0.00000000       0.01756194      -0.02814848       0.01655998      -0.06571615
C        5.72906271       1.81112668      -4.07571820       0.00000000       0.00000000       0.00504077      -0.02797984       0.02022805      -0.05908439
C        4.74529013       2.63048356      -4.90534622       0.00000000       0.00000000       0.00521547       0.01081999       0.01266083      -0.07488415
C        3.47412534       3.02216095      -4.14185735       0.00000000       0.00000000      -0.05691636       0.00399112       0.03547072      -0.01808498
N        2.73921756       1.87631892      -3.61838193       0.00000000       0.00000000       0.04445266      -0.00514264      -0.13872801      -0.04884588
C        2.26265712       0.96963965      -4.65170222       0.00000000       0.00000000       0.00660488      -0.04452486       0.01179265      -0.06506804
C        2.47220548       1.55450644      -2.35540841       0.00000000       0.00000000      -0.02922815      -0.10725417       0.16148279       0.26282390
O        1.84039308       0.51637286      -2.07231106       0.00000000       0.00000000      -0.00104451       0.11893251       0.01633927      -0.38709673
C        2.88175907       2.49544317      -1.20959573       0.00000000       0.00000000      -0.06697915       0.03489474       0.00282942      -0.06980740
C        3.60819367       1.74190927      -0.07188214       0.00000000       0.00000000       0.01219191      -0.07976741      -0.07074486      -0.07469814
C        2.87092019       1.60125416       1.26307055       0.00000000       0.00000000       0.00317379       0.09609606       0.06358370       0.06458177
O        2.13915647       0.37162107       1.41598129       0.00000000       0.00000000       0.08316296       0.01025603       0.11787436      -0.27664228
C        2.63220841      -0.32452268       2.59082870       0.00000000       0.00000000      -0.06451567       0.13536494      -0.00054362       0.07025402
C        1.94265587      -1.65735620       2.88466280       0.00000000       0.00000000       0.12747066       0.07115581       0.10033569      -0.07623185
C        2.78194856      -2.87712885       2.48042329       0.00000000       0.00000000      -0.05915674       0.04264373      -0.05420121      -0.06304703
C        2.41137402      -4.12843463       3.28058492       0.00000000       0.00000000       0.01786714       0.01586996       0.02462390      -0.06898455
C        3.06042206      -5.39547053       2.70395534       0.00000000       0.00000000      -0.08636657      -0.03064451      -0.00887281      -0.06236195
C        2.08675356      -6.22901487       1.87450211       0.00000000       0.00000000       0.05767874       0.02585969       0.00081227      -0.10749913
C        1.51873468       3.09929736      -0.88275222       0.00000000       0.00000000      -0.08022206      -0.03240765       0.02459590       0.26392130
O        0.56384209       2.36069025      -0.56431094       0.00000000       0.00000000       0.12166567       0.08112818      -0.03761470      -0.36862938
N        1.33791154       4.39740980      -1.13591370       0.00000000       0.00000000       0.01291798       0.03000076       0.00271559      -0.06091417
C        2.38216026       5.40333384      -1.17549808       0.00000000       0.00000000       0.03974028      -0.02172855      -0.04403048      -0.07182982
C        0.00271036       4.83224419      -1.53278338       0.00000000       0.00000000      -0.01322902      -0.00469368      -0.00848423      -0.00806793
C       -0.93912925       5.28362750      -0.41687437       0.00000000       0.00000000      -0.03494628       0.03187253      -0.00134798      -0.07224062
C       -0.67860317       6.68216782       0.13385956       0.00000000       0.00000000       0.02250087      -0.02316080       0.01756082      -0.06229641
C       -1.66933138       7.07516693       1.23582472       0.00000000       0.00000000       0.02838304      -0.00943197      -0.04079639      -0.06390872
C       -3.13869098       7.21383008       0.81218597       0.00000000       0.00000000       0.03404785       0.02190965       0.01536287      -0.06896160
C       -3.98129863       5.94034624       0.93528451       0.00000000       0.00000000       0.01019952       0.01494565      -0.02433839      -0.05243106
C       -5.47159875       6.23421327       1.11802671       0.00000000       0.00000000      -0.02161976       0.02622744      -0.03172687      -0.05834038
C       -6.09738662       6.93970140      -0.07895626       0.00000000       0.00000000      -0.00544608       0.01520060      -0.02769035      -0.10828883
H        5.53565749      -3.50277250      -6.37093338       0.00000000       0.00000000       0.00822974       0.00525024       0.03144307       0.04410181
H        4.79211356      -2.90265146      -4.88539730       0.00000000       0.00000000       0.01439065      -0.01905617       0.00118368       0.00704145
H        6.31752941      -3.80287542      -4.82065708       0.00000000       0.00000000      -0.02970123      -0.00079513       0.00265247       0.04000688
H        5.93240512      -1.07793443      -6.13223563       0.00000000       0.00000000       0.01589308       0.01553054       0.01663333       0.02840146
H        7.44729188      -1.97474702      -6.08143818       0.00000000       0.00000000      -0.00669591       0.02996125       0.02784003       0.04889905
H        7.46424862      -1.87736634      -3.61659762       0.00000000       0.00000000       0.00179959      -0.01385502       0.01218662       0.03625806
H        5.93980578      -0.99886658      -3.61326729       0.00000000       0.00000000      -0.01417937       0.00253902       0.00517225       0.01082050
H        8.55822145      -0.04807996      -4.85776330       0.00000000       0.00000000      -0.00521281       0.02433503       0.01685466       0.05156677
H        7.97062886       0.44122379      -3.27149454       0.00000000       0.00000000       0.00834290      -0.00687045      -0.00706082       0.03816175
H        6.54117279       0.98905286      -5.90355394       0.00000000       0.00000000      -0.04324335       0.02123085       0.01206686       0.04223184
H        7.60053345       2.12825985      -5.09700528       0.00000000       0.00000000      -0.04118790      -0.02360519       0.03033227       0.04679620
H        6.11247252       2.41345196      -3.24965615       0.00000000       0.00000000      -0.00533692      -0.00258384       0.01816952       0.03291998
H        5.19868568       0.95956506      -3.64513436       0.00000000       0.00000000      -0.00388351      -0.03777332       0.01527102       0.02468727
H        4.47989752       2.06910414      -5.80068566       0.00000000       0.00000000      -0.01547890      -0.00764331      -0.01761526       0.05753769
H        5.22426900       3.55350773      -5.23177730       0.00000000       0.00000000       0.00897132       0.00584388      -0.02940400       0.06783010
H        2.80652812       3.54779679      -4.83313359       0.00000000       0.00000000      -0.01622423       0.03105049       0.02785936       0.06630282
H        3.73311618       3.71337664      -3.34371485       0.00000000       0.00000000       0.03343627      -0.04003421      -0.00283805       0.05966822
H        2.00508472       1.54290067      -5.53991545       0.00000000       0.00000000      -0.03582924      -0.02012312       0.01580921       0.07876233
H        1.38900170       0.43743886      -4.27566151       0.00000000       0.00000000      -0.01117447       0.02515921       0.01673220       0.08445164
H        3.03051635       0.24144555      -4.91451866       0.00000000       0.00000000       0.01886585      -0.00680637       0.01233506       0.08261684
H        3.54533616       3.27026700      -1.57368450       0.00000000       0.00000000       0.05180254      -0.00339180      -0.03122065       0.07297475
H        4.53915877       2.27831303       0.12322004       0.00000000       0.00000000      -0.05274455      -0.02165347       0.01829133       0.07353591
H        3.87778101       0.74709616      -0.42187633       0.00000000       0.00000000      -0.08965116      -0.01957076       0.03060044       0.09211140
H        2.18619457       2.44131671       1.40076043       0.00000000       0.00000000      -0.00484537      -0.07252728      -0.04194219       0.07092239
H        3.61683671       1.66618871       2.06560996       0.00000000       0.00000000      -0.04234199      -0.02302836      -0.13189498       0.05972663
H        2.49924799       0.34416470       3.45629265       0.00000000       0.00000000      -0.01698090      -0.03439931      -0.11091080       0.04295393
H        3.70889511      -0.49333645       2.46135847       0.00000000       0.00000000      -0.01817150       0.02762541      -0.00248620       0.05187347
H        0.96752205      -1.64799841       2.39577957       0.00000000       0.00000000       0.10900743       0.04540289      -0.01905713       0.07282504
H        1.78206278      -1.72547038       3.96676510       0.00000000       0.00000000      -0.01812307       0.08818382      -0.13732883       0.05962720
H        3.83407923      -2.66328649       2.67692530       0.00000000       0.00000000       0.01852853      -0.01139861      -0.00442861       0.04581078
H        2.68528049      -3.06735070       1.41030782       0.00000000       0.00000000       0.00608164       0.00067277       0.01080050       0.02886110
H        1.32583887      -4.25340074       3.31303206       0.00000000       0.00000000       0.06044003      -0.01723846       0.01027112       0.03271392
H        2.75202915      -3.98116039       4.30593292       0.00000000       0.00000000      -0.04273177      -0.00475845       0.01034515       0.04866930
H        3.42436471      -6.01970546       3.51736119       0.00000000       0.00000000       0.04147150      -0.01990459       0.01086582       0.05618930
H        3.92303238      -5.11719480       2.09637056       0.00000000       0.00000000       0.01731605       0.00203207       0.00890413       0.03426115
H        1.34418439      -6.68215857       2.52340631       0.00000000       0.00000000      -0.05896662      -0.01820488       0.00582927       0.04804203
H        2.61594703      -7.02776336       1.36096347       0.00000000       0.00000000      -0.01356330      -0.01348054       0.00801085       0.04584831
H        1.56436228      -5.62014183       1.13697209       0.00000000       0.00000000       0.01876719       0.02629924      -0.02694630       0.00901047
H        3.27340755       5.08356472      -0.63827910       0.00000000       0.00000000      -0.07887325       0.00052192      -0.02423679       0.07701671
H        2.02042679       6.30871605      -0.69051098       0.00000000       0.00000000      -0.07087869      -0.03272390       0.00723444       0.10184130
H        2.64292722       5.66699855      -2.20315424       0.00000000       0.00000000       0.01697578      -0.03878877      -0.02388627       0.07133103
H       -0.44262724       3.96610432      -2.03324203       0.00000000       0.00000000      -0.04820152       0.03930189      -0.06179407       0.05028422
H        0.12922353       5.62793822      -2.26953646       0.00000000       0.00000000      -0.00498028       0.05729722       0.04509739       0.07610562
H       -0.91359145       4.55157622       0.39048964       0.00000000       0.00000000       0.02218590       0.03179248      -0.00513693       0.05288187
H       -1.94020804       5.28178999      -0.84639782       0.00000000       0.00000000       0.01164354       0.02271933       0.01306585       0.05825052
H       -0.74067992       7.40692623      -0.68088235       0.00000000       0.00000000       0.00016561       0.00410098       0.02776907       0.04341654
H        0.32676554       6.74087642       0.56090053       0.00000000       0.00000000      -0.05749114      -0.01699418      -0.01167600       0.03096241
H       -1.33987183       8.04048807       1.62032997       0.00000000       0.00000000       0.00580044       0.01209487       0.03609885       0.05168613
H       -1.59293157       6.35675521       2.05588812       0.00000000       0.00000000      -0.01776917       0.02643789       0.01585295       0.02873107
H       -3.19167034       7.59564554      -0.20729241       0.00000000       0.00000000       0.03098265       0.01064052      -0.02067923       0.04188141
H       -3.59064264       7.96638384       1.45800921       0.00000000       0.00000000      -0.02271256       0.01143743       0.03051320       0.05484333
H       -3.64299474       5.36630593       1.80149254       0.00000000       0.00000000       0.03690189      -0.00063674       0.03235026       0.01543506
H       -3.85618303       5.31398023       0.04828701       0.00000000       0.00000000      -0.01541634      -0.01731093      -0.00835779       0.00814135
H       -5.60077641       6.85186324       2.00694960       0.00000000       0.00000000      -0.02237521       0.00811710       0.01391554       0.04574029
H       -5.99952261       5.29255687       1.29140172       0.00000000       0.00000000       0.00641700      -0.00398094       0.00590294       0.02606214
H       -5.63556292       7.90879950      -0.24655790       0.00000000       0.00000000      -0.00125888      -0.01369482       0.00460970       0.04536838
H       -7.15800920       7.10193723       0.09353725       0.00000000       0.00000000       0.01758198      -0.01513053       0.01063946       0.04868642
H       -5.99000481       6.34271914      -0.98399253       0.00000000       0.00000000       0.00781429      -0.00650833       0.01351371       0.02570681
C       -6.12721746      -3.41845096      -5.24185197       0.00000000       0.00000000      -0.00822087       0.01076883       0.00150202      -0.10253201
C       -5.41656688      -4.76273329      -5.37395360       0.00000000       0.00000000      -0.02693568       0.05973561      -0.04312418      -0.05962474
C       -4.93781812      -5.29258361      -4.02333426       0.00000000       0.00000000      -0.00940388       0.00847597      -0.01339005      -0.05837428
C       -4.19233047      -6.62552234      -4.10601101       0.00000000       0.00000000      -0.00967993      -0.01539605       0.01002154      -0.06557447
C       -2.83805483      -6.54575637      -4.81273777       0.00000000       0.00000000      -0.05323645      -0.00939607      -0.00389794      -0.06589454
C       -1.78276531      -5.74821057      -4.04448929       0.00000000       0.00000000      -0.03578927      -0.01134885       0.03893322      -0.05797196
C       -0.56310914      -5.49096546      -4.92207543       0.00000000       0.00000000       0.00336774       0.02469145      -0.00981129      -0.07538446
C        0.50892517      -4.65723905      -4.21851746       0.00000000       0.00000000       0.06510021      -0.00864131       0.02963267      -0.01918697
N        0.03649134      -3.34389371      -3.80613433       0.00000000       0.00000000      -0.02747757      -0.02010868      -0.00465986      -0.04762989
C       -0.43655404      -2.49370836      -4.88592353       0.00000000       0.00000000       0.00716077      -0.03356184      -0.00731044      -0.06360972
C       -0.03662049      -2.85521285      -2.57161242       0.00000000       0.00000000      -0.03362869       0.00335666      -0.01134387       0.26073264
O       -0.46850465      -1.70781218      -2.35086219       0.00000000       0.00000000       0.06468901       0.02842697      -0.02022160      -0.39736721
C        0.41716623      -3.68509183      -1.35544746       0.00000000       0.00000000       0.16025650       0.06182513      -0.05511866      -0.06916680
C       -0.77562771      -3.77639148      -0.39143927       0.00000000       0.00000000      -0.07266547      -0.05395102      -0.04964859      -0.07526327
C       -0.48842636      -3.37779221       1.05223229       0.00000000       0.00000000      -0.06064102       0.03972773      -0.00639445       0.06509249
O       -0.97888297      -2.05496422       1.30814010       0.00000000       0.00000000       0.02820970       0.02546732      -0.00867528      -0.27355610
C       -1.74722505      -2.00319788       2.51714367       0.00000000       0.00000000      -0.06429744      -0.01914920       0.01557359       0.06850395
C       -2.83941507      -0.94435716       2.46647752       0.00000000       0.00000000      -0.06432063       0.01172207      -0.01607403      -0.07047089
C       -4.04858131      -1.36637787       3.30667259       0.00000000       0.00000000       0.06675189      -0.00453624      -0.05656995      -0.06732925
C       -5.07801262      -0.25081982       3.51445866       0.00000000       0.00000000      -0.04023349       0.01407705      -0.00288306      -0.06801006
C       -6.23764360      -0.21822007       2.50257690       0.00000000       0.00000000       0.03656306       0.05413958      -0.05234810      -0.06247719
C       -6.16809132       0.93365917       1.50001424       0.00000000       0.00000000      -0.01318323      -0.03923030       0.03420103      -0.10655409
C        1.59547207      -2.81473492      -0.92602142       0.00000000       0.00000000      -0.02863267      -0.02910969      -0.03343195       0.26896656
O        1.39667141      -1.68969915      -0.43876708       0.00000000       0.00000000      -0.01188051       0.02915897      -0.00477602      -0.34896753
N        2.81809475      -3.20225777      -1.29984148       0.00000000       0.00000000       0.11493044      -0.01487916      -0.06858454      -0.06992970
C        3.25073647      -4.57549439      -1.48270239       0.00000000       0.00000000      -0.03064422       0.02644451      -0.03337637      -0.07278018
C        3.76219826      -2.15738162      -1.68570503       0.00000000       0.00000000       0.01321617       0.03820581      -0.00654786      -0.01078169
C        4.71001445      -1.64110692      -0.60315629       0.00000000       0.00000000      -0.01710525      -0.03739232      -0.06383102      -0.06954937
C        5.86650044      -2.55943604      -0.22134577       0.00000000       0.00000000      -0.05534114      -0.01161385      -0.02887375      -0.06329936
C        6.79385935      -1.90981626       0.81164597       0.00000000       0.00000000      -0.05136713      -0.03302259      -0.02932091      -0.06357109
C        7.65652178      -0.74746090       0.30704389       0.00000000       0.00000000      -0.00263606       0.02705725      -0.00716113      -0.06851369
C        6.97150000       0.62399244       0.30363738       0.00000000       0.00000000       0.00865358       0.04411691      -0.00967358      -0.05689961
C        7.95827278       1.77800216       0.50018116       0.00000000       0.00000000       0.03218762      -0.00655920      -0.02274242      -0.05695811
C        8.92641531       1.91691961      -0.66807072       0.00000000       0.00000000       0.01610853      -0.00305293      -0.00802544      -0.10798473
H       -6.51856106      -3.10193415      -6.20631470       0.00000000       0.00000000       0.01349693      -0.01668309       0.04142290       0.04635736
H       -5.43695766      -2.64842548      -4.88838604       0.00000000       0.00000000      -0.03679911      -0.03341037      -0.00254537       0.00631504
H       -6.96170855      -3.49092970      -4.54590589       0.00000000       0.00000000       0.03743481       0.01031297      -0.02027757       0.03790133
H       -4.57449503      -4.64143856      -6.05748064       0.00000000       0.00000000       0.01374858      -0.03208608       0.00940387       0.03033755
H       -6.10324601      -5.48140568      -5.82175079       0.00000000       0.00000000       0.02116100      -0.02354939       0.02828312       0.04938588
H       -5.81133657      -5.42668574      -3.38200810       0.00000000       0.00000000       0.00488686      -0.00933984       0.01983984       0.03564744
H       -4.29186630      -4.54992614      -3.54885795       0.00000000       0.00000000      -0.01806323       0.03488540       0.00740191       0.01345863
H       -4.81798473      -7.34364321      -4.63711234       0.00000000       0.00000000       0.01030403       0.00927768      -0.00748054       0.05176371
H       -4.04460807      -7.00941388      -3.09467948       0.00000000       0.00000000       0.00523781      -0.00076711       0.01210451       0.03819915
H       -2.97789941      -6.09980819      -5.79757111       0.00000000       0.00000000       0.01205179       0.00382749      -0.01965502       0.04241191
H       -2.46689741      -7.55903464      -4.96967548       0.00000000       0.00000000       0.01051022      -0.00107544       0.00736201       0.04705024
H       -1.48113874      -6.29895167      -3.15015639       0.00000000       0.00000000      -0.03063818      -0.02332818      -0.00117384       0.03018537
H       -2.19906600      -4.79332331      -3.71585356       0.00000000       0.00000000      -0.02456055       0.02036075      -0.01488611       0.02188834
H       -0.87456254      -5.00564290      -5.84546964       0.00000000       0.00000000      -0.00344885       0.02762157      -0.04002218       0.05778462
H       -0.11193124      -6.44358100      -5.19644445       0.00000000       0.00000000       0.03104392      -0.02893881      -0.01795936       0.06938184
H        1.35793383      -4.51354632      -4.89608393       0.00000000       0.00000000      -0.02597186       0.02597018      -0.00382170       0.06830965
H        0.85725191      -5.21610182      -3.35302663       0.00000000       0.00000000       0.01999576       0.00286203      -0.05053208       0.06254001
H        0.22781732      -2.58011965      -5.74265327       0.00000000       0.00000000       0.03302948      -0.01823860      -0.00484723       0.08034168
H       -0.45165622      -1.46877412      -4.52300752       0.00000000       0.00000000       0.00988863       0.05906640      -0.02124667       0.07836498
H       -1.44549189      -2.77590960      -5.18815586       0.00000000       0.00000000       0.00236292      -0.02056553      -0.00159160       0.08115282
H        0.76173996      -4.67881372      -1.61522151       0.00000000       0.00000000      -0.01654037      -0.02637196      -0.00596571       0.07300948
H       -1.15235975      -4.80124256      -0.41409408       0.00000000       0.00000000       0.04278125       0.07232906      -0.00391923       0.07489422
H       -1.57275194      -3.11419807      -0.74115506       0.00000000       0.00000000       0.07953253      -0.01105596       0.05811378       0.10115313
H        0.57649988      -3.41636099       1.26976952       0.00000000       0.00000000       0.10248952      -0.06674570      -0.00437091       0.07091959
H       -0.98909067      -4.08062258       1.72320359       0.00000000       0.00000000      -0.01701997      -0.04419764      -0.02700775       0.06133953
H       -2.22370281      -2.97611380       2.66613946       0.00000000       0.00000000      -0.06535723      -0.06150914       0.02603615       0.05194389
H       -1.08289524      -1.82025418       3.36728981       0.00000000       0.00000000       0.05048629      -0.02150339       0.09983861       0.04418135
H       -3.13218787      -0.79868956       1.42517320       0.00000000       0.00000000       0.01997763      -0.06322375       0.03534901       0.06054590
H       -2.44458104      -0.01270708       2.86320814       0.00000000       0.00000000      -0.00823526       0.03898092      -0.06927470       0.04972003
H       -3.67795144      -1.69324306       4.27680511       0.00000000       0.00000000       0.03072237       0.03908689       0.11904988       0.04383683
H       -4.53332530      -2.22891158       2.85035391       0.00000000       0.00000000      -0.03095136      -0.04095073      -0.04057217       0.04563965
H       -4.56608367       0.71354433       3.51278051       0.00000000       0.00000000      -0.03720018       0.00698454       0.05606926       0.03369238
H       -5.50182281      -0.38648240       4.50755026       0.00000000       0.00000000      -0.03321082       0.03118007       0.03055756       0.05556735
H       -7.17056269      -0.11590864       3.05284642       0.00000000       0.00000000      -0.04745176      -0.01443552       0.02053097       0.05359791
H       -6.28634437      -1.16464999       1.95954056       0.00000000       0.00000000      -0.01402779       0.02239985       0.04431538       0.03616624
H       -5.40446211       0.75723689       0.74371542       0.00000000       0.00000000      -0.02138941      -0.00212489       0.02697608       0.00862650
H       -7.12487742       1.04329112       0.99515603       0.00000000       0.00000000       0.00655074      -0.01900748      -0.01243816       0.04531977
H       -5.95180396       1.87217010       2.00930633       0.00000000       0.00000000      -0.02492733      -0.06841860      -0.04228068       0.03869693
H        4.31806217      -4.62309635      -1.27351526       0.00000000       0.00000000      -0.03374962       0.00499170      -0.02039114       0.10172690
H        3.09316753      -4.92517464      -2.50465711       0.00000000       0.00000000       0.00087432       0.01033878      -0.04462984       0.06503579
H        2.74827739      -5.24285734      -0.78428752       0.00000000       0.00000000      -0.01516846       0.04265738      -0.03043256       0.07995164
H        3.14792408      -1.31055449      -2.01875466       0.00000000       0.00000000       0.04803925      -0.07369137      -0.01099119       0.06777306
H        4.32750708      -2.54375691      -2.53994653       0.00000000       0.00000000       0.03186174      -0.00521112       0.08812731       0.06865924
H        4.12079864      -1.38985589       0.27957116       0.00000000       0.00000000       0.02282198      -0.03100875      -0.01250242       0.05367781
H        5.14455536      -0.72745426      -1.00859601       0.00000000       0.00000000       0.03188249      -0.03159599       0.03728281       0.05437958
H        6.43968619      -2.80358537      -1.11867343       0.00000000       0.00000000       0.01926188      -0.01770333       0.03799880       0.04400964
H        5.48453714      -3.49307735       0.20245717       0.00000000       0.00000000       0.02223019       0.08433265       0.01377899       0.03220792
H        7.46392343      -2.68803123       1.17288577       0.00000000       0.00000000       0.05486363      -0.04808587       0.02881407       0.05093095
H        6.19837328      -1.57437579       1.66484955       0.00000000       0.00000000       0.02376508      -0.01145694       0.01810104       0.02819882
H        8.03218464      -0.97385571      -0.69053964       0.00000000       0.00000000      -0.00852436      -0.04566426      -0.01620254       0.04301921
H        8.52161542      -0.68052653       0.96608413       0.00000000       0.00000000       0.02960175       0.00090815       0.04377812       0.05372109
H        6.23477765       0.66054725       1.11076903       0.00000000       0.00000000       0.00509709      -0.02375431       0.01610078       0.01590232
H        6.44874172       0.78976760      -0.64305900       0.00000000       0.00000000       0.01640807      -0.01418389       0.02266543       0.01549679
H        8.52192685       1.61839725       1.42048193       0.00000000       0.00000000      -0.00759957       0.01048695      -0.00562211       0.04383494
H        7.39887355       2.71178387       0.61669633       0.00000000       0.00000000       0.00432936      -0.02550989      -0.00945189       0.02027347
H        9.55779457       1.03653601      -0.75120483       0.00000000       0.00000000      -0.00507683       0.01860543      -0.00924443       0.04614908
H        9.57086085       2.78086557      -0.53019783       0.00000000       0.00000000      -0.01423096      -0.01063933       0.01650667       0.04762299
H        8.38320047       2.04328384      -1.60403496       0.00000000       0.00000000       0.01622145       0.01659353       0.01495315       0.02713528
