358
Properties=species:S:1:pos:R:3:initial_charges:R:1:initial_magmoms:R:1:forces:R:3:charge:R:1 energy=-11290.196882723714 free_energy=-11290.196882723714 dipole="0.5563518719855484 -2.020305198210139 -0.2260009038865666" pbc="F F F"
Gd       0.07602252       0.08174287      -0.24555659       3.00000000       0.00000000      -0.01491845      -0.00357639       0.03776240       0.84131767
C        8.94295745      -2.57860330       4.74454655       0.00000000       0.00000000       0.01751324       0.04046964       0.01496631      -0.10774121
C        8.21434577      -3.85618960       4.34998861       0.00000000       0.00000000       0.03395536       0.01130907       0.00723184      -0.05845903
C        6.72966879      -3.78340338       4.69721148       0.00000000       0.00000000       0.01150665       0.01296891       0.02365035      -0.05762830
C        5.97977839      -5.08700375       4.41907837       0.00000000       0.00000000       0.02448146       0.01811218       0.04533263      -0.06483092
C        5.95844564      -5.49981518       2.94683314       0.00000000       0.00000000       0.03052845      -0.01437077       0.07006337      -0.06746279
C        5.30614257      -4.48889890       2.00392423       0.00000000       0.00000000       0.04339100      -0.04031871      -0.00085802      -0.06367394
C        3.78376819      -4.41612824       2.16576055       0.00000000       0.00000000       0.03007367      -0.00379056      -0.00346155      -0.07153027
C        3.25596462      -3.33441164       3.12578164       0.00000000       0.00000000       0.03569546      -0.04728561       0.01292214      -0.02896681
N        3.10728259      -2.03326641       2.48157703       0.00000000       0.00000000      -0.08267375      -0.00867119      -0.00624072      -0.04957106
C        4.11964940      -1.01608585       2.74999722       0.00000000       0.00000000      -0.01355535      -0.04415775      -0.03385776      -0.00970644
C        3.83908366      -0.21069459       4.02780179       0.00000000       0.00000000      -0.03492301      -0.06197243      -0.02400861      -0.06416681
C        4.86238647       0.91338797       4.28231348       0.00000000       0.00000000      -0.02893808      -0.01410334      -0.01749791      -0.01450712
C        6.28316930       0.35121470       4.24144801       0.00000000       0.00000000       0.05619108      -0.00018196      -0.00224206      -0.12065594
C        4.68552140       1.62893668       5.63889637       0.00000000       0.00000000      -0.02486011      -0.00618475       0.00099684      -0.08548588
C        3.55860093       2.66619361       5.84186389       0.00000000       0.00000000      -0.02064999       0.02015221       0.03001109       0.02821833
C        2.21084842       2.00421585       6.12538023       0.00000000       0.00000000      -0.01931645      -0.03078497       0.02216020      -0.11351199
C        3.92650119       3.52304434       7.05694087       0.00000000       0.00000000       0.02949246       0.01453705       0.04335863      -0.12173310
C        3.40698578       3.58743427       4.63257351       0.00000000       0.00000000       0.00502739       0.01137129      -0.01525270      -0.11082764
C        2.14519015      -1.78518729       1.61402853       0.00000000       0.00000000      -0.07977848      -0.01932451      -0.04828593       0.24812000
O        2.02283688      -0.69529408       1.00346340       0.00000000       0.00000000      -0.08023027      -0.00386555       0.00750683      -0.40814002
C        1.09095261      -2.85267409       1.32175160       0.00000000       0.00000000      -0.05597817      -0.07840823      -0.09015061       0.04184545
O        0.54833783      -2.61543898       0.02807848       0.00000000       0.00000000       0.06503771       0.02200565      -0.06528873      -0.24427386
C        1.19882883      -3.28753829      -1.03358982       0.00000000       0.00000000       0.02595147      -0.06060712      -0.00130616       0.05345679
C        0.79028482      -2.58689312      -2.33551620       0.00000000       0.00000000       0.02801655      -0.13327910      -0.02647345       0.25828253
O        0.76489773      -1.33879210      -2.30658226       0.00000000       0.00000000      -0.05911251      -0.12206512       0.04237127      -0.37975567
N        0.61422371      -3.32683352      -3.43216216       0.00000000       0.00000000      -0.10621388      -0.03270718       0.04626731      -0.07117465
C        1.10401765      -2.84456281      -4.72411154       0.00000000       0.00000000      -0.00439421      -0.03804329       0.03863838      -0.01688584
C        0.15197554      -1.92481225      -5.46594023       0.00000000       0.00000000      -0.08117426       0.02958163       0.04149588      -0.07223361
C        0.71917955      -1.46034203      -6.80617851       0.00000000       0.00000000      -0.05423247      -0.02730978       0.00514263      -0.06755089
C        0.59503896      -2.47818845      -7.93815403       0.00000000       0.00000000       0.05426797      -0.01075751      -0.04834223      -0.06781969
C        1.81611426      -3.37972833      -8.09897433       0.00000000       0.00000000       0.04522636      -0.08636322      -0.06364576      -0.05856143
C        1.88157144      -3.98731647      -9.50100835       0.00000000       0.00000000      -0.03209021      -0.05129795      -0.06251577      -0.06369596
C        0.61176539      -4.73488129      -9.90947833       0.00000000       0.00000000      -0.02305055      -0.04994921       0.00057823      -0.05867177
C        0.26201780      -5.87315269      -8.95831573       0.00000000       0.00000000      -0.00493752      -0.04095280       0.01016705      -0.10300103
C        0.17740382      -4.72912820      -3.38935269       0.00000000       0.00000000       0.00797476      -0.00650085       0.01623055      -0.01528687
C       -0.62697049      -5.21343677      -4.61519479       0.00000000       0.00000000      -0.03997408       0.01272841       0.04596756      -0.08288876
C       -2.16019462      -5.29706909      -4.45259087       0.00000000       0.00000000      -0.04358925      -0.01351733      -0.03533772      -0.01529456
C       -2.68635910      -6.29378896      -5.48721579       0.00000000       0.00000000       0.00367720      -0.03245992      -0.00329305      -0.11806312
C       -2.79816204      -3.90323802      -4.59344691       0.00000000       0.00000000       0.00826497      -0.01399198      -0.00846896      -0.06409587
C       -4.33851887      -3.77982173      -4.49408045       0.00000000       0.00000000       0.00281715      -0.03417905      -0.02832079       0.02928272
C       -5.02606606      -4.05982775      -5.83223443       0.00000000       0.00000000      -0.01749169      -0.02498488      -0.05685124      -0.12090299
C       -4.88240970      -4.69244262      -3.39908541       0.00000000       0.00000000      -0.02488762      -0.03589700       0.00685222      -0.11345684
C       -4.70436077      -2.32597856      -4.15414110       0.00000000       0.00000000       0.00247417      -0.01295989      -0.02405663      -0.11466785
H       10.00169743      -2.65604802       4.51467294       0.00000000       0.00000000      -0.00608640      -0.01371141       0.00340135       0.04751964
H        8.83942653      -2.39265469       5.81072861       0.00000000       0.00000000       0.01403181      -0.00305846       0.01360592       0.03996045
H        8.54073902      -1.72135190       4.20760718       0.00000000       0.00000000       0.00949141       0.01138934      -0.01172918       0.02553250
H        8.66256361      -4.70175005       4.87051882       0.00000000       0.00000000       0.00793578      -0.02736908       0.02731533       0.04385614
H        8.34239881      -4.02063615       3.27946295       0.00000000       0.00000000      -0.00735460       0.00150172      -0.02616137       0.03143268
H        6.28141268      -2.95281567       4.14521691       0.00000000       0.00000000      -0.01440981       0.00785296       0.01940170       0.01119294
H        6.63299714      -3.54963586       5.75969689       0.00000000       0.00000000      -0.00261967      -0.01993464       0.02228805       0.03525179
H        4.95667351      -5.01107803       4.79993897       0.00000000       0.00000000       0.02641309      -0.01328297      -0.02181638       0.02179859
H        6.47249364      -5.88068149       4.98270195       0.00000000       0.00000000      -0.03297425      -0.01745621      -0.00904904       0.05088793
H        5.42855366      -6.45084020       2.86002478       0.00000000       0.00000000       0.00770442      -0.00373964      -0.00319934       0.03867264
H        6.98124502      -5.67948924       2.61737139       0.00000000       0.00000000       0.00501212       0.03756109      -0.00912417       0.05379305
H        5.51733740      -4.80867732       0.98339424       0.00000000       0.00000000       0.03754060      -0.02965093      -0.04867825       0.04094656
H        5.76540118      -3.50974719       2.12824748       0.00000000       0.00000000      -0.01393612       0.00160019      -0.01529753       0.04140588
H        3.44371107      -5.38958190       2.52160856       0.00000000       0.00000000      -0.04167210       0.04347517       0.00563432       0.07303080
H        3.35090005      -4.25774340       1.17625681       0.00000000       0.00000000       0.04234178      -0.00475799       0.01127168       0.02116322
H        3.94558893      -3.20855504       3.95565488       0.00000000       0.00000000       0.09460223      -0.00054547       0.00981265       0.10395124
H        2.29929612      -3.64208049       3.55614857       0.00000000       0.00000000      -0.01839470       0.04044275      -0.07979113       0.06182824
H        4.14502231      -0.36052186       1.87579726       0.00000000       0.00000000       0.07155978       0.05843772       0.03512415       0.06075618
H        5.06501782      -1.54617073       2.83504184       0.00000000       0.00000000       0.09314324       0.08057694       0.00409097       0.08265032
H        3.83512037      -0.89119806       4.88074456       0.00000000       0.00000000       0.04173283       0.02408820       0.03861204       0.05568284
H        2.83735242       0.21200843       3.93387771       0.00000000       0.00000000       0.00316830       0.01709771       0.03376922       0.02325130
H        4.77562217       1.65441157       3.48184005       0.00000000       0.00000000       0.01442771      -0.01219439      -0.04742846       0.02616299
H        6.41150095      -0.42892105       4.98635613       0.00000000       0.00000000      -0.01573913      -0.01679801       0.01530395       0.05453715
H        6.99683372       1.13794903       4.45752665       0.00000000       0.00000000       0.07198068       0.04746523       0.03366116       0.05600590
H        6.53578374      -0.04580562       3.26274925       0.00000000       0.00000000       0.00377918      -0.01415004      -0.03927456       0.03025485
H        5.61809700       2.16549665       5.81809469       0.00000000       0.00000000       0.01531730      -0.01435526      -0.01748503       0.06169562
H        4.60325327       0.87907344       6.42708259       0.00000000       0.00000000      -0.01625507      -0.03767561      -0.01838902       0.04872665
H        2.26567442       1.37587242       7.00900804       0.00000000       0.00000000       0.02977265      -0.01136629       0.01973259       0.04842872
H        1.89097207       1.39251106       5.28864481       0.00000000       0.00000000      -0.00512947      -0.01960647       0.01537856       0.01167591
H        1.45493596       2.76752421       6.30105211       0.00000000       0.00000000       0.02487120      -0.02194571       0.03764896       0.03392247
H        4.08554898       2.90188171       7.93349585       0.00000000       0.00000000       0.00545507      -0.01931523       0.01232224       0.04908892
H        3.13265311       4.23078907       7.28398485       0.00000000       0.00000000      -0.00171867      -0.01854450      -0.01375243       0.04710106
H        4.83483673       4.08885204       6.87059946       0.00000000       0.00000000       0.02382888       0.00007505       0.00285601       0.04835877
H        3.12576642       3.00887972       3.75834557       0.00000000       0.00000000      -0.00899048       0.02255237      -0.00882936       0.00957952
H        4.33605638       4.11298531       4.42776248       0.00000000       0.00000000       0.00626939      -0.01148988       0.03321206       0.04889426
H        2.62969657       4.32645187       4.82129334       0.00000000       0.00000000       0.05747619       0.02386672       0.02893988       0.03638271
H        0.25145325      -2.71933461       2.01602102       0.00000000       0.00000000       0.01632796       0.05471520       0.04768724       0.11484315
H        1.45716479      -3.87627418       1.38981023       0.00000000       0.00000000      -0.00773582      -0.02680234       0.03223878       0.08079705
H        0.99701055      -4.36328030      -1.01155698       0.00000000       0.00000000      -0.08699357      -0.00273557       0.03102417       0.06409136
H        2.29256132      -3.14273292      -0.98065177       0.00000000       0.00000000      -0.03341292      -0.00171100      -0.00328639       0.07358875
H        1.34943655      -3.72624964      -5.31039603       0.00000000       0.00000000       0.04093512       0.01142209      -0.06356261       0.08647009
H        2.02588241      -2.30158636      -4.53713429       0.00000000       0.00000000       0.04819740       0.02867947       0.01570014       0.07533581
H       -0.02350502      -1.07462478      -4.81213981       0.00000000       0.00000000       0.01609705       0.15592000       0.01568450       0.03646575
H       -0.80501273      -2.41152476      -5.63406738       0.00000000       0.00000000      -0.03480977      -0.04958631      -0.04758345       0.04848951
H        1.76972614      -1.19588956      -6.68372782       0.00000000       0.00000000       0.00339015       0.01479001      -0.06650684       0.04385094
H        0.18000588      -0.56336415      -7.10990868       0.00000000       0.00000000      -0.05883782      -0.01846627      -0.03709378       0.03839396
H        0.47133608      -1.92280094      -8.86697281       0.00000000       0.00000000      -0.00451369      -0.00462202      -0.07418889       0.05179465
H       -0.30067491      -3.08576176      -7.79938473       0.00000000       0.00000000       0.00845225       0.05621611      -0.02032086       0.03853594
H        1.80417291      -4.18171167      -7.35983039       0.00000000       0.00000000       0.02510574      -0.02491726       0.00828330       0.02417626
H        2.72805784      -2.79870108      -7.94003918       0.00000000       0.00000000      -0.02562578       0.00559419       0.00635233       0.02783633
H        2.72772407      -4.67612393      -9.55167678       0.00000000       0.00000000      -0.00863402       0.03540434       0.01976962       0.04187823
H        2.06110126      -3.18812893     -10.22354927       0.00000000       0.00000000       0.01356027      -0.01926313       0.01312512       0.03818495
H        0.76522914      -5.14747992     -10.90724804       0.00000000       0.00000000       0.01303027      -0.00223386       0.00497525       0.04515562
H       -0.22907726      -4.04152344      -9.97506000       0.00000000       0.00000000       0.02133016      -0.00856959      -0.00846164       0.03133451
H        1.10789376      -6.54839153      -8.85348619       0.00000000       0.00000000      -0.01460577      -0.02152872      -0.00086519       0.03946141
H       -0.58200823      -6.43863334      -9.34428234       0.00000000       0.00000000       0.00853788      -0.01368218      -0.00233496       0.04031722
H       -0.00584908      -5.50247598      -7.96968171       0.00000000       0.00000000      -0.00771536      -0.01347016      -0.03050076       0.01820745
H       -0.45123331      -4.87087998      -2.50709307       0.00000000       0.00000000       0.07939659       0.01522875       0.02184512       0.05581793
H        1.06658851      -5.36112331      -3.29726003       0.00000000       0.00000000       0.00448060      -0.01988525       0.02086177       0.05958703
H       -0.27091222      -6.22213343      -4.83178886       0.00000000       0.00000000      -0.01597945       0.04928826      -0.02159652       0.06799594
H       -0.42279555      -4.60462833      -5.49118605       0.00000000       0.00000000       0.02906097      -0.09405906      -0.01794382       0.07040920
H       -2.38005617      -5.68901267      -3.45302878       0.00000000       0.00000000       0.01126374      -0.00723714      -0.03966033       0.03140429
H       -2.62140531      -5.89032530      -6.49564010       0.00000000       0.00000000       0.05196027      -0.00267237       0.06597460       0.05200972
H       -3.71948776      -6.56107875      -5.29011535       0.00000000       0.00000000       0.03967725       0.01871004      -0.01958671       0.05510178
H       -2.10991342      -7.21453227      -5.44792226       0.00000000       0.00000000       0.02241242      -0.00901549      -0.02401957       0.04597065
H       -2.50894516      -3.48513345      -5.56048723       0.00000000       0.00000000       0.00539334      -0.04122176      -0.00556741       0.03475902
H       -2.35019705      -3.27989106      -3.80969844       0.00000000       0.00000000      -0.02133603       0.02077219      -0.00137290       0.00217114
H       -4.94659341      -5.08972151      -6.15192019       0.00000000       0.00000000       0.02893460      -0.05514532       0.02510536       0.05470723
H       -4.60402266      -3.42713603      -6.60928938       0.00000000       0.00000000       0.00705017      -0.00815482      -0.03795790       0.03878657
H       -6.08294801      -3.81954131      -5.75372549       0.00000000       0.00000000      -0.02897244      -0.04103293       0.00038427       0.04946137
H       -4.73768023      -5.74221930      -3.62576842       0.00000000       0.00000000       0.00643219      -0.01941241      -0.07747453       0.04865378
H       -5.94879080      -4.53015056      -3.29115839       0.00000000       0.00000000      -0.03860566      -0.01199851      -0.02894252       0.05113570
H       -4.39754592      -4.48359074      -2.44625109       0.00000000       0.00000000      -0.00774676       0.00014105      -0.00850979       0.01683460
H       -4.27107736      -1.64311462      -4.88293054       0.00000000       0.00000000      -0.00421375      -0.01603003      -0.02315090       0.02307281
H       -4.36814743      -2.04411331      -3.16365829       0.00000000       0.00000000       0.02177235      -0.00980374      -0.02769675       0.01255200
H       -5.78335549      -2.20062300      -4.17691500       0.00000000       0.00000000       0.00041662      -0.01644715      -0.04160769       0.06018583
C       -9.65052780      -2.76093449      -4.94676284       0.00000000       0.00000000      -0.02018556      -0.03009134      -0.03630543      -0.10641022
C       -9.13548901      -1.78810252      -3.89543522       0.00000000       0.00000000      -0.01103123      -0.00163838      -0.01902792      -0.05410688
C       -8.58224303      -2.53841404      -2.68858671       0.00000000       0.00000000       0.01664209       0.01297594       0.03126155      -0.06217397
C       -7.95473667      -1.61264323      -1.65110364       0.00000000       0.00000000       0.01436770      -0.01657829       0.03956509      -0.05965847
C       -7.45983685      -2.36496915      -0.41066571       0.00000000       0.00000000       0.01875075      -0.00872392      -0.02989818      -0.07166918
C       -6.24197124      -3.23701535      -0.72383690       0.00000000       0.00000000      -0.02087505      -0.03442122       0.03870597      -0.07332349
C       -5.59699175      -3.94524694       0.47465013       0.00000000       0.00000000       0.00361903       0.00320320       0.02091920      -0.07777090
C       -4.58502454      -3.13848542       1.29851177       0.00000000       0.00000000      -0.06862256      -0.01310471       0.00802422      -0.01431840
N       -3.17814138      -3.18599009       0.91166507       0.00000000       0.00000000      -0.04324055       0.00172939       0.04883970      -0.11206617
C       -2.40201387      -4.41420161       1.06127556       0.00000000       0.00000000      -0.01989579       0.00385135       0.01626514      -0.00077507
C       -2.26315748      -5.06515289       2.43639289       0.00000000       0.00000000      -0.02623674       0.06440831       0.01790989      -0.07015231
C       -2.11726265      -6.59570914       2.32132153       0.00000000       0.00000000       0.02173860       0.02642175      -0.02720485      -0.02107405
C       -3.41353250      -7.23439602       1.82412019       0.00000000       0.00000000      -0.04221805      -0.02784670      -0.00590118      -0.11591023
C       -0.93289384      -7.00951913       1.42708591       0.00000000       0.00000000       0.08067746      -0.02678738      -0.01727858      -0.07740290
C        0.32501706      -7.51919114       2.15491130       0.00000000       0.00000000       0.07625340      -0.03143592       0.04812110       0.02803307
C        0.04558920      -8.87009873       2.81052577       0.00000000       0.00000000      -0.00950910      -0.05423767       0.02401100      -0.11964608
C        1.43662680      -7.69864873       1.11244659       0.00000000       0.00000000       0.00810824       0.00075014      -0.02258060      -0.11163414
C        0.79411499      -6.52057462       3.21400635       0.00000000       0.00000000       0.02024778       0.04933658       0.05658108      -0.10690038
C       -2.56326924      -2.10795489       0.38344718       0.00000000       0.00000000       0.03823618      -0.03033410       0.04242435       0.27337164
O       -1.48572599      -1.67010277       0.80038990       0.00000000       0.00000000       0.01490334       0.11620122      -0.01507508      -0.34303414
C       -3.11872850      -1.56782048      -0.93325782       0.00000000       0.00000000       0.02168373      -0.04546003      -0.14173136       0.04300622
O       -2.09770387      -0.72837709      -1.44747835       0.00000000       0.00000000      -0.00695837       0.10035332       0.05778284      -0.23582965
C       -2.18033953      -0.39315437      -2.82916550       0.00000000       0.00000000      -0.00751186      -0.00627034       0.03426466       0.04253577
C       -1.14571006       0.72763454      -2.97796859       0.00000000       0.00000000      -0.11800630      -0.05336685       0.00521983       0.27083480
O       -0.66989717       1.17402635      -1.91506319       0.00000000       0.00000000      -0.00202697       0.07192088      -0.04027231      -0.37524428
N       -0.74973803       1.15122597      -4.16409595       0.00000000       0.00000000      -0.06780813       0.00838189      -0.03971592      -0.04877753
C       -1.57148999       1.06139897      -5.36273809       0.00000000       0.00000000      -0.05140171       0.04401385      -0.01656667      -0.02527682
C       -2.59300868       2.20852849      -5.48252378       0.00000000       0.00000000      -0.09341343      -0.05990259       0.01953533      -0.07745437
C       -3.98882147       1.85515539      -4.95335075       0.00000000       0.00000000      -0.03777084       0.06351863       0.08854193      -0.07139883
C       -4.19779017       2.20837638      -3.47672543       0.00000000       0.00000000      -0.02457946       0.07598786       0.08261531      -0.06313559
C       -4.52439970       3.68055233      -3.23362421       0.00000000       0.00000000      -0.02155741       0.04647973      -0.01239689      -0.06403172
C       -4.68171175       3.94206509      -1.73539612       0.00000000       0.00000000       0.00943132      -0.05426338      -0.03682149      -0.05643496
C       -4.90544882       5.41061329      -1.37886925       0.00000000       0.00000000      -0.02413080      -0.05596815      -0.00825941      -0.05785065
C       -3.66782299       6.26923943      -1.59929104       0.00000000       0.00000000       0.00172844       0.02262406       0.00334245      -0.10633017
C        0.43421836       2.01533475      -4.21592535       0.00000000       0.00000000      -0.05579622      -0.04068981       0.00037556      -0.02798545
C        1.41697478       1.59506474      -5.31537396       0.00000000       0.00000000      -0.02431488       0.06123326       0.01315231      -0.08891495
C        2.88775623       1.44038488      -4.87888160       0.00000000       0.00000000       0.03023246      -0.05660658       0.02937357      -0.01605309
C        3.74843540       1.58811617      -6.13170357       0.00000000       0.00000000       0.00921656       0.01662073      -0.05238270      -0.12276415
C        3.04288420       0.06232182      -4.21953853       0.00000000       0.00000000       0.04807888      -0.12782507       0.02792646      -0.08535006
C        4.23355626      -0.29507657      -3.29539157       0.00000000       0.00000000       0.05208534      -0.01894122       0.05113802       0.02895214
C        5.56846372       0.31487481      -3.72400907       0.00000000       0.00000000       0.02496223       0.00917636      -0.00104206      -0.11794619
C        4.39659572      -1.82394029      -3.32202034       0.00000000       0.00000000       0.00532358       0.01081040       0.00391045      -0.11041680
C        3.96700657       0.11594083      -1.84049079       0.00000000       0.00000000      -0.01919855       0.00660016       0.04717017      -0.10806358
H      -10.06059830      -2.22882632      -5.79981327       0.00000000       0.00000000      -0.00290063       0.01472057      -0.00950890       0.04483144
H      -10.43167319      -3.38990338      -4.52833661       0.00000000       0.00000000      -0.02502299       0.00735072      -0.00469917       0.04422198
H       -8.85040700      -3.40985923      -5.29883721       0.00000000       0.00000000       0.00954610       0.00883997      -0.01846926       0.02832145
H       -9.94830887      -1.13536377      -3.57688741       0.00000000       0.00000000      -0.01578043       0.02201439       0.01453457       0.03832543
H       -8.35720071      -1.15438954      -4.32893097       0.00000000       0.00000000       0.03146407      -0.00281622      -0.00756303       0.02082270
H       -7.84092726      -3.26061193      -3.03657328       0.00000000       0.00000000      -0.01328046      -0.00935952      -0.01462677       0.02444110
H       -9.39262316      -3.09630218      -2.21684394       0.00000000       0.00000000       0.00776123      -0.02235254      -0.01608489       0.04209652
H       -8.70105579      -0.87561726      -1.34573413       0.00000000       0.00000000       0.01669875      -0.04638924       0.01536465       0.04070258
H       -7.11934539      -1.06057732      -2.09768285       0.00000000       0.00000000      -0.04752707      -0.03179493      -0.00200183       0.01574148
H       -8.26801514      -2.98817584      -0.02182265       0.00000000       0.00000000       0.06323084       0.03384663      -0.00785887       0.04644744
H       -7.21443255      -1.62946221       0.35143142       0.00000000       0.00000000      -0.03758349      -0.07463495      -0.02261831       0.03685641
H       -5.50690694      -2.63181996      -1.25223963       0.00000000       0.00000000      -0.03300367      -0.04992831       0.01662378       0.02139565
H       -6.57831145      -4.01775646      -1.39938984       0.00000000       0.00000000      -0.02923624      -0.02792648      -0.00184566       0.05885169
H       -5.09684732      -4.85368548       0.13578313       0.00000000       0.00000000      -0.08817399      -0.02292524      -0.02981219       0.04795799
H       -6.40665677      -4.24996241       1.13959722       0.00000000       0.00000000       0.07083970      -0.05524784       0.02341915       0.06622654
H       -4.60105348      -3.50886348       2.33036013       0.00000000       0.00000000      -0.08404444      -0.00754655      -0.06494033       0.07142004
H       -4.85533829      -2.08497491       1.33227636       0.00000000       0.00000000      -0.05598163      -0.05145748      -0.04499560       0.06522585
H       -1.41540626      -4.19097121       0.65219875       0.00000000       0.00000000      -0.02254741       0.03618543      -0.00807057       0.04082717
H       -2.88167876      -5.14526450       0.40180413       0.00000000       0.00000000      -0.02121794       0.04573089      -0.03625777       0.07079184
H       -3.14340766      -4.85518077       3.04186366       0.00000000       0.00000000      -0.03854167      -0.00312590       0.01187514       0.05329408
H       -1.40201637      -4.64745544       2.95779919       0.00000000       0.00000000      -0.00297073      -0.00779154       0.02830564       0.03550302
H       -1.94556682      -6.97594397       3.33050294       0.00000000       0.00000000      -0.02824164       0.04589525       0.01129070       0.05517084
H       -3.57799827      -7.06645199       0.76263829       0.00000000       0.00000000       0.01019472       0.02048896      -0.03544896       0.02978460
H       -4.27183001      -6.84849925       2.36602832       0.00000000       0.00000000      -0.03065620      -0.00151086       0.05653273       0.04488277
H       -3.37496872      -8.30734308       1.97648377       0.00000000       0.00000000       0.00602615      -0.06478973       0.02179469       0.05868879
H       -0.63928749      -6.17171024       0.79286409       0.00000000       0.00000000       0.02439483       0.02037623      -0.00496849       0.01258593
H       -1.25244097      -7.80787900       0.75732242       0.00000000       0.00000000      -0.05579318      -0.02737064       0.00679578       0.05116693
H       -0.23934924      -9.60487892       2.06287627       0.00000000       0.00000000       0.00483249      -0.01135623      -0.02278374       0.04796027
H       -0.75966588      -8.80068980       3.53588834       0.00000000       0.00000000      -0.00012438       0.01214265       0.02452826       0.04493040
H        0.92921054      -9.23844049       3.32458210       0.00000000       0.00000000       0.01177926       0.02158568      -0.00205261       0.04985066
H        1.12771104      -8.40696808       0.34779732       0.00000000       0.00000000       0.00684252       0.00119581       0.00654962       0.04560742
H        2.34498671      -8.08101196       1.57360408       0.00000000       0.00000000      -0.06376905       0.01245948       0.00771581       0.04793156
H        1.67538289      -6.75350459       0.62183636       0.00000000       0.00000000       0.00402175      -0.00041290       0.02238491       0.00835773
H        0.08384748      -6.44786011       4.03179068       0.00000000       0.00000000      -0.02714337      -0.03864210       0.02412367       0.04390354
H        0.91560145      -5.52826161       2.78164021       0.00000000       0.00000000       0.01413267       0.01868281      -0.03186823       0.00391779
H        1.74717857      -6.83275626       3.63441903       0.00000000       0.00000000      -0.00421455      -0.03620993      -0.00561546       0.04261832
H       -4.08297398      -1.05252686      -0.85322323       0.00000000       0.00000000       0.10801034       0.01900881      -0.00159225       0.09806963
H       -3.24381165      -2.45498788      -1.57665418       0.00000000       0.00000000       0.05992524       0.04884134       0.03246131       0.07632845
H       -3.17644639      -0.04762730      -3.11329587       0.00000000       0.00000000      -0.07723273      -0.03534964       0.12992744       0.10143677
H       -1.91683137      -1.26479014      -3.44256193       0.00000000       0.00000000       0.06489281       0.01805838      -0.05709961       0.07809710
H       -2.09277720       0.10300111      -5.38961485       0.00000000       0.00000000       0.04906542       0.00565888       0.00985731       0.05864260
H       -0.90487375       1.10823510      -6.21957497       0.00000000       0.00000000       0.06200906       0.00983796      -0.01332845       0.08558952
H       -2.67995512       2.46025985      -6.53981524       0.00000000       0.00000000       0.02590065       0.00422376       0.02685472       0.06748065
H       -2.21502374       3.08879022      -4.96030549       0.00000000       0.00000000      -0.03359552      -0.05403542      -0.07937509       0.06588037
H       -4.18039072       0.78958679      -5.11545869       0.00000000       0.00000000       0.01886502       0.07342776      -0.01448304       0.02784650
H       -4.74087855       2.39184430      -5.53228367       0.00000000       0.00000000       0.02640188       0.03147966      -0.01438811       0.06345874
H       -3.30150001       1.98926767      -2.89236063       0.00000000       0.00000000       0.01962143      -0.01455869      -0.01857185       0.01860695
H       -5.02233803       1.61168281      -3.07670049       0.00000000       0.00000000       0.00361672      -0.01710199      -0.01638543       0.02984728
H       -5.44341266       3.94829552      -3.75471889       0.00000000       0.00000000      -0.03461263       0.00963236       0.01618262       0.04471378
H       -3.72528819       4.30387163      -3.63294132       0.00000000       0.00000000       0.00551884       0.00427944       0.00593635       0.03801209
H       -3.78455678       3.58340308      -1.21924670       0.00000000       0.00000000      -0.00147413       0.00570313       0.01807926       0.01985784
H       -5.52822202       3.35367120      -1.37173217       0.00000000       0.00000000      -0.00475943       0.01914188       0.01091555       0.02639383
H       -5.19488487       5.46465158      -0.32792795       0.00000000       0.00000000      -0.00623303       0.01945443       0.02579104       0.03228914
H       -5.73183293       5.80458461      -1.96966061       0.00000000       0.00000000      -0.03314745       0.01711280       0.00242870       0.04428293
H       -2.79389134       5.80295178      -1.14839582       0.00000000       0.00000000       0.00225429      -0.01181669       0.03342841       0.02638746
H       -3.80232647       7.24655803      -1.14776067       0.00000000       0.00000000      -0.02745634       0.05887815       0.00887558       0.04340223
H       -3.47702756       6.41570424      -2.65734506       0.00000000       0.00000000      -0.00062599       0.00743601      -0.02693747       0.04134328
H        0.90629320       1.95351842      -3.23057913       0.00000000       0.00000000      -0.04379398       0.05859225      -0.06257130       0.10108634
H        0.08848742       3.03434421      -4.38869275       0.00000000       0.00000000       0.08827698      -0.00875151       0.00858513       0.08851257
H        1.36646028       2.31192741      -6.13482883       0.00000000       0.00000000       0.04328283       0.04636066      -0.00569408       0.05842681
H        1.11458417       0.63305764      -5.71109859       0.00000000       0.00000000       0.01965764       0.04490591      -0.02917415       0.06289774
H        3.15267626       2.23166869      -4.18167389       0.00000000       0.00000000       0.00335541       0.03768047      -0.02587825       0.03758895
H        3.39821153       0.92206254      -6.91596281       0.00000000       0.00000000      -0.01284452      -0.03528373      -0.01735714       0.04139919
H        4.79144381       1.36655073      -5.94805507       0.00000000       0.00000000       0.01333337       0.02138774       0.03469704       0.05865516
H        3.68363214       2.60611360      -6.50238561       0.00000000       0.00000000       0.01190155       0.06037601      -0.05180812       0.04843603
H        3.06731141      -0.64398084      -5.04906809       0.00000000       0.00000000       0.05861861      -0.03291796      -0.06056763       0.04348460
H        2.13499468      -0.13482970      -3.64209399       0.00000000       0.00000000       0.02033972       0.03050706       0.01574897       0.04747942
H        5.87073701      -0.06367624      -4.69612866       0.00000000       0.00000000      -0.00731644       0.01993770      -0.00230771       0.05451388
H        6.34074903       0.03293837      -3.01069730       0.00000000       0.00000000       0.00360959       0.02789742      -0.01311157       0.04532870
H        5.52281464       1.39993688      -3.76109396       0.00000000       0.00000000      -0.01011181      -0.01729642      -0.00175741       0.04201653
H        4.59657703      -2.17072092      -4.33339208       0.00000000       0.00000000      -0.00637578      -0.02760294       0.02903874       0.04792730
H        3.49787878      -2.31652397      -2.94883643       0.00000000       0.00000000       0.03920018       0.00579161      -0.00242985       0.00772886
H        5.23522486      -2.12915754      -2.69825934       0.00000000       0.00000000      -0.03242315       0.01964075      -0.02202735       0.04483399
H        4.67739347      -0.38763240      -1.18489390       0.00000000       0.00000000      -0.02131087       0.00630689      -0.00127231       0.03566308
H        2.94835959      -0.14143386      -1.51241752       0.00000000       0.00000000      -0.01412119      -0.00629356      -0.04175235       0.04846150
H        4.11100829       1.18193824      -1.71672164       0.00000000       0.00000000      -0.01523687      -0.01172556      -0.02703410       0.04114830
C        2.06790478      -3.09446743       6.55363523       0.00000000       0.00000000       0.01672907       0.01200619       0.01444306      -0.10667789
C        0.77833614      -3.89320074       6.40766629       0.00000000       0.00000000      -0.01985258       0.01200555      -0.01765782      -0.05867223
C       -0.46988439      -3.00786296       6.36697163       0.00000000       0.00000000      -0.01653987       0.01868190       0.00752015      -0.06712272
C       -0.63493228      -2.28246303       5.02975575       0.00000000       0.00000000       0.02369877      -0.00334818       0.02249689      -0.05176697
C       -1.92201286      -1.45487581       4.92494137       0.00000000       0.00000000       0.05145381      -0.03689151      -0.02572651      -0.06054938
C       -2.00783214      -0.29382049       5.92202438       0.00000000       0.00000000       0.01519140      -0.04412025      -0.01997755      -0.06871873
C       -0.93925086       0.78980218       5.71880541       0.00000000       0.00000000       0.00367827       0.00297665      -0.00260623      -0.07328556
C       -1.39784746       2.05919618       4.99328870       0.00000000       0.00000000       0.03192664       0.02754621       0.04370968      -0.02828814
N       -1.94655590       1.82210548       3.65695777       0.00000000       0.00000000       0.07038259       0.01648118      -0.04392282      -0.04774135
C       -3.38139320       2.15775590       3.64354494       0.00000000       0.00000000      -0.00088385       0.01667505       0.07151554      -0.01135254
C       -4.17435576       2.02897491       2.35399536       0.00000000       0.00000000       0.00991093      -0.03123767       0.05792053      -0.07669997
C       -4.98160523       0.72087752       2.27923179       0.00000000       0.00000000      -0.02434923      -0.01159569       0.00327511      -0.01475467
C       -5.28512975       0.48966192       0.80504226       0.00000000       0.00000000      -0.02092465       0.06054182      -0.05388163      -0.11585418
C       -6.25808146       0.83357917       3.14140698       0.00000000       0.00000000      -0.00670948      -0.00821552       0.00608079      -0.08441853
C       -6.83821091      -0.40213372       3.87760943       0.00000000       0.00000000      -0.01837852      -0.01697377      -0.00297276       0.02852406
C       -7.53268544      -1.39039327       2.94125495       0.00000000       0.00000000      -0.01919652      -0.02455044      -0.04331763      -0.11872135
C       -5.78541597      -1.16176863       4.68682768       0.00000000       0.00000000       0.03008753       0.01700501       0.02718513      -0.10953577
C       -7.90803854       0.12526785       4.84202732       0.00000000       0.00000000      -0.00544180       0.03695224       0.02210346      -0.11892678
C       -1.17463432       1.45796319       2.63919149       0.00000000       0.00000000      -0.07052199      -0.04357461      -0.13048890       0.26059505
O       -1.55276240       1.00621066       1.53739054       0.00000000       0.00000000       0.10930079       0.11021482       0.04012849      -0.37692126
C        0.35330808       1.62948686       2.79675101       0.00000000       0.00000000       0.02066652      -0.04560803       0.07071797       0.05261569
O        0.87338679       1.71873912       1.47728563       0.00000000       0.00000000       0.01526654       0.08729920       0.08693615      -0.21852327
C        2.13561817       2.36850024       1.38230642       0.00000000       0.00000000       0.08564393      -0.04470108       0.00251427       0.05020587
C        2.36074230       2.59881395      -0.11408825       0.00000000       0.00000000       0.03534692      -0.05146899      -0.02547945       0.26519510
O        1.51390870       2.13335097      -0.89195964       0.00000000       0.00000000      -0.05433267      -0.05503540       0.01404291      -0.35724395
N        3.41945712       3.30527884      -0.51788123       0.00000000       0.00000000       0.08414410       0.00969540      -0.01566923      -0.07191577
C        4.71716917       3.19234709       0.15550613       0.00000000       0.00000000       0.01333339       0.00111766       0.07679504      -0.01318367
C        5.06163571       4.20620999       1.24461963       0.00000000       0.00000000       0.00253250       0.07247442       0.03159808      -0.07296704
C        5.23326032       5.63904075       0.73970799       0.00000000       0.00000000      -0.03437926       0.07865086      -0.00318803      -0.06806716
C        3.90598340       6.38758543       0.62309485       0.00000000       0.00000000      -0.03859981       0.02041708       0.01467715      -0.07023143
C        3.32598911       6.82930670       1.96613811       0.00000000       0.00000000       0.03183300      -0.00283546       0.00009320      -0.06242370
C        1.94972630       7.49698717       1.82667016       0.00000000       0.00000000       0.07527808      -0.02430538       0.02289263      -0.06672163
C        0.75505493       6.54255885       1.92935219       0.00000000       0.00000000       0.00481830       0.02631952       0.00532664      -0.05337435
C        0.48994883       5.70906044       0.68020424       0.00000000       0.00000000      -0.01516458      -0.01371612      -0.02927672      -0.09882624
C        3.44220412       3.73376980      -1.92008064       0.00000000       0.00000000       0.00570759       0.02123114      -0.04458006      -0.01283813
C        2.46539732       4.86231694      -2.25650299       0.00000000       0.00000000       0.01048173      -0.02091045       0.04133689      -0.07744989
C        2.44890761       5.20915621      -3.75591161       0.00000000       0.00000000       0.00172785      -0.03198838       0.05960281      -0.01820625
C        3.85929336       5.50711960      -4.26755688       0.00000000       0.00000000       0.02984669       0.01441537      -0.00185364      -0.11787452
C        1.53758622       6.42664299      -4.01107861       0.00000000       0.00000000       0.02560044       0.03114085       0.01870001      -0.08327522
C        0.12219035       6.17042927      -4.55941803       0.00000000       0.00000000      -0.01970724       0.00159587       0.00193597       0.02764922
C        0.17959670       5.43710652      -5.90416914       0.00000000       0.00000000       0.00553384       0.00022325      -0.02949481      -0.11516381
C       -0.53262510       7.53870287      -4.78539392       0.00000000       0.00000000       0.00264180       0.03380171      -0.01236146      -0.11787958
C       -0.74248489       5.41375087      -3.54922446       0.00000000       0.00000000      -0.02427468      -0.02399040       0.03893275      -0.11046748
H        2.92608707      -3.76073497       6.53321938       0.00000000       0.00000000       0.02274034      -0.00473092       0.00785050       0.03871226
H        2.07699261      -2.56380914       7.50119610       0.00000000       0.00000000      -0.01010538       0.00898571       0.02659210       0.04830061
H        2.17609895      -2.36357790       5.75466796       0.00000000       0.00000000      -0.00974566       0.00501896      -0.00598657       0.01549091
H        0.70280796      -4.57819425       7.25269528       0.00000000       0.00000000      -0.02594742       0.02613411      -0.00543010       0.05075740
H        0.82186072      -4.50094519       5.50050608       0.00000000       0.00000000      -0.00189267      -0.02564877      -0.01818475       0.02174730
H       -0.40287316      -2.27801243       7.17341056       0.00000000       0.00000000       0.00495859      -0.01671543       0.01956533       0.04705162
H       -1.35164086      -3.62416086       6.55032210       0.00000000       0.00000000      -0.00186043       0.00511439      -0.04151500       0.04197228
H       -0.64239743      -3.03115222       4.22999097       0.00000000       0.00000000      -0.02906109       0.04118228       0.01601331       0.01302412
H        0.23693071      -1.64416283       4.86474657       0.00000000       0.00000000      -0.00737353       0.00546027      -0.04338314       0.01128350
H       -2.76454765      -2.12550403       5.11001904       0.00000000       0.00000000       0.00900383       0.06018930      -0.00550572       0.04620464
H       -2.01614067      -1.07544553       3.90130876       0.00000000       0.00000000       0.01769340       0.00887469       0.00654550       0.01900649
H       -1.89930574      -0.70633854       6.92373669       0.00000000       0.00000000      -0.03597390       0.01497775       0.01599343       0.06116644
H       -3.00619307       0.14061006       5.86938167       0.00000000       0.00000000       0.03746109       0.01753728       0.00776621       0.04502325
H       -0.09902722       0.35426879       5.18449272       0.00000000       0.00000000       0.02617128      -0.03178890       0.05129271       0.03845155
H       -0.56794966       1.11289448       6.69204081       0.00000000       0.00000000      -0.01914174       0.01059492      -0.03091087       0.06983583
H       -0.56917704       2.77087429       4.95088178       0.00000000       0.00000000       0.02995898      -0.03545300      -0.01664170       0.05710408
H       -2.17442012       2.54058580       5.58798436       0.00000000       0.00000000      -0.01683054      -0.07063196       0.01213671       0.08547171
H       -3.41957300       3.20283666       3.97078048       0.00000000       0.00000000       0.00933147      -0.00572783       0.00130542       0.06889681
H       -3.85459295       1.54758302       4.41758804       0.00000000       0.00000000      -0.03394557       0.00870091      -0.02629202       0.08219532
H       -3.49989341       2.12061307       1.50313323       0.00000000       0.00000000      -0.07380672      -0.04180164      -0.00924011       0.06496768
H       -4.88122552       2.86053398       2.30776581       0.00000000       0.00000000       0.06764551      -0.01311052      -0.05964027       0.06163686
H       -4.35002018      -0.09608040       2.64180801       0.00000000       0.00000000       0.02691739       0.01093419      -0.00910784       0.02755718
H       -5.89571352       1.29388525       0.40542402       0.00000000       0.00000000      -0.06035929       0.07767903       0.04104258       0.04730959
H       -5.81466294      -0.44010679       0.64001590       0.00000000       0.00000000      -0.03154867       0.03827150       0.00020143       0.04558636
H       -4.34332969       0.48689485       0.25991754       0.00000000       0.00000000      -0.03043010       0.06574633      -0.01757931       0.02736925
H       -7.04957535       1.23572634       2.50423334       0.00000000       0.00000000       0.00527134       0.01038278       0.05834265       0.04948251
H       -6.07434701       1.57970994       3.91704599       0.00000000       0.00000000       0.02571368       0.00552223      -0.00215121       0.04079804
H       -6.81912585      -1.99807884       2.39646307       0.00000000       0.00000000       0.05347001       0.03633122      -0.00880289       0.02818983
H       -8.18171358      -0.87473521       2.23962854       0.00000000       0.00000000      -0.01141441       0.04384632       0.00260302       0.04326366
H       -8.15525469      -2.06970187       3.51846756       0.00000000       0.00000000       0.01081521       0.00499716       0.02139432       0.04854046
H       -4.99667192      -1.56446642       4.05320737       0.00000000       0.00000000      -0.02660616       0.01274556       0.00029052       0.01857877
H       -6.26124285      -1.99439424       5.20118078       0.00000000       0.00000000       0.03443696       0.03525748      -0.00932671       0.04777065
H       -5.33368234      -0.52189056       5.44011353       0.00000000       0.00000000       0.01027283       0.04611170       0.01836408       0.03043927
H       -8.66367941       0.68588728       4.29796272       0.00000000       0.00000000      -0.00528894       0.01034140       0.01736312       0.04631661
H       -7.47464671       0.77408095       5.59800078       0.00000000       0.00000000       0.01555137       0.05026140       0.01392874       0.03734909
H       -8.40292600      -0.69700534       5.35283768       0.00000000       0.00000000       0.02969698       0.01159845      -0.00756201       0.04942440
H        0.79010696       0.75181238       3.29974947       0.00000000       0.00000000      -0.03146942       0.06721282       0.03569357       0.06607804
H        0.58891266       2.53678605       3.36602402       0.00000000       0.00000000       0.00411146      -0.03498295      -0.08067083       0.07964349
H        2.93125779       1.73615550       1.80197465       0.00000000       0.00000000      -0.01239629       0.00900938       0.02860920       0.07897801
H        2.11651749       3.33742920       1.90431410       0.00000000       0.00000000      -0.04307614      -0.09824220      -0.09027228       0.08992590
H        5.48431815       3.25814459      -0.62103747       0.00000000       0.00000000      -0.04856863       0.01400906       0.05468464       0.07976040
H        4.78335738       2.18709266       0.58161520       0.00000000       0.00000000       0.00001342      -0.04002806       0.06115696       0.03862508
H        6.00453961       3.87264503       1.68204810       0.00000000       0.00000000      -0.01172220      -0.02646955      -0.01057641       0.05875207
H        4.30946363       4.18089787       2.02886001       0.00000000       0.00000000      -0.00323921       0.03704307       0.03371166       0.04624331
H        5.73159056       5.61932653      -0.23188023       0.00000000       0.00000000      -0.01378865       0.00980267       0.02764116       0.04298368
H        5.88455035       6.18698453       1.42145349       0.00000000       0.00000000      -0.00464001      -0.02230192       0.02333049       0.05550108
H        3.18198318       5.74515520       0.13252413       0.00000000       0.00000000       0.00748678      -0.02123801       0.00840311       0.04017385
H        4.05323458       7.27292500       0.00151463       0.00000000       0.00000000       0.00436546      -0.00492855       0.03653123       0.04295352
H        4.02193855       7.53066418       2.42933751       0.00000000       0.00000000      -0.02559035       0.01558771      -0.01952366       0.04284355
H        3.24425576       5.97111758       2.63850771       0.00000000       0.00000000      -0.01400344       0.04074212       0.01359076       0.02175406
H        1.90156598       8.03325929       0.87634759       0.00000000       0.00000000      -0.00600635       0.00247310       0.05976818       0.04406982
H        1.84738880       8.23794477       2.62159185       0.00000000       0.00000000      -0.00853186      -0.03186385      -0.01540904       0.04527260
H       -0.13265391       7.14493869       2.12256211       0.00000000       0.00000000      -0.04528265       0.02595997       0.01210736       0.04092986
H        0.89310087       5.88431528       2.79250388       0.00000000       0.00000000      -0.00855428       0.00344336       0.01342818       0.01444162
H        0.47458334       6.34665844      -0.19910133       0.00000000       0.00000000      -0.02793781       0.04399349      -0.00336627       0.04442605
H       -0.47482487       5.20930169       0.74821476       0.00000000       0.00000000      -0.03069683      -0.00825006       0.03590192       0.02390968
H        1.24626102       4.94431126       0.52885976       0.00000000       0.00000000       0.03361183       0.00741540       0.00346476       0.01622940
H        3.19176901       2.86823298      -2.53405766       0.00000000       0.00000000      -0.03958790      -0.00957202      -0.03943041       0.06636710
H        4.45350180       4.05742518      -2.14927452       0.00000000       0.00000000       0.01917146       0.01072260       0.02366025       0.07303822
H        2.75304110       5.76242856      -1.71662262       0.00000000       0.00000000      -0.01649649      -0.01712486      -0.03159609       0.06191041
H        1.46866342       4.56114530      -1.93162754       0.00000000       0.00000000       0.00883009       0.06120283      -0.04673624       0.04857164
H        2.07078655       4.34554055      -4.30343725       0.00000000       0.00000000      -0.00392845      -0.03212618      -0.01592926       0.03435936
H        4.32349052       6.29514841      -3.68098169       0.00000000       0.00000000      -0.00565473       0.02954470       0.02397003       0.04593021
H        3.82209945       5.83897094      -5.30012430       0.00000000       0.00000000      -0.03577123       0.01183387      -0.04370181       0.05325809
H        4.49969916       4.62945698      -4.23728168       0.00000000       0.00000000      -0.00467147      -0.03182944      -0.00829009       0.02839517
H        2.02981942       7.08467711      -4.72443689       0.00000000       0.00000000       0.06996679       0.00392322      -0.06499235       0.05730519
H        1.44498756       6.99650827      -3.08672529       0.00000000       0.00000000      -0.03555365       0.02943615       0.05225739       0.04085576
H        0.59643350       6.08882933      -6.66679422       0.00000000       0.00000000       0.00327391       0.04180708       0.00817010       0.05053256
H       -0.81603846       5.14090298      -6.22855325       0.00000000       0.00000000      -0.01055351       0.04964718       0.01186193       0.03445116
H        0.80445863       4.54870140      -5.86790577       0.00000000       0.00000000      -0.02426237      -0.01071539       0.02898100       0.02606235
H        0.05594635       8.13811577      -5.47370667       0.00000000       0.00000000      -0.00255538       0.01092867      -0.02804033       0.04596900
H       -0.61243955       8.08396105      -3.84779005       0.00000000       0.00000000      -0.01017991       0.01002344      -0.00911764       0.04000886
H       -1.53094187       7.43080539      -5.20205607       0.00000000       0.00000000       0.00410651      -0.03865192       0.00420833       0.04434118
H       -0.28701691       4.49626286      -3.19145934       0.00000000       0.00000000       0.06317096      -0.01106148      -0.01341172       0.02451754
H       -1.70120139       5.16627458      -4.00013880       0.00000000       0.00000000      -0.01978094       0.04370455       0.01622156       0.03011193
H       -0.93368555       6.03773712      -2.68055819       0.00000000       0.00000000       0.01746781       0.04684479      -0.01032905       0.04258626
