327
Properties=species:S:1:pos:R:3:initial_charges:R:1:initial_magmoms:R:1:forces:R:3:charge:R:1 energy=-10357.3650314717 free_energy=-10357.3650314717 dipole="0.12493859064766301 -1.8616306657569968 0.8535074732677318" pbc="F F F"
Ho      -0.04904585       0.00533722      -0.12839577       2.00000000       0.00000000       0.01988691      -0.01264069      -0.01724934       0.83573099
C       -6.17897016      -4.56553706       0.03259487       0.00000000       0.00000000       0.08233773       0.01151782       0.04657273      -0.10730800
C       -5.17336108      -3.83610516       0.91424851       0.00000000       0.00000000      -0.00898688       0.09044990       0.08569708      -0.04519209
C       -5.88024841      -2.79752301       1.78600377       0.00000000       0.00000000      -0.03973608      -0.00581395       0.01431962      -0.06605123
C       -4.94401204      -1.78880429       2.45387242       0.00000000       0.00000000      -0.04258740      -0.07934396       0.01161446      -0.05996501
C       -4.33488490      -0.74531316       1.50981497       0.00000000       0.00000000      -0.03856888      -0.00654633       0.03199619      -0.04699949
C       -5.39586660       0.06272224       0.74694005       0.00000000       0.00000000      -0.04597456       0.05066494       0.01513792      -0.06141566
C       -5.56396683      -0.34518682      -0.72094628       0.00000000       0.00000000       0.02261003      -0.00648777      -0.00986784      -0.06322120
C       -4.56158012       0.39190158      -1.60417988       0.00000000       0.00000000      -0.02180820      -0.00807905      -0.03236539      -0.06825146
C       -4.59164866      -0.01770825      -3.07468061       0.00000000       0.00000000      -0.02609519      -0.06171329       0.00798102      -0.06172551
C       -3.83392818       1.02331284      -3.91101906       0.00000000       0.00000000      -0.04205963      -0.01009401       0.09014482      -0.07188823
C       -3.14055098       0.48231953      -5.15979755       0.00000000       0.00000000      -0.04359692      -0.02236614       0.03446198      -0.07121626
C       -1.74400948      -0.06445103      -4.85871506       0.00000000       0.00000000       0.00092736       0.04889922       0.03517485      -0.01967399
N       -1.76952480      -1.30659273      -4.08895822       0.00000000       0.00000000      -0.00971122      -0.02351969      -0.00813004      -0.04048200
C       -2.25382138      -2.50926651      -4.76005716       0.00000000       0.00000000      -0.02617103      -0.08961845      -0.04887552      -0.02058270
C       -1.73716892      -2.73588898      -6.19177559       0.00000000       0.00000000       0.00312912       0.04647343       0.03062634      -0.07164363
C       -1.13588108      -4.12940084      -6.39768245       0.00000000       0.00000000       0.02670381       0.05270783      -0.01177452      -0.06650137
C       -2.05348642      -5.29789182      -6.04120282       0.00000000       0.00000000       0.02162805      -0.00892884       0.00187273      -0.06027458
C       -1.52892411      -6.63228438      -6.58097959       0.00000000       0.00000000       0.04923498      -0.02440402       0.00881816      -0.06376028
C       -0.15426039      -7.04515129      -6.04702160       0.00000000       0.00000000       0.04179652      -0.00265765       0.02536392      -0.06475540
C       -0.17436221      -7.60861988      -4.62049197       0.00000000       0.00000000       0.00698573       0.00510038       0.00184313      -0.05430414
C       -0.44514339      -9.11350459      -4.60945205       0.00000000       0.00000000      -0.00918795       0.03145223      -0.00660110      -0.06187849
C       -0.62668936      -9.69561308      -3.20706223       0.00000000       0.00000000       0.01382399       0.00576734      -0.02086865      -0.05933179
C        0.60701725      -9.67661032      -2.29672459       0.00000000       0.00000000      -0.00167124      -0.03977010      -0.00573071      -0.05667694
C        1.63785732     -10.78805945      -2.53261015       0.00000000       0.00000000       0.00871849      -0.00789052      -0.00833916      -0.05563519
C        2.62073786     -10.54649151      -3.67430620       0.00000000       0.00000000      -0.02409248      -0.00665875       0.00525344      -0.10098714
C       -1.57821309      -1.23873811      -2.77751420       0.00000000       0.00000000      -0.02613812      -0.01032601       0.02300916       0.25141510
O       -1.24212679      -0.20199343      -2.17323031       0.00000000       0.00000000       0.03752456      -0.03205309      -0.07812895      -0.35714104
C       -1.73864679      -2.44647480      -1.84226660       0.00000000       0.00000000       0.05606477      -0.03868581       0.03993864       0.04294992
O       -0.61712144      -2.45705554      -0.94880763       0.00000000       0.00000000      -0.04785942      -0.02830629      -0.08496576      -0.24100310
C        0.56216625      -3.07128094      -1.49186864       0.00000000       0.00000000      -0.03464010       0.06520417       0.01539036       0.04891650
C        1.70810109      -2.09137526      -1.21152379       0.00000000       0.00000000      -0.06684576      -0.05933540       0.02173143       0.26701042
O        1.40847213      -0.87854233      -1.33574091       0.00000000       0.00000000       0.09593502      -0.02281245       0.06665312      -0.41336658
N        2.89366110      -2.50247801      -0.80634362       0.00000000       0.00000000      -0.01959293       0.00360561      -0.08987924      -0.04461537
C        3.28944376      -3.91973260      -0.89239335       0.00000000       0.00000000      -0.04902393       0.03748181       0.05029536      -0.02219620
C        4.68274226      -4.28746059      -1.43622269       0.00000000       0.00000000       0.01342385       0.15544487      -0.06672625      -0.07449193
C        4.91865955      -4.01588585      -2.92270834       0.00000000       0.00000000       0.02172634       0.05510840      -0.09804453      -0.06751327
C        6.39832144      -4.19129260      -3.32965245       0.00000000       0.00000000      -0.00238385       0.17372423       0.01310659      -0.06509157
C        6.74745629      -3.43850445      -4.63676573       0.00000000       0.00000000      -0.00642130       0.06058463      -0.02597088      -0.06385269
C        7.87040525      -2.39012761      -4.51673413       0.00000000       0.00000000       0.04980211      -0.05072526       0.05019275      -0.06553019
C        8.04552550      -1.56907991      -5.81721141       0.00000000       0.00000000       0.05189239      -0.01791786       0.05516533      -0.06574964
C        7.94438063      -0.03812121      -5.66938335       0.00000000       0.00000000      -0.04093060      -0.01627532      -0.02102002      -0.06511293
C        9.25085974       0.75138484      -5.59032989       0.00000000       0.00000000      -0.03837304      -0.03981308       0.02923916      -0.06031241
C        8.97604724       2.25026272      -5.38517131       0.00000000       0.00000000      -0.00361158      -0.03813334       0.02218101      -0.06489251
C        8.43594069       2.62143607      -3.98801883       0.00000000       0.00000000       0.04494827      -0.03498942      -0.02414976      -0.05534907
C        7.09073633       3.34147251      -4.04241506       0.00000000       0.00000000       0.05289274      -0.02895148      -0.03596896      -0.10202682
C        3.84197238      -1.51755732      -0.25625434       0.00000000       0.00000000       0.04692539      -0.06113029       0.09095414      -0.04617261
C        3.24260171      -0.29312365       0.47218397       0.00000000       0.00000000      -0.03569529      -0.01839795      -0.03758796      -0.07804473
C        4.19520136       0.26914130       1.54021587       0.00000000       0.00000000      -0.05898058       0.07737548      -0.09651173      -0.07945008
C        3.92823588       1.68706355       2.07056270       0.00000000       0.00000000      -0.01864166       0.05902727       0.00601218      -0.06553419
C        2.82990837       1.76732331       3.14686156       0.00000000       0.00000000       0.03815569       0.07020869      -0.03173765      -0.06487169
C        3.17871337       2.54072426       4.44196921       0.00000000       0.00000000       0.01594910      -0.06260607      -0.01525357      -0.06728231
C        2.20389757       3.66938841       4.80677982       0.00000000       0.00000000       0.04222891      -0.10081849      -0.00069843      -0.05574196
C        2.25618635       4.91271126       3.91586893       0.00000000       0.00000000       0.02987502      -0.02565178       0.03868365      -0.05797733
C        3.57552434       5.69068557       4.01066958       0.00000000       0.00000000       0.01730280      -0.00099312      -0.01684425      -0.06264544
C        4.59827059       5.24081829       2.97292124       0.00000000       0.00000000       0.00988946      -0.02316368      -0.03915008      -0.06136252
C        5.90621541       6.02420478       3.01972361       0.00000000       0.00000000       0.00686866       0.01525145       0.00457910      -0.05653133
C        6.98714634       5.32742974       2.19939041       0.00000000       0.00000000       0.00101195       0.00495098       0.02284988      -0.10487774
H       -5.68878050      -5.33721258      -0.55212204       0.00000000       0.00000000       0.00059365      -0.06568523      -0.08488823       0.03327316
H       -6.67497916      -3.87254003      -0.64177147       0.00000000       0.00000000       0.01431582       0.01099665      -0.04890361       0.03541754
H       -6.93998757      -5.03435708       0.64783657       0.00000000       0.00000000      -0.02799413      -0.04722709       0.02822245       0.04643305
H       -4.41865186      -3.33825524       0.29723710       0.00000000       0.00000000      -0.01635959      -0.07266712      -0.04827468       0.00999210
H       -4.65902713      -4.56304556       1.55228652       0.00000000       0.00000000      -0.01070593       0.09492746      -0.05320460       0.02522363
H       -6.43089619      -3.32639109       2.56456970       0.00000000       0.00000000      -0.01809849      -0.01127072       0.05139492       0.03878884
H       -6.62158952      -2.26663365       1.18524888       0.00000000       0.00000000       0.07529912      -0.01393081      -0.00214254       0.04477612
H       -4.14449065      -2.33177424       2.96416965       0.00000000       0.00000000       0.04493572       0.00787731      -0.04889235       0.02860735
H       -5.51157470      -1.26127821       3.22510205       0.00000000       0.00000000      -0.00011957       0.02701159      -0.04057636       0.03451635
H       -3.63932788      -1.21693707       0.80686332       0.00000000       0.00000000      -0.02907826      -0.00500085       0.01165459       0.02689380
H       -3.73665354      -0.06654485       2.12232531       0.00000000       0.00000000       0.02217586       0.02217814       0.01277564       0.01178514
H       -5.13982948       1.12320990       0.77215925       0.00000000       0.00000000       0.06129067       0.04144529       0.00931020       0.02286673
H       -6.34973500      -0.02666064       1.26503740       0.00000000       0.00000000      -0.03660965      -0.06880171       0.03434541       0.04863290
H       -6.57279573      -0.09964575      -1.06261771       0.00000000       0.00000000       0.03645740      -0.01134523       0.05568670       0.03992904
H       -5.43536246      -1.42220361      -0.82476142       0.00000000       0.00000000      -0.01638158      -0.03454452      -0.01763680       0.03681745
H       -4.78740950       1.45866882      -1.55224052       0.00000000       0.00000000      -0.01387316       0.00112022       0.01403588       0.03445945
H       -3.54664646       0.24174260      -1.22297680       0.00000000       0.00000000       0.00257496       0.07074025       0.07686938       0.04470287
H       -5.62625000      -0.10142985      -3.41128550       0.00000000       0.00000000      -0.00803132       0.09785730      -0.04935918       0.04357861
H       -4.15348331      -1.01078818      -3.18397711       0.00000000       0.00000000       0.03649993      -0.00851714       0.01910903       0.01168411
H       -3.06428153       1.47969568      -3.28685663       0.00000000       0.00000000      -0.01059281       0.05872170       0.05838491       0.04836483
H       -4.53745671       1.80722404      -4.19267406       0.00000000       0.00000000       0.03263202       0.00556592      -0.02999861       0.04935212
H       -3.01665601       1.29780418      -5.87162091       0.00000000       0.00000000       0.02088747      -0.01626153      -0.04268745       0.06388202
H       -3.75321587      -0.28300680      -5.63092785       0.00000000       0.00000000      -0.04550229      -0.02524304      -0.08742915       0.05513615
H       -1.18940562       0.66899122      -4.27224231       0.00000000       0.00000000       0.05318270       0.00370049       0.05070958       0.09171018
H       -1.21063525      -0.23389507      -5.79361278       0.00000000       0.00000000      -0.00283335      -0.02152246       0.03926800       0.07384434
H       -3.34780761      -2.48729014      -4.77306136       0.00000000       0.00000000      -0.01762200       0.00221772       0.01866874       0.06768079
H       -1.95456707      -3.37168350      -4.17091574       0.00000000       0.00000000       0.00100127      -0.02672668      -0.00418923       0.06040477
H       -0.94804838      -2.02465557      -6.42824365       0.00000000       0.00000000       0.00060938       0.01087530      -0.02186941       0.05623856
H       -2.54852295      -2.58176350      -6.90429434       0.00000000       0.00000000       0.03738918       0.00139122       0.02746955       0.05844223
H       -0.20786404      -4.19310669      -5.82592311       0.00000000       0.00000000      -0.01197840      -0.02117162       0.03837774       0.03108288
H       -0.87466589      -4.21014725      -7.45255645       0.00000000       0.00000000       0.04531315      -0.03035354      -0.03998174       0.05647025
H       -3.03826687      -5.12005473      -6.47696063       0.00000000       0.00000000      -0.00965357       0.00282514       0.02535246       0.03952260
H       -2.17583691      -5.36835737      -4.95816000       0.00000000       0.00000000      -0.02882414      -0.02530495       0.00576070       0.01826992
H       -1.46531533      -6.55561708      -7.66731177       0.00000000       0.00000000      -0.03382084      -0.02441033      -0.01574228       0.04035723
H       -2.25065983      -7.41454384      -6.34176113       0.00000000       0.00000000      -0.01108777       0.00593549      -0.03875031       0.04490915
H        0.52044728      -6.18990384      -6.09836435       0.00000000       0.00000000       0.02093837       0.00021039      -0.00094218       0.02611575
H        0.25916478      -7.80880581      -6.70821489       0.00000000       0.00000000      -0.01861763       0.00831761       0.00517062       0.04303537
H       -0.93666466      -7.09754742      -4.02551319       0.00000000       0.00000000       0.00785109      -0.01239296      -0.01852791       0.01870207
H        0.79256934      -7.41574452      -4.14854481       0.00000000       0.00000000      -0.01925799      -0.01928306      -0.02022888       0.02081548
H        0.36980174      -9.62031511      -5.12471989       0.00000000       0.00000000      -0.02656752      -0.00195707       0.01119041       0.04194357
H       -1.35992406      -9.31018108      -5.17325610       0.00000000       0.00000000       0.00380095       0.01408406      -0.00501455       0.03343983
H       -0.97121566     -10.72777404      -3.30123680       0.00000000       0.00000000       0.01813346       0.02362898       0.01038527       0.03953044
H       -1.42455811      -9.13202088      -2.71207706       0.00000000       0.00000000       0.01156239      -0.02716715       0.00040026       0.02331478
H        0.23994845      -9.80280084      -1.27479106       0.00000000       0.00000000       0.01606210       0.05078749       0.03359466       0.02540197
H        1.10148457      -8.70286272      -2.35387484       0.00000000       0.00000000      -0.01251248      -0.04667157       0.01221687       0.02131481
H        1.11873705     -11.73443272      -2.69696613       0.00000000       0.00000000      -0.01731062       0.03706399      -0.01669096       0.03855983
H        2.21955874     -10.90031074      -1.61324103       0.00000000       0.00000000      -0.00664325       0.01477031       0.00177194       0.02790467
H        2.13799217     -10.60559133      -4.64547876       0.00000000       0.00000000      -0.01037195       0.00646716       0.02005693       0.03771149
H        3.39981259     -11.30566571      -3.64608677       0.00000000       0.00000000      -0.00501366       0.02972104      -0.01812900       0.03792655
H        3.09285505      -9.56951156      -3.58047043       0.00000000       0.00000000      -0.01397002      -0.01301003       0.00483236       0.02533697
H       -1.85629391      -3.41841594      -2.32083272       0.00000000       0.00000000       0.00301448      -0.05088520       0.08044137       0.07744760
H       -2.61075876      -2.23871796      -1.20384520       0.00000000       0.00000000       0.06000047      -0.08691433      -0.09080583       0.11343365
H        0.48337988      -3.21201984      -2.57819696       0.00000000       0.00000000      -0.05302664      -0.01681226       0.09600277       0.08428750
H        0.69639360      -4.03179237      -0.98614265       0.00000000       0.00000000      -0.03970041      -0.01573104      -0.01782088       0.08650216
H        2.57863155      -4.41706751      -1.55209581       0.00000000       0.00000000       0.01687164      -0.00016992       0.06801101       0.05947225
H        3.20748477      -4.34945297       0.11297811       0.00000000       0.00000000      -0.03969154       0.04197611      -0.03599129       0.07026636
H        4.77300523      -5.35923068      -1.27337157       0.00000000       0.00000000       0.04754240      -0.13075397       0.07969848       0.06229111
H        5.48122131      -3.81772369      -0.86907791       0.00000000       0.00000000      -0.05471729       0.04731069       0.05858391       0.06198111
H        4.58702602      -3.00889831      -3.17082132       0.00000000       0.00000000       0.04389074       0.04178803       0.05678025       0.04522318
H        4.31077621      -4.70334096      -3.51100047       0.00000000       0.00000000      -0.05116578      -0.01233657      -0.07672491       0.03274099
H        6.59635429      -5.25691059      -3.45467391       0.00000000       0.00000000       0.04328228       0.06745429       0.05925576       0.04006395
H        7.04810570      -3.83435907      -2.52174780       0.00000000       0.00000000      -0.11612455      -0.00710261      -0.12899334       0.03832011
H        5.84504930      -2.94709813      -5.00195374       0.00000000       0.00000000      -0.02504347       0.08374906      -0.02802555       0.03139287
H        7.03927311      -4.14945583      -5.41047596       0.00000000       0.00000000       0.01667818      -0.04286827       0.04777566       0.03883053
H        8.79580063      -2.91506019      -4.27944145       0.00000000       0.00000000       0.05872277      -0.01233284      -0.02363883       0.03285011
H        7.67428591      -1.72069704      -3.67710293       0.00000000       0.00000000      -0.02409051      -0.03937684      -0.09240333       0.03820220
H        7.27207544      -1.87967284      -6.51847742       0.00000000       0.00000000      -0.08513156      -0.05088606      -0.03004366       0.03145180
H        8.99426230      -1.82199872      -6.28946993       0.00000000       0.00000000       0.06156645       0.03114489       0.05191759       0.03985276
H        7.36992076       0.20259242      -4.77888140       0.00000000       0.00000000       0.01866998      -0.03625671      -0.05251751       0.04104979
H        7.38852141       0.34896285      -6.52448716       0.00000000       0.00000000      -0.04577120       0.02745995      -0.05363182       0.02842280
H        9.79935094       0.62605207      -6.52635579       0.00000000       0.00000000       0.03495197      -0.02078332       0.05133142       0.03322195
H        9.87497580       0.37393549      -4.77809989       0.00000000       0.00000000       0.00167023      -0.00073082       0.00504471       0.03174121
H        8.25644930       2.57386244      -6.14257161       0.00000000       0.00000000       0.05993755      -0.02109406       0.02047459       0.03734104
H        9.90294808       2.79681597      -5.56706238       0.00000000       0.00000000      -0.02689301      -0.02923376      -0.00786350       0.03543706
H        9.14722346       3.27695838      -3.48008857       0.00000000       0.00000000       0.00729057      -0.06643569      -0.02421345       0.03101383
H        8.33819528       1.72194485      -3.37492087       0.00000000       0.00000000       0.02826708       0.01136246      -0.03747110       0.02841348
H        7.18153562       4.26023651      -4.61264451       0.00000000       0.00000000       0.01322671       0.06786780      -0.03998339       0.03780911
H        6.75083203       3.60091223      -3.04174634       0.00000000       0.00000000      -0.00222085      -0.00157796       0.01936706       0.02681194
H        6.33185959       2.72522948      -4.51770857       0.00000000       0.00000000      -0.02231029      -0.05482733      -0.00514782       0.03059642
H        4.47235732      -1.16776696      -1.06703093       0.00000000       0.00000000      -0.05812319       0.00772496       0.11377763       0.12409655
H        4.46775432      -2.06572884       0.43726145       0.00000000       0.00000000      -0.03103850       0.02805390      -0.00895559       0.10895951
H        2.29821116      -0.58942169       0.94334172       0.00000000       0.00000000       0.04425870       0.18123570       0.00351861       0.09654114
H        3.07089225       0.49930816      -0.25629804       0.00000000       0.00000000       0.05589435      -0.00406484      -0.03466751       0.08866108
H        5.17981660       0.29219280       1.09166882       0.00000000       0.00000000       0.11661066       0.06046118      -0.06684872       0.06711484
H        4.21915809      -0.40673590       2.38684854       0.00000000       0.00000000      -0.02155264       0.01787323       0.07096444       0.04838848
H        3.69436002       2.36252011       1.24611636       0.00000000       0.00000000       0.00860833      -0.08464792      -0.01438824       0.05212700
H        4.86926229       2.03416951       2.50227389       0.00000000       0.00000000       0.00074678      -0.04492321      -0.00797754       0.04722530
H        2.58943085       0.74165595       3.43117337       0.00000000       0.00000000       0.01186203       0.06062697      -0.08141898       0.01654000
H        1.94836485       2.22056418       2.69022969       0.00000000       0.00000000      -0.00745127      -0.09906095       0.02574033       0.03752906
H        4.18367135       2.96029834       4.39565167       0.00000000       0.00000000      -0.10813166      -0.09985003      -0.02428767       0.05574682
H        3.18515602       1.82890591       5.27262607       0.00000000       0.00000000      -0.00002008       0.03761395       0.03276101       0.02069240
H        2.41399678       3.97993081       5.83301271       0.00000000       0.00000000       0.05292834      -0.01053786      -0.02170761       0.04120549
H        1.17962114       3.28166435       4.81122088       0.00000000       0.00000000      -0.02269234      -0.06802786      -0.04982382       0.00508342
H        1.44323219       5.56772914       4.23899450       0.00000000       0.00000000      -0.02117007       0.00283701      -0.04560717       0.02666175
H        2.07056430       4.63882193       2.87345098       0.00000000       0.00000000       0.00186300       0.00982479       0.02670941       0.02712669
H        3.99602801       5.58447948       5.01229775       0.00000000       0.00000000      -0.02244100      -0.01244971       0.01399578       0.03550857
H        3.37635648       6.75347423       3.85889265       0.00000000       0.00000000       0.00044262      -0.01873933      -0.00600654       0.03920388
H        4.15083051       5.33491901       1.98376258       0.00000000       0.00000000      -0.02534895       0.00859328      -0.08098915       0.02781696
H        4.83153717       4.18748207       3.10154356       0.00000000       0.00000000       0.04291533      -0.01315521       0.05572945       0.03203657
H        6.23768994       6.11227306       4.05564659       0.00000000       0.00000000       0.02674212      -0.00169526       0.01964241       0.03182059
H        5.74548373       7.03278778       2.63910472       0.00000000       0.00000000       0.00493978       0.02903384      -0.00101106       0.03662866
H        7.21931117       4.35563535       2.63332278       0.00000000       0.00000000       0.01798551       0.01009496      -0.01828096       0.02689236
H        7.90013467       5.91784291       2.18397931       0.00000000       0.00000000      -0.04153841      -0.00854968      -0.01916481       0.04062458
H        6.65263828       5.17226558       1.17466569       0.00000000       0.00000000       0.04165538       0.03840715       0.04079215       0.03629416
C        3.73851773       9.64330628       2.42985239       0.00000000       0.00000000      -0.01101481      -0.03473401      -0.01313155      -0.10209668
C        2.98564285       8.78548286       1.41863953       0.00000000       0.00000000      -0.00492830      -0.00045871      -0.01477616      -0.05105346
C        3.42996864       9.03446421      -0.02606141       0.00000000       0.00000000      -0.02883268       0.01200673       0.01306330      -0.06082301
C        4.74552962       8.37504182      -0.44092283       0.00000000       0.00000000      -0.00070869      -0.02173504       0.00534945      -0.05964558
C        4.73076135       6.84958936      -0.56577479       0.00000000       0.00000000      -0.03368039      -0.05362928      -0.02821731      -0.06186026
C        3.62622227       6.29844249      -1.47694990       0.00000000       0.00000000       0.00157740       0.00479377      -0.05438324      -0.06206705
C        2.43656711       5.73562761      -0.69702254       0.00000000       0.00000000       0.02709693       0.00764049      -0.04319434      -0.05804742
C        1.25299218       5.44244997      -1.61415240       0.00000000       0.00000000      -0.01577058      -0.00335886       0.01612501      -0.06449518
C       -0.00711298       5.08100879      -0.83008258       0.00000000       0.00000000      -0.03530135      -0.00213280      -0.01086949      -0.05297981
C       -1.18216071       4.82791975      -1.77190863       0.00000000       0.00000000       0.02116821       0.00920442       0.01386222      -0.07158500
C       -2.52928678       4.62396804      -1.07332062       0.00000000       0.00000000       0.06091785       0.04853714      -0.04786958      -0.07503983
C       -2.69335599       3.26988552      -0.38627067       0.00000000       0.00000000       0.02953297       0.03469807      -0.04105925      -0.01728517
N       -2.07576871       3.11065595       0.93895315       0.00000000       0.00000000      -0.04331406       0.00795753      -0.01065780      -0.03176587
C       -2.07185775       4.24534104       1.84988518       0.00000000       0.00000000      -0.00015019       0.01276008       0.01802819      -0.02208660
C       -3.48333326       4.79783180       2.10070800       0.00000000       0.00000000      -0.00362114       0.01718532       0.03491776      -0.07568358
C       -4.20101263       4.08118430       3.24484291       0.00000000       0.00000000      -0.00640766       0.01376750      -0.00593364      -0.06485755
C       -3.85716468       4.70918303       4.59950680       0.00000000       0.00000000      -0.04604914      -0.03422091      -0.01717048      -0.06735174
C       -4.11041705       3.76490879       5.77469895       0.00000000       0.00000000       0.03150366      -0.02177422       0.00199529      -0.06520183
C       -3.01337868       2.71409848       5.95516039       0.00000000       0.00000000       0.04283415      -0.01530560       0.01948691      -0.05465653
C       -1.63954783       3.28570354       6.31870548       0.00000000       0.00000000       0.02606977      -0.00020197       0.05998131      -0.05401079
C       -1.65824091       4.06164862       7.63742208       0.00000000       0.00000000      -0.01405325       0.04959209      -0.00257919      -0.06470142
C       -0.26050137       4.47635106       8.10595869       0.00000000       0.00000000      -0.03795196      -0.01079281      -0.03675971      -0.06118150
C        0.56198108       3.33643880       8.71840495       0.00000000       0.00000000      -0.01583103       0.02292974       0.03078912      -0.05739203
C        0.47454463       3.24847484      10.24410965       0.00000000       0.00000000      -0.03072931      -0.00682547       0.04520464      -0.05565339
C       -0.89031662       2.83479176      10.78506129       0.00000000       0.00000000       0.00411029      -0.00561834       0.00257082      -0.10276354
C       -1.68890927       1.88937707       1.25079852       0.00000000       0.00000000       0.02640810       0.00032686      -0.00135755       0.26053188
O       -1.83519802       0.92037990       0.46464567       0.00000000       0.00000000      -0.10153663       0.05673323       0.00087980      -0.38718479
C       -1.02674823       1.55228117       2.58647983       0.00000000       0.00000000      -0.01629493       0.02331620       0.00835349       0.05507927
O       -0.41699051       0.28376571       2.38291946       0.00000000       0.00000000       0.06393228       0.07159378      -0.04654884      -0.22702659
C        0.14935195      -0.23586028       3.58087576       0.00000000       0.00000000      -0.01359968      -0.01511762      -0.02711166       0.04035451
C        1.10128889      -1.38438265       3.16812400       0.00000000       0.00000000       0.04362456       0.00679508      -0.00400376       0.26559980
O        1.04928032      -1.74403143       1.97783304       0.00000000       0.00000000      -0.08047551       0.10744940       0.07787023      -0.41286899
N        1.95098896      -1.86607655       4.08633609       0.00000000       0.00000000      -0.03811499      -0.04717061      -0.01408732      -0.06539244
C        1.85054870      -1.50711562       5.50678922       0.00000000       0.00000000      -0.03072870      -0.04284360      -0.00052031      -0.02204816
C        1.04998860      -2.53407783       6.33900886       0.00000000       0.00000000       0.09121336      -0.00194782      -0.02476534      -0.07476710
C       -0.44754880      -2.47981126       6.03089456       0.00000000       0.00000000       0.08179662      -0.00155269       0.05055901      -0.07225354
C       -1.25131210      -3.74477746       6.35724842       0.00000000       0.00000000      -0.01453350      -0.00897659      -0.02301503      -0.06361299
C       -2.47442800      -3.87423734       5.43411099       0.00000000       0.00000000       0.00466896      -0.00102133      -0.01462706      -0.06289294
C       -2.21053535      -4.56018636       4.08558883       0.00000000       0.00000000      -0.01027056      -0.02002950       0.00039800      -0.06156947
C       -1.21882731      -3.82906861       3.18556748       0.00000000       0.00000000       0.00899188       0.01029322       0.00338349      -0.04983060
C       -1.08400629      -4.38472361       1.76783937       0.00000000       0.00000000      -0.04008337      -0.00185952      -0.03279946      -0.06228303
C       -0.57927359      -5.83452195       1.70107771       0.00000000       0.00000000       0.02412628       0.03972034       0.02027393      -0.05811856
C       -1.67450199      -6.85492621       1.35994489       0.00000000       0.00000000       0.05445798      -0.00149180      -0.01777623      -0.06381990
C       -1.75544109      -7.19116968      -0.12893258       0.00000000       0.00000000       0.00346813       0.04516014      -0.08341068      -0.05676608
C       -2.11489075      -6.00747113      -1.02166192       0.00000000       0.00000000      -0.02918356       0.01734060       0.00323690      -0.09965562
C        2.82789924      -3.04435276       3.87554962       0.00000000       0.00000000      -0.01255029      -0.04898104       0.05711993      -0.00962256
C        3.83672133      -3.07235672       2.70948088       0.00000000       0.00000000       0.01412467      -0.02113136       0.05444268      -0.07958584
C        5.29035627      -2.63851905       3.01602316       0.00000000       0.00000000      -0.05322015      -0.07330531       0.02203158      -0.07148770
C        6.26881927      -2.89035600       1.83021337       0.00000000       0.00000000       0.01750804      -0.02861088      -0.04642331      -0.07215760
C        7.02680900      -1.66170801       1.25119898       0.00000000       0.00000000      -0.08310768      -0.08389450       0.05285181      -0.07763629
C        7.06351229      -1.54543495      -0.29507297       0.00000000       0.00000000       0.05931063       0.01032397       0.03532011      -0.07478848
C        7.14544569      -0.09831519      -0.84203788       0.00000000       0.00000000      -0.03049683       0.06808584      -0.03160576      -0.06907972
C        5.97816494       0.50000948      -1.68191870       0.00000000       0.00000000       0.00316836      -0.03614419       0.05957692      -0.07842798
C        5.49475945      -0.28613759      -2.92344644       0.00000000       0.00000000      -0.01106891       0.00391089       0.16419357      -0.07774785
C        3.98384854      -0.27818045      -3.23011978       0.00000000       0.00000000       0.01674661       0.03550647      -0.10610419      -0.06737952
C        3.70725925      -0.55886801      -4.71429003       0.00000000       0.00000000       0.00510559      -0.02378736      -0.05605830      -0.05902090
C        2.35254681      -1.22956454      -4.94954177       0.00000000       0.00000000       0.01529444      -0.04661892      -0.00280631      -0.09810259
H        3.33833779       9.48572736       3.42970634       0.00000000       0.00000000       0.02623911       0.00631124       0.00821671       0.02804238
H        3.63482605      10.69738034       2.18418398       0.00000000       0.00000000       0.00102550      -0.00398140       0.00690961       0.03796296
H        4.79736335       9.39939012       2.44480696       0.00000000       0.00000000       0.01404893      -0.00327627      -0.01937398       0.03524016
H        1.91915342       9.02244463       1.49329883       0.00000000       0.00000000       0.03823343      -0.01411967       0.01247463       0.01912534
H        3.10828596       7.73156833       1.67682362       0.00000000       0.00000000       0.01025835       0.02824129      -0.02710431       0.02961903
H        3.54264792      10.11173833      -0.16067280       0.00000000       0.00000000      -0.02497086       0.03049379      -0.01673331       0.03582046
H        2.64111536       8.70983026      -0.70653899       0.00000000       0.00000000      -0.01471961      -0.01350280       0.01064869       0.03031073
H        5.52552889       8.64627495       0.26926928       0.00000000       0.00000000       0.05644971       0.05149710       0.04588121       0.03582359
H        5.03220310       8.78820522      -1.40902395       0.00000000       0.00000000       0.00487278       0.03721045      -0.04706060       0.03173235
H        4.62975695       6.40023324       0.41933647       0.00000000       0.00000000       0.00368036       0.03651392       0.01226146       0.03888082
H        5.70659867       6.54798486      -0.95431782       0.00000000       0.00000000      -0.02130263       0.02158184       0.00401269       0.02911163
H        4.02536902       5.50774298      -2.11555406       0.00000000       0.00000000       0.00067054      -0.01357511       0.02609870       0.03023335
H        3.27678814       7.09335578      -2.13778689       0.00000000       0.00000000       0.01020594      -0.00555703      -0.02005559       0.03866257
H        2.12801401       6.45027950       0.06794250       0.00000000       0.00000000      -0.00077022       0.00488555      -0.03311030       0.03818939
H        2.73784909       4.81156419      -0.19676979       0.00000000       0.00000000       0.01882353       0.00547509       0.03021941       0.02137791
H        1.50982635       4.63034331      -2.29606523       0.00000000       0.00000000       0.02045234      -0.01267086      -0.00480269       0.03703599
H        1.04364502       6.32914050      -2.21680826       0.00000000       0.00000000      -0.00469190      -0.01936291      -0.00098346       0.03908839
H       -0.24265947       5.91866010      -0.16682430       0.00000000       0.00000000      -0.01988190      -0.00879585      -0.00719946       0.03097364
H        0.17720583       4.19809657      -0.20828160       0.00000000       0.00000000       0.02697296       0.01954497      -0.00915546       0.00506080
H       -0.95999697       3.96094819      -2.40027746       0.00000000       0.00000000      -0.01142695       0.01995007       0.05729424       0.04847584
H       -1.26965022       5.69775307      -2.42783585       0.00000000       0.00000000      -0.04191129      -0.05999938       0.00808225       0.05484711
H       -3.30429925       4.66831376      -1.84122199       0.00000000       0.00000000      -0.01551520      -0.02368863       0.00682007       0.06208730
H       -2.71599364       5.44759152      -0.38787429       0.00000000       0.00000000       0.02405291       0.04119137      -0.01317219       0.06225882
H       -2.25232341       2.50574903      -1.03567999       0.00000000       0.00000000       0.00526721      -0.02593206       0.03378300       0.10872103
H       -3.75682483       3.03889862      -0.27254029       0.00000000       0.00000000      -0.00613339       0.02591240      -0.02147790       0.07055096
H       -1.43453179       5.02522370       1.43131756       0.00000000       0.00000000      -0.01557323      -0.00598483      -0.10821428       0.08709555
H       -1.62696623       3.94125971       2.79582494       0.00000000       0.00000000      -0.06002831       0.00730363       0.03360787       0.06268742
H       -4.07920650       4.73477163       1.19292121       0.00000000       0.00000000       0.02083755      -0.02654352       0.01776480       0.05979804
H       -3.40138649       5.85438332       2.35670243       0.00000000       0.00000000       0.01676667       0.02283635      -0.01577352       0.06665704
H       -3.94084792       3.01948205       3.23017147       0.00000000       0.00000000      -0.02936819       0.02948327       0.00231814       0.02413956
H       -5.27704010       4.15764926       3.08686459       0.00000000       0.00000000      -0.01269201      -0.06722480       0.04712915       0.04994928
H       -4.46941176       5.60184660       4.72792123       0.00000000       0.00000000      -0.00348927       0.02176016      -0.00823100       0.04519061
H       -2.81575529       5.03710834       4.60576382       0.00000000       0.00000000      -0.04072485      -0.05229639       0.01640863       0.03799992
H       -5.06650742       3.25663142       5.62888463       0.00000000       0.00000000       0.02493373       0.01724287      -0.02148241       0.03877400
H       -4.19416745       4.34759706       6.68991291       0.00000000       0.00000000      -0.00203041      -0.00171721       0.02136698       0.05095858
H       -2.93041132       2.12227122       5.03623372       0.00000000       0.00000000       0.01195216      -0.00412106       0.00509912       0.00090021
H       -3.31363244       2.02732600       6.74823189       0.00000000       0.00000000      -0.05046062       0.00266910       0.02070039       0.03795923
H       -1.27044246       3.93830037       5.52134320       0.00000000       0.00000000      -0.01319637      -0.01976124       0.04560541       0.01675807
H       -0.93177608       2.45598016       6.40719599       0.00000000       0.00000000      -0.01382475      -0.02277237      -0.01424886       0.01625325
H       -2.14315900       3.45527200       8.40318260       0.00000000       0.00000000       0.02076428       0.01915956      -0.05231291       0.04654711
H       -2.24682323       4.96964010       7.50239226       0.00000000       0.00000000      -0.03216604      -0.00843337       0.00383184       0.03621247
H       -0.35475192       5.27967467       8.84029110       0.00000000       0.00000000       0.00483601      -0.06319446      -0.03424561       0.04386963
H        0.27141264       4.88903570       7.24442846       0.00000000       0.00000000       0.02062720       0.01492669       0.02037896       0.02544522
H        1.61253724       3.49159959       8.46404592       0.00000000       0.00000000       0.02439076      -0.04217670      -0.02377325       0.02473038
H        0.25137760       2.38258053       8.28397247       0.00000000       0.00000000       0.03538686       0.00471706       0.02672749       0.02359018
H        0.74560221       4.21532578      10.67295771       0.00000000       0.00000000       0.01602604      -0.00397089      -0.02352193       0.03707221
H        1.21644827       2.52178584      10.58608770       0.00000000       0.00000000      -0.00542859       0.00524608      -0.00956042       0.02956322
H       -1.64715791       3.58876853      10.58008907       0.00000000       0.00000000       0.05103880      -0.01485372      -0.00951291       0.03844465
H       -0.83137422       2.71022180      11.86458050       0.00000000       0.00000000      -0.01209322      -0.00788768      -0.03477076       0.03958557
H       -1.20844473       1.88707131      10.35127237       0.00000000       0.00000000       0.00596143       0.03680988       0.00436957       0.02755709
H       -1.78967732       1.48248070       3.37581419       0.00000000       0.00000000      -0.01561128       0.01883560       0.02559331       0.08142928
H       -0.26419333       2.28910503       2.87205213       0.00000000       0.00000000      -0.02505402       0.01944007      -0.00597084       0.08611081
H       -0.65640446      -0.60521898       4.22407503       0.00000000       0.00000000      -0.03672293      -0.00892061      -0.00337358       0.08202111
H        0.66940674       0.56492822       4.11395489       0.00000000       0.00000000       0.08393342      -0.00548545      -0.05226547       0.08093219
H        1.39403371      -0.52377107       5.61690226       0.00000000       0.00000000       0.03217223      -0.07621768       0.02594199       0.05714886
H        2.87137221      -1.43899693       5.89448654       0.00000000       0.00000000      -0.04999631      -0.02200653      -0.01047060       0.07505976
H        1.22663756      -2.33237865       7.39716961       0.00000000       0.00000000       0.00169276       0.03212975      -0.07064323       0.06359532
H        1.42836900      -3.53660989       6.14009124       0.00000000       0.00000000       0.02046084      -0.01600518      -0.02713316       0.05362007
H       -0.55543997      -2.31480539       4.96746583       0.00000000       0.00000000       0.00070234      -0.02194166      -0.01661710       0.03872918
H       -0.87817985      -1.62617226       6.55417133       0.00000000       0.00000000      -0.10215476       0.03048274       0.01913508       0.03316710
H       -1.58885980      -3.70687211       7.39470171       0.00000000       0.00000000       0.05721198      -0.03319464      -0.05320438       0.04505451
H       -0.62834820      -4.63535593       6.24707700       0.00000000       0.00000000       0.00196040       0.05410022      -0.00317713       0.04153009
H       -2.89364214      -2.88009337       5.25085324       0.00000000       0.00000000      -0.00258225      -0.02408459       0.05413561       0.02739969
H       -3.24010077      -4.45615122       5.94929273       0.00000000       0.00000000       0.01451359      -0.00595047      -0.00948700       0.04671976
H       -3.16443188      -4.63093370       3.55877389       0.00000000       0.00000000      -0.02885768      -0.03388267       0.01469033       0.03584612
H       -1.85569956      -5.57580506       4.26085938       0.00000000       0.00000000      -0.01058501      -0.02042131       0.03704730       0.04238580
H       -0.23115883      -3.84931894       3.64480329       0.00000000       0.00000000       0.05916624      -0.04581562       0.01348305       0.02352924
H       -1.53159486      -2.78513477       3.08336116       0.00000000       0.00000000      -0.02151594       0.03620095      -0.00171141       0.01228131
H       -0.39264171      -3.71231359       1.24752940       0.00000000       0.00000000      -0.03370996      -0.03527222      -0.01877796       0.02452677
H       -2.05286353      -4.31380861       1.27598578       0.00000000       0.00000000      -0.02028715       0.02564431      -0.04941211       0.04095281
H       -0.13527389      -6.09236357       2.66392992       0.00000000       0.00000000      -0.00071554      -0.01494098      -0.00019231       0.03430084
H        0.22102630      -5.91862682       0.95888748       0.00000000       0.00000000      -0.04660632      -0.01558839       0.02909337       0.01997225
H       -2.64232551      -6.48966010       1.70479285       0.00000000       0.00000000       0.00732081       0.00378302       0.00899299       0.04125991
H       -1.47295092      -7.78784142       1.88693535       0.00000000       0.00000000       0.00755037      -0.01249194       0.04210143       0.03936870
H       -2.50482773      -7.97219667      -0.26289759       0.00000000       0.00000000      -0.00877199      -0.01123993      -0.01528364       0.04123831
H       -0.79610376      -7.59646714      -0.45745551       0.00000000       0.00000000       0.01225588      -0.03188302       0.01601125       0.03497990
H       -3.07652347      -5.58683880      -0.73300291       0.00000000       0.00000000       0.00698941      -0.02603811      -0.01113989       0.03474255
H       -2.18017989      -6.33305981      -2.06066208       0.00000000       0.00000000       0.00281833       0.02055546       0.07457750       0.02845952
H       -1.36020769      -5.22558097      -0.94622868       0.00000000       0.00000000      -0.02981491      -0.07888687       0.01385877       0.01646195
H        2.17921740      -3.91740865       3.74981189       0.00000000       0.00000000      -0.07575737       0.06851808       0.01506989       0.06231180
H        3.38767109      -3.17260481       4.80427747       0.00000000       0.00000000      -0.08506263      -0.02361376      -0.04053737       0.07569601
H        3.40449526      -2.51612198       1.88959162       0.00000000       0.00000000      -0.03959095       0.05306373       0.06680045       0.06790292
H        3.89754537      -4.12173538       2.40693294       0.00000000       0.00000000      -0.01203687       0.03639154      -0.03240636       0.04559157
H        5.63309466      -3.23713949       3.86273219       0.00000000       0.00000000      -0.03410156       0.04910938       0.01182821       0.04370500
H        5.33624155      -1.59713347       3.33494458       0.00000000       0.00000000       0.02323389      -0.06266305      -0.01736013       0.04518674
H        5.72942478      -3.39145031       1.02773124       0.00000000       0.00000000      -0.04393275      -0.03713830       0.05253344       0.03012308
H        7.00368015      -3.62402356       2.16145951       0.00000000       0.00000000       0.06006542       0.06369251       0.01659957       0.04686144
H        8.05668133      -1.70831873       1.60542114       0.00000000       0.00000000      -0.01319784       0.06876421      -0.00292670       0.04632471
H        6.60454095      -0.75248229       1.66974040       0.00000000       0.00000000       0.02042232      -0.03151875       0.03535568       0.04486466
H        6.20645436      -2.02820609      -0.74359648       0.00000000       0.00000000       0.02878636      -0.08521009       0.02959950       0.03819110
H        7.93820431      -2.09643452      -0.64673572       0.00000000       0.00000000      -0.01282620       0.02549166       0.01555087       0.03659127
H        8.05551617      -0.02557624      -1.43548815       0.00000000       0.00000000      -0.00223405       0.04507893      -0.10168137       0.04178155
H        7.27711302       0.58221033       0.00226485       0.00000000       0.00000000       0.08898792       0.02917954      -0.04685340       0.03550122
H        6.34960502       1.46834525      -2.02502312       0.00000000       0.00000000      -0.07152080      -0.03704729       0.05038801       0.05099060
H        5.13218252       0.72664851      -1.03529843       0.00000000       0.00000000       0.05113750       0.01443807      -0.00928291       0.03752834
H        5.81056855      -1.32349654      -2.84563582       0.00000000       0.00000000       0.09079131      -0.05439033       0.01053462       0.04074659
H        5.98861745       0.12493260      -3.79806587       0.00000000       0.00000000      -0.03270421       0.06649159       0.02790157       0.05406258
H        3.52723750       0.66811376      -2.94120354       0.00000000       0.00000000       0.04109475       0.08382317       0.00579943       0.04219780
H        3.47418443      -1.06903496      -2.68424107       0.00000000       0.00000000      -0.02303202       0.08212739      -0.01854008       0.01689090
H        4.48959755      -1.21850295      -5.09866741       0.00000000       0.00000000      -0.04301617       0.03993646      -0.05506833       0.04014146
H        3.74362997       0.36452729      -5.29023351       0.00000000       0.00000000       0.07006756       0.05127149       0.02798971       0.04117718
H        2.35926806      -2.25832012      -4.58411912       0.00000000       0.00000000       0.01829211       0.04198534       0.05732487       0.01255603
H        2.13657260      -1.26466386      -6.01516245       0.00000000       0.00000000       0.00163973       0.02027187       0.00447743       0.03902632
H        1.54541919      -0.69263367      -4.45200195       0.00000000       0.00000000       0.06642300       0.07078783       0.04665006       0.02534987
N        1.20881245       1.90998866      -0.76590435       0.00000000       0.00000000       0.06635724       0.06033064       0.00184542       0.79314965
O        2.26829387       2.24393623      -1.19417770       0.00000000       0.00000000      -0.08603214      -0.03312655      -0.04027040      -0.39153059
O        1.06015477       1.69025659       0.45837002       0.00000000       0.00000000      -0.09884299      -0.09037246       0.04347299      -0.48040705
O        0.21613966       1.75888009      -1.46699746       0.00000000       0.00000000       0.04077396       0.05246736      -0.00425277      -0.41411874
