149
Properties=species:S:1:pos:R:3:initial_charges:R:1:initial_magmoms:R:1:forces:R:3:charge:R:1 energy=-5046.150703434309 free_energy=-5046.150703434309 dipole="0.3399033961626847 -0.4041297859905648 -0.045157059854823704" pbc="F F F"
Ho      -0.08303600      -0.05613604      -0.04874470       3.00000000       0.00000000       0.03571300      -0.05053804       0.01400454       0.84842400
C       -2.84329921      -6.05294531      -2.25608122       0.00000000       0.00000000      -0.01551561      -0.02005572       0.00165068      -0.11464652
C       -1.84725486      -4.94088353      -2.56064257       0.00000000       0.00000000      -0.01811283       0.01777959       0.02959101      -0.05410734
C       -0.83588453      -5.37900334      -3.61784163       0.00000000       0.00000000      -0.04532799      -0.03291320       0.03006586      -0.07392635
C        0.20103517      -4.31747970      -3.98391806       0.00000000       0.00000000       0.01221159      -0.03232535       0.01149030      -0.06557873
C       -0.41483103      -3.06545006      -4.60747054       0.00000000       0.00000000      -0.04625705       0.00612905       0.00999575      -0.06701176
C        0.64400211      -2.13711676      -5.19648564       0.00000000       0.00000000       0.03415048      -0.00840986       0.01267295      -0.07007142
C        0.07202539      -0.90727246      -5.90115338       0.00000000       0.00000000      -0.03710263       0.01365915       0.00544153      -0.07901325
C       -0.36116705       0.22693124      -4.96918866       0.00000000       0.00000000      -0.05608176       0.02922859       0.07742709      -0.02304717
N       -1.53080595      -0.07855120      -4.13838700       0.00000000       0.00000000       0.01749822       0.01005339      -0.04277930      -0.01179695
C       -2.74386473      -0.36620828      -4.88024296       0.00000000       0.00000000       0.06777507       0.03421119       0.01924260      -0.09183761
C       -1.46079059      -0.00541425      -2.82723477       0.00000000       0.00000000       0.05073454       0.00366079       0.12671726       0.24965508
O       -0.42503537       0.33196412      -2.19363605       0.00000000       0.00000000      -0.05212155      -0.04619956      -0.07699678      -0.38523902
C       -2.70055549      -0.39226758      -1.99810267       0.00000000       0.00000000      -0.08099563      -0.00470642      -0.08761144       0.03264672
O       -2.44023057      -0.25202785      -0.59923302       0.00000000       0.00000000      -0.00304261       0.07790252      -0.04837485      -0.20977407
C       -3.24953271       0.70136211       0.08887361       0.00000000       0.00000000      -0.10723324      -0.00374743       0.02345296       0.02843573
C       -2.42249830       1.89955687       0.57724195       0.00000000       0.00000000      -0.07320996      -0.00343469       0.09525306       0.24992976
O       -1.18425441       1.90153390       0.35920930       0.00000000       0.00000000       0.09225612      -0.09615525       0.03803016      -0.38494487
N       -3.07750299       2.82381558       1.25515326       0.00000000       0.00000000       0.12636173      -0.09803694      -0.08581257      -0.01906103
C       -4.48171782       2.66564536       1.58107902       0.00000000       0.00000000       0.04594842       0.00854298      -0.02738318      -0.08981523
C       -2.41116507       4.02214328       1.76439880       0.00000000       0.00000000      -0.00534795      -0.07387144      -0.02005921      -0.02200747
C       -3.04739785       5.30958843       1.23090759       0.00000000       0.00000000      -0.00376605      -0.01698862       0.05192637      -0.07620570
C       -3.01712729       5.44061263      -0.29478899       0.00000000       0.00000000       0.00174302      -0.02648983      -0.02601936      -0.06309840
C       -1.81033712       6.21523922      -0.81897255       0.00000000       0.00000000       0.01424037       0.02804959      -0.02146414      -0.06983651
C       -0.46791975       5.53261655      -0.58049339       0.00000000       0.00000000       0.03825946      -0.00758473       0.00814136      -0.05669761
C        0.66648752       6.35543011      -1.18597466       0.00000000       0.00000000       0.02730576       0.04134553      -0.01810258      -0.06715739
C        2.05050089       5.75854637      -0.94411849       0.00000000       0.00000000       0.02731767      -0.00652290      -0.00338134      -0.05870850
C        2.29672735       4.48942227      -1.75049994       0.00000000       0.00000000       0.01124566      -0.04130077      -0.02046559      -0.09941324
H       -3.55946715      -5.73495185      -1.50135310       0.00000000       0.00000000       0.01127880      -0.01980722      -0.01560164       0.03889777
H       -3.38918131      -6.32741506      -3.15411401       0.00000000       0.00000000      -0.01426543      -0.00150682       0.00845003       0.05397945
H       -2.32765345      -6.93771227      -1.89235124       0.00000000       0.00000000      -0.00888960       0.00996538       0.00809128       0.05102353
H       -2.39736971      -4.06228149      -2.91073970       0.00000000       0.00000000       0.00786924      -0.00990522       0.01591215       0.01352096
H       -1.32557277      -4.67387467      -1.63477303       0.00000000       0.00000000       0.00012273      -0.01123451      -0.01449468       0.01058172
H       -0.31793267      -6.26773422      -3.25408445       0.00000000       0.00000000       0.01800903       0.00852400      -0.00571088       0.05229479
H       -1.37599727      -5.67045810      -4.51977462       0.00000000       0.00000000       0.00970590       0.01773858       0.00689772       0.05595680
H        0.79240269      -4.04468544      -3.10257227       0.00000000       0.00000000       0.01846157       0.01816207       0.04505554       0.00542761
H        0.88954582      -4.76261724      -4.70164722       0.00000000       0.00000000       0.03268314       0.00815632      -0.03533011       0.05705003
H       -1.09170784      -3.37894394      -5.40361490       0.00000000       0.00000000      -0.00236271      -0.01315498      -0.01199185       0.05222613
H       -1.00222466      -2.53164254      -3.85669578       0.00000000       0.00000000      -0.02209810       0.02410467       0.04043383       0.00368269
H        1.33883770      -1.82163258      -4.41470465       0.00000000       0.00000000       0.01044073       0.03303210       0.04080871       0.03130770
H        1.21412701      -2.70801513      -5.92970880       0.00000000       0.00000000       0.03016806       0.00127069      -0.00505462       0.06339245
H        0.84554120      -0.49177126      -6.54710378       0.00000000       0.00000000      -0.01079560       0.01886506       0.02723366       0.08205666
H       -0.74846460      -1.20547801      -6.55137010       0.00000000       0.00000000       0.00671312      -0.01306577      -0.04209252       0.06567683
H        0.46230969       0.48065504      -4.29919817       0.00000000       0.00000000      -0.05028906      -0.00495113       0.04006327       0.08797445
H       -0.60325348       1.10943565      -5.56858110       0.00000000       0.00000000      -0.01369962      -0.03589391      -0.00330633       0.08433746
H       -2.99816736       0.49902893      -5.49194091       0.00000000       0.00000000      -0.02069978       0.03898576      -0.04233544       0.10566072
H       -2.57098716      -1.20731131      -5.54783484       0.00000000       0.00000000      -0.01688927      -0.03770575      -0.00505917       0.11405446
H       -3.58475587      -0.60518683      -4.24029361       0.00000000       0.00000000       0.01870784      -0.00598563      -0.04142045       0.07549899
H       -3.55359864       0.22442770      -2.29784199       0.00000000       0.00000000       0.00428799       0.00423762       0.04719552       0.09841255
H       -2.94331475      -1.44902436      -2.18016375       0.00000000       0.00000000       0.00399377      -0.01633921       0.04264431       0.11397750
H       -4.08195155       1.04826366      -0.53334035       0.00000000       0.00000000       0.04118680      -0.02659903      -0.00735355       0.09999592
H       -3.67021166       0.19104690       0.96544725       0.00000000       0.00000000      -0.03077626      -0.05688146      -0.04116744       0.11270208
H       -4.64334411       1.72617350       2.11075487       0.00000000       0.00000000      -0.08691295       0.05913163       0.05302076       0.07684866
H       -4.79084194       3.48713566       2.21972741       0.00000000       0.00000000       0.01187525      -0.02275304       0.05271173       0.12034518
H       -5.11301302       2.68191495       0.69338232       0.00000000       0.00000000      -0.00736889       0.03564835      -0.03089881       0.08862306
H       -2.48224756       3.99805517       2.85696335       0.00000000       0.00000000       0.01310088       0.05878694      -0.03782385       0.07379871
H       -1.36361164       3.96270446       1.46932509       0.00000000       0.00000000      -0.02790444      -0.04797689      -0.00083102       0.09010040
H       -4.07705664       5.37163350       1.58022657       0.00000000       0.00000000      -0.02227886       0.03082916       0.01039328       0.05876513
H       -2.51353703       6.15106086       1.67182049       0.00000000       0.00000000       0.00683404      -0.01257529       0.03363056       0.08129223
H       -3.04399241       4.44743573      -0.75070680       0.00000000       0.00000000       0.00035369      -0.01769349      -0.04942713       0.01745992
H       -3.91138448       5.97502093      -0.61738324       0.00000000       0.00000000      -0.00673980      -0.03195307       0.01800111       0.05802043
H       -1.93210681       6.36682110      -1.89275877       0.00000000       0.00000000      -0.03231624      -0.00101086      -0.01340876       0.04753315
H       -1.80023608       7.20205752      -0.35527346       0.00000000       0.00000000       0.01707429       0.01456641       0.00440530       0.05280734
H       -0.27727504       5.43479327       0.48918896       0.00000000       0.00000000       0.00290052       0.03055545       0.04199888       0.02569886
H       -0.48921139       4.52779577      -1.01381917       0.00000000       0.00000000       0.00361598      -0.01031611      -0.01867894       0.01686090
H        0.50482136       6.47261268      -2.25861216       0.00000000       0.00000000       0.00990439      -0.01458032      -0.01292080       0.04360972
H        0.63808455       7.35082645      -0.74211360       0.00000000       0.00000000      -0.00305665       0.02906804      -0.00170526       0.04936606
H        2.80304378       6.49429382      -1.23124137       0.00000000       0.00000000      -0.01682890      -0.00533097       0.01463940       0.05306547
H        2.18239630       5.55169448       0.12116477       0.00000000       0.00000000      -0.01848023       0.00632223      -0.00229997       0.02812046
H        2.19196503       4.69932586      -2.81249765       0.00000000       0.00000000      -0.00897461      -0.01112477       0.01751396       0.05171008
H        3.31026385       4.13192627      -1.57367449       0.00000000       0.00000000      -0.02251155      -0.01045734       0.00260277       0.02490888
H        1.58325228       3.70309178      -1.48583525       0.00000000       0.00000000       0.01125965       0.00310684       0.00873738       0.00830164
C        5.08706757      -5.64087587       2.07524213       0.00000000       0.00000000       0.00564587      -0.02042103      -0.00176428      -0.11174347
C        4.28126537      -4.85339069       1.05005791       0.00000000       0.00000000       0.01793309       0.03233918      -0.02543716      -0.05042468
C        3.18598158      -5.67134593       0.35063849       0.00000000       0.00000000       0.07634638       0.04217792      -0.03549941      -0.06257149
C        2.15579752      -6.35930154       1.25250781       0.00000000       0.00000000       0.04100483      -0.00159681      -0.01243062      -0.07012197
C        0.99394915      -5.48872047       1.73226553       0.00000000       0.00000000      -0.03728887      -0.00070799       0.00671808      -0.05937937
C        1.39062410      -4.39433710       2.71873597       0.00000000       0.00000000       0.03417403       0.01230171       0.00327737      -0.06768506
C        0.18432204      -3.59172796       3.19267938       0.00000000       0.00000000      -0.03412228       0.01103845      -0.01777157      -0.07245619
C        0.57141184      -2.46953537       4.15509481       0.00000000       0.00000000       0.05329423       0.01832951       0.02392329      -0.02230365
N        1.58927063      -1.49604780       3.71520021       0.00000000       0.00000000       0.02441722       0.02240781      -0.06132011      -0.02991086
C        2.55753032      -1.18275895       4.75043965       0.00000000       0.00000000      -0.05777460      -0.03648842      -0.04993924      -0.09052438
C        1.55486877      -0.90408207       2.53600252       0.00000000       0.00000000      -0.03057433      -0.03741176       0.01010693       0.25066527
O        0.80936094      -1.28413663       1.60316724       0.00000000       0.00000000      -0.07789252       0.01710000       0.02146572      -0.38452496
C        2.38632477       0.37018646       2.28218105       0.00000000       0.00000000       0.11364790      -0.06402814       0.07994437       0.03276308
O        1.90485224       1.00981799       1.09375965       0.00000000       0.00000000      -0.13596684       0.00635639       0.01579083      -0.21785366
C        2.86477091       1.14715312       0.03953470       0.00000000       0.00000000       0.08025800       0.07504333      -0.07014552       0.03344510
C        2.96939306      -0.16411981      -0.74650212       0.00000000       0.00000000      -0.12686469      -0.03481608      -0.03899566       0.24589407
O        1.88670749      -0.78590312      -0.91562551       0.00000000       0.00000000       0.02683253       0.05103179       0.01482477      -0.39047300
N        4.12574793      -0.60776142      -1.18886299       0.00000000       0.00000000       0.09931679      -0.04298773      -0.01949391      -0.01490719
C        4.19759478      -1.89619956      -1.85972827       0.00000000       0.00000000      -0.01877488       0.05837338      -0.00390654      -0.07665148
C        5.37876932       0.13950827      -1.10442984       0.00000000       0.00000000      -0.00479674      -0.01263960       0.00467692      -0.03318372
C        5.41933880       1.36402216      -2.02623604       0.00000000       0.00000000       0.03046125       0.01574611      -0.00873302      -0.07593809
C        5.48233616       1.00194223      -3.51170193       0.00000000       0.00000000       0.01276683      -0.03649365      -0.00340709      -0.06641012
C        5.65677839       2.24716993      -4.39169056       0.00000000       0.00000000       0.03624680      -0.04124937       0.01590576      -0.06902154
C        4.37733815       3.07459638      -4.54570862       0.00000000       0.00000000      -0.02595247      -0.00082493      -0.00552929      -0.06332355
C        3.53431737       2.78031456      -5.78840284       0.00000000       0.00000000      -0.01229266      -0.00251510      -0.05468006      -0.06719290
C        2.94509830       1.36916078      -5.88837930       0.00000000       0.00000000      -0.01705138      -0.01743434      -0.01584882      -0.05024457
C        3.85906672       0.36745280      -6.58612589       0.00000000       0.00000000       0.01646397      -0.02443230      -0.02780341      -0.11356682
H        5.89364090      -5.02531565       2.46786015       0.00000000       0.00000000      -0.00897142      -0.02306955      -0.00457273       0.03999863
H        5.52612436      -6.52379103       1.62077962       0.00000000       0.00000000      -0.00818896      -0.00966283      -0.02339384       0.05531206
H        4.46864022      -5.95937472       2.90903508       0.00000000       0.00000000       0.01141527       0.01504623       0.02469757       0.04070682
H        4.97307901      -4.49604338       0.28121417       0.00000000       0.00000000      -0.03614172      -0.02463625      -0.03443054       0.02242660
H        3.86030356      -3.96829529       1.53419946       0.00000000       0.00000000       0.01180645       0.01322337      -0.03293222       0.00626112
H        3.69235554      -6.44832070      -0.22528891       0.00000000       0.00000000      -0.02094324      -0.00828216       0.02693113       0.05215848
H        2.66572964      -5.02917662      -0.37119082       0.00000000       0.00000000       0.01970458      -0.01132137       0.04516180       0.00972168
H        2.66058392      -6.79756901       2.11046367       0.00000000       0.00000000      -0.01338811      -0.00205434       0.03366554       0.05946849
H        1.72169276      -7.18627235       0.68927278       0.00000000       0.00000000      -0.00155071      -0.00946946      -0.02719958       0.05093571
H        0.26839090      -6.14110509       2.22146845       0.00000000       0.00000000      -0.02155840      -0.00642999      -0.01289032       0.04952448
H        0.49246017      -5.04085687       0.86631453       0.00000000       0.00000000       0.01941544       0.02130816      -0.01727919       0.00956649
H        2.09588329      -3.71167783       2.24977406       0.00000000       0.00000000       0.01957230       0.04444481      -0.05226470       0.03444039
H        1.88275026      -4.85376495       3.57549410       0.00000000       0.00000000       0.01435701      -0.01291033       0.01841083       0.05629547
H       -0.49530658      -4.24955636       3.73798600       0.00000000       0.00000000      -0.00141392       0.00869639      -0.00002926       0.07252340
H       -0.35913673      -3.20138082       2.32823503       0.00000000       0.00000000       0.00704004       0.04196192      -0.02754547       0.04375588
H        0.97455867      -2.92699833       5.05806086       0.00000000       0.00000000      -0.03234096      -0.02995138       0.01619558       0.10004553
H       -0.32547347      -1.90462147       4.43653438       0.00000000       0.00000000       0.04376759      -0.00546535       0.03288707       0.05689108
H        3.07420796      -2.10295082       5.02653437       0.00000000       0.00000000       0.00221682       0.01855315       0.08251689       0.11302634
H        2.03998461      -0.79001942       5.62689747       0.00000000       0.00000000       0.07906631      -0.00795874       0.03725203       0.10077034
H        3.30286880      -0.46880688       4.42266296       0.00000000       0.00000000      -0.00185026       0.04262279      -0.01549191       0.08106035
H        3.45003997       0.13685284       2.18970713       0.00000000       0.00000000       0.05275049      -0.07059091      -0.02160005       0.09631161
H        2.25647964       1.06328686       3.12622613       0.00000000       0.00000000      -0.05221025       0.03995414      -0.12068385       0.10584995
H        3.82571198       1.49557436       0.42110073       0.00000000       0.00000000       0.01784574       0.04435234       0.13165469       0.09729111
H        2.44553173       1.91770345      -0.62755409       0.00000000       0.00000000       0.01761655       0.02778297       0.02983910       0.13171084
H        3.20959571      -2.35001670      -1.89442768       0.00000000       0.00000000       0.00436633       0.04619869       0.01723040       0.09212422
H        4.87515814      -2.55378098      -1.31277720       0.00000000       0.00000000      -0.01449523       0.03988350      -0.02837497       0.09552642
H        4.57017120      -1.76513769      -2.87383788       0.00000000       0.00000000       0.03435465      -0.01176757      -0.01751772       0.10361996
H        6.17980906      -0.54166707      -1.39346252       0.00000000       0.00000000      -0.00866537      -0.00910513       0.01262944       0.10213458
H        5.56143863       0.43771708      -0.06698592       0.00000000       0.00000000       0.00688652       0.00018564      -0.05175760       0.06039659
H        6.31160245       1.93642606      -1.77137346       0.00000000       0.00000000       0.03180567      -0.00976077       0.01732517       0.07696560
H        4.55507113       2.00425610      -1.84195365       0.00000000       0.00000000       0.03334072      -0.01460642      -0.00217718       0.03487831
H        4.57169837       0.47276108      -3.79395464       0.00000000       0.00000000       0.00350227       0.01843834      -0.00818428       0.03835034
H        6.32957492       0.33226113      -3.67420788       0.00000000       0.00000000       0.01221201       0.03293897       0.00085786       0.04593621
H        6.01027212       1.96150711      -5.38182655       0.00000000       0.00000000       0.00985660      -0.04276721       0.04110431       0.06278952
H        6.44071699       2.86247029      -3.94672368       0.00000000       0.00000000      -0.02192624       0.01590390      -0.00562510       0.04587639
H        4.64850048       4.12907576      -4.59720924       0.00000000       0.00000000       0.01340015       0.01769985       0.03027380       0.04720989
H        3.75318835       2.94142966      -3.66098889       0.00000000       0.00000000      -0.05016320       0.01508353       0.02116066       0.01870402
H        4.12252717       2.97654259      -6.68486454       0.00000000       0.00000000       0.03446912       0.00613995       0.02240796       0.05536864
H        2.70737154       3.49616590      -5.78750513       0.00000000       0.00000000       0.03204879      -0.00200620      -0.00503331       0.03168834
H        2.02061292       1.43152341      -6.46802022       0.00000000       0.00000000       0.01712764       0.03737796       0.00150973       0.02400670
H        2.67647906       1.00829324      -4.88930165       0.00000000       0.00000000       0.01237249       0.01090035      -0.00480417       0.00516697
H        4.10630221       0.72558809      -7.58114765       0.00000000       0.00000000      -0.01079309       0.00135055      -0.01795241       0.05299193
H        3.36828961      -0.59864718      -6.69129208       0.00000000       0.00000000      -0.02019947       0.00008784       0.01608817       0.02735586
H        4.78682370       0.21706047      -6.04575081       0.00000000       0.00000000       0.00546954      -0.01067569      -0.00774524       0.04425357
O       -1.44527322      -0.26505707       2.30033187       0.00000000       0.00000000      -0.09001784       0.03712003      -0.09757405      -0.51595430
H       -1.74081249      -1.15656025       2.53814689       0.00000000       0.00000000      -0.03308922       0.01872463       0.01032812       0.34716117
H       -1.26748459       0.18749284       3.13626687       0.00000000       0.00000000      -0.05428145       0.01936259      -0.05402118       0.33659425
O       -0.39895121      -2.38875050      -0.77076255       0.00000000       0.00000000      -0.00663273      -0.02522910       0.00939555      -0.49693690
H        0.09312810      -2.98286824      -0.17841784       0.00000000       0.00000000       0.00111178      -0.03398536       0.01757259       0.36001983
H       -0.25948667      -2.76902256      -1.65986979       0.00000000       0.00000000      -0.05458963       0.04462903       0.03187547       0.36234355
