394
Properties=species:S:1:pos:R:3:initial_charges:R:1:initial_magmoms:R:1:forces:R:3:charge:R:1 energy=-12327.642962563341 free_energy=-12327.642962563341 dipole="-0.5992127874344115 0.1940962196968477 1.542969362652182" pbc="F F F"
La      -0.08638742       0.00427867       0.15422756       3.00000000       0.00000000       0.01167199       0.00501473      -0.07471542       0.81548558
C       -9.05365711       4.22773802      -2.11742012       0.00000000       0.00000000      -0.00715720       0.00190444       0.00200258      -0.10692791
C       -7.98794028       5.31511996      -2.07220382       0.00000000       0.00000000       0.00888798       0.01316110       0.01142671      -0.05520346
C       -7.65028825       5.70909740      -0.63485030       0.00000000       0.00000000      -0.02720500      -0.01091340      -0.00967343      -0.06330783
C       -6.56429908       6.78334627      -0.53195218       0.00000000       0.00000000      -0.08789465      -0.00373739       0.00353303      -0.06509151
C       -5.17773430       6.34661067      -1.00725447       0.00000000       0.00000000      -0.00342020       0.02170318      -0.01936155      -0.06198436
C       -4.63544079       5.21964397      -0.13798036       0.00000000       0.00000000       0.04331514      -0.04598062       0.01376512      -0.06671565
C       -3.18077951       4.83041952      -0.38636177       0.00000000       0.00000000       0.03516586      -0.06495065      -0.00587003      -0.07091050
C       -2.87096748       4.10145296      -1.70041137       0.00000000       0.00000000      -0.03718266       0.02568366      -0.02292930      -0.01431488
N       -3.56373662       2.81808281      -1.76837873       0.00000000       0.00000000      -0.04856160       0.02865715       0.00147372      -0.05067590
C       -4.88734808       2.86946804      -2.37878065       0.00000000       0.00000000       0.00768431       0.00504630      -0.03407294      -0.02285575
C       -4.86726900       2.50167273      -3.87044499       0.00000000       0.00000000      -0.07048261      -0.02768086       0.07553076      -0.07668141
C       -4.22334225       3.53011308      -4.80089832       0.00000000       0.00000000      -0.00114130      -0.07716397       0.08701286      -0.06229031
C       -4.23159933       2.99879757      -6.23684364       0.00000000       0.00000000      -0.00374999      -0.01198206      -0.01476663      -0.06790800
C       -3.14003200       1.95365007      -6.49469158       0.00000000       0.00000000      -0.01448333      -0.05627400      -0.04312869      -0.05943570
C       -3.53342515       0.95119685      -7.57982426       0.00000000       0.00000000      -0.06997775       0.00210026      -0.02374733      -0.06369599
C       -2.46132050      -0.11246405      -7.81015645       0.00000000       0.00000000      -0.02987482       0.05617262       0.02165481      -0.05346177
C       -2.91529501      -1.16724624      -8.81092877       0.00000000       0.00000000      -0.00702668       0.00532769      -0.01518249      -0.10640214
C       -2.96125978       1.73510228      -1.27949551       0.00000000       0.00000000       0.13862665       0.00308008       0.01129225       0.25406956
O       -1.73739877       1.71471562      -1.01361464       0.00000000       0.00000000       0.05849335       0.01857254       0.03951932      -0.37824116
C       -3.79208507       0.50382227      -0.89361736       0.00000000       0.00000000      -0.02329429      -0.05202117      -0.05273894       0.09039214
C       -4.41081351      -0.28321917      -2.06638452       0.00000000       0.00000000       0.02511049      -0.00585628      -0.02841134      -0.08976640
C       -3.46858674      -0.79777748      -3.15255977       0.00000000       0.00000000       0.11077198      -0.00358956       0.07258967      -0.04784111
C       -4.28995472      -1.57354724      -4.18343734       0.00000000       0.00000000       0.04248984       0.03763489       0.06273967      -0.11244102
O       -2.92385980      -0.27269066      -0.05455552       0.00000000       0.00000000      -0.01040650      -0.09103210      -0.02719094      -0.24618682
C       -3.60085909      -0.99420400       0.97669548       0.00000000       0.00000000      -0.08053320      -0.03966508       0.01171005       0.08401372
C       -4.19780577      -2.30674510       0.43984490       0.00000000       0.00000000      -0.01655322      -0.06930370       0.03714716      -0.08404005
C       -5.72713340      -2.34408434       0.35554376       0.00000000       0.00000000      -0.03797241      -0.08559083      -0.01013932      -0.06259066
C       -6.18967200      -3.69778241      -0.17570327       0.00000000       0.00000000      -0.03705689      -0.04140729      -0.01924546      -0.11240048
C       -2.59975843      -1.18535442       2.13034448       0.00000000       0.00000000      -0.06925972      -0.04268347      -0.01225489       0.25515282
O       -1.38478238      -0.99934556       1.92424112       0.00000000       0.00000000       0.01387544      -0.00158196      -0.07040013      -0.35664134
N       -3.06768882      -1.48070701       3.34594942       0.00000000       0.00000000       0.00999918       0.01252123      -0.04375528      -0.05687956
C       -4.40280945      -1.98867061       3.62759997       0.00000000       0.00000000       0.01095070       0.02947714       0.02508859      -0.02798041
C       -4.45410539      -3.14408666       4.63558025       0.00000000       0.00000000      -0.01208216      -0.05902015      -0.00484908      -0.07108427
C       -4.03683460      -4.50335458       4.06738661       0.00000000       0.00000000      -0.00783899      -0.00384235       0.01323117      -0.06914657
C       -2.52842561      -4.73503896       3.91628601       0.00000000       0.00000000      -0.06474726       0.02328733       0.02541014      -0.05505106
C       -2.25158619      -6.23617125       3.78896763       0.00000000       0.00000000      -0.05840215       0.03073377       0.02209809      -0.06298815
C       -0.78538093      -6.66720957       3.70537610       0.00000000       0.00000000      -0.05603312      -0.03165492       0.00550834      -0.06816890
C       -0.06304340      -6.20091156       2.44329316       0.00000000       0.00000000      -0.01382918       0.02291343      -0.00505560      -0.06270557
C        0.58766110      -4.83862287       2.61259178       0.00000000       0.00000000       0.04635569       0.03591578       0.02689225      -0.10137376
C       -2.30132406      -1.05716647       4.51230024       0.00000000       0.00000000       0.00734615       0.02621529      -0.03778528      -0.01718662
C       -2.95860257       0.17621508       5.14369693       0.00000000       0.00000000      -0.03841808       0.02350238      -0.03187103      -0.06946453
C       -2.37289202       0.56578310       6.49641348       0.00000000       0.00000000       0.00223596       0.01129197      -0.04938472      -0.07070766
C       -2.86602966      -0.31142353       7.65603328       0.00000000       0.00000000       0.01388663       0.00511941      -0.02003747      -0.06449314
C       -3.67281105       0.47273606       8.68954058       0.00000000       0.00000000      -0.05112593       0.00669148       0.00207086      -0.06543044
C       -5.08095198       0.85832765       8.22461568       0.00000000       0.00000000      -0.03755652       0.04088172      -0.00974011      -0.06476268
C       -5.17072192       2.15115312       7.40941801       0.00000000       0.00000000      -0.00759300       0.01262970       0.01023690      -0.05276481
C       -6.61136569       2.63901973       7.30304136       0.00000000       0.00000000      -0.02495491      -0.00373101       0.02264661      -0.10730862
H       -9.28329319       3.95217244      -3.14341988       0.00000000       0.00000000       0.00431888       0.01580187      -0.00594054       0.04024236
H       -9.96850697       4.57524717      -1.64654374       0.00000000       0.00000000      -0.01560725      -0.00149056       0.00419481       0.04730767
H       -8.71625059       3.33683985      -1.58918098       0.00000000       0.00000000      -0.00575565      -0.00528730       0.00368016       0.02175480
H       -8.34012715       6.19586601      -2.61079285       0.00000000       0.00000000      -0.01772779      -0.01091185       0.00328895       0.04277063
H       -7.09376969       4.95367846      -2.58483998       0.00000000       0.00000000      -0.01088363       0.01007908      -0.02445456       0.01660803
H       -7.35838267       4.81777658      -0.07176253       0.00000000       0.00000000      -0.00795725       0.04643657      -0.01055398       0.02323565
H       -8.55570284       6.09764126      -0.16345848       0.00000000       0.00000000       0.03042772      -0.00224350      -0.02468001       0.04465639
H       -6.48962621       7.09917197       0.51134548       0.00000000       0.00000000      -0.00425296       0.02373171      -0.01673058       0.03614211
H       -6.87469803       7.64898206      -1.11704042       0.00000000       0.00000000      -0.01823363       0.02382227      -0.00724785       0.04735354
H       -4.50629668       7.20274502      -0.93171702       0.00000000       0.00000000       0.04493209       0.04629261      -0.00024547       0.03690090
H       -5.22270257       6.06971742      -2.05954627       0.00000000       0.00000000       0.01565074      -0.06011326      -0.05080288       0.02921921
H       -5.26584237       4.33625787      -0.20775696       0.00000000       0.00000000      -0.06039429      -0.01251963      -0.03486223       0.03510301
H       -4.70044892       5.56821552       0.89266227       0.00000000       0.00000000       0.02472663       0.02457122       0.02964779       0.04846002
H       -2.86307914       4.16858704       0.42432241       0.00000000       0.00000000      -0.00220695       0.04379182       0.05241986       0.03236510
H       -2.57632997       5.73882222      -0.36151004       0.00000000       0.00000000      -0.03552790      -0.05686168       0.00644232       0.05687411
H       -1.80022659       3.90808647      -1.75250307       0.00000000       0.00000000      -0.02297525      -0.04665296      -0.06182760       0.06838229
H       -3.15391984       4.71949819      -2.54661530       0.00000000       0.00000000      -0.08873248      -0.00198636      -0.09151630       0.07630740
H       -5.25053017       3.89082039      -2.29692010       0.00000000       0.00000000       0.02658163       0.03291267       0.03606126       0.09540509
H       -5.59689954       2.23115495      -1.84263312       0.00000000       0.00000000       0.14539578       0.02689241       0.00339135       0.04971355
H       -5.90423077       2.37247780      -4.18473528       0.00000000       0.00000000      -0.02859128      -0.03108567       0.01885039       0.05968811
H       -4.35237154       1.55291562      -3.99896489       0.00000000       0.00000000      -0.02673713       0.04939479      -0.08044696       0.05395891
H       -3.19168523       3.71208472      -4.49943558       0.00000000       0.00000000       0.04218642       0.05514851      -0.02697842       0.03241061
H       -4.77654429       4.47221965      -4.75556077       0.00000000       0.00000000       0.04145796      -0.07609174       0.01101644       0.03956702
H       -4.10558464       3.83156595      -6.92594691       0.00000000       0.00000000       0.02282515       0.00676587      -0.06295303       0.04832873
H       -5.20925184       2.55877122      -6.43706075       0.00000000       0.00000000      -0.02854638      -0.00007955      -0.02782739       0.04384220
H       -2.92490051       1.39371831      -5.58051672       0.00000000       0.00000000      -0.00998769       0.01786820       0.02239688       0.01538573
H       -2.21832423       2.45653561      -6.78989417       0.00000000       0.00000000      -0.02176801       0.00246555       0.01792769       0.03566553
H       -3.72898125       1.47977552      -8.51359319       0.00000000       0.00000000       0.03703079       0.02041431      -0.00490570       0.04087648
H       -4.46301587       0.45391986      -7.29343541       0.00000000       0.00000000      -0.02344347       0.00667910       0.04236658       0.03199328
H       -2.22550793      -0.59099551      -6.85495112       0.00000000       0.00000000       0.03536377      -0.00933340      -0.00156479       0.01687826
H       -1.55356473       0.36841084      -8.17498653       0.00000000       0.00000000       0.01899974      -0.00791647      -0.00453218       0.03506133
H       -3.75922039      -1.73234595      -8.42272377       0.00000000       0.00000000      -0.02841887       0.00241435       0.00935388       0.03408769
H       -2.11100214      -1.86288423      -9.03555068       0.00000000       0.00000000       0.02585383      -0.01834318       0.00773441       0.03560606
H       -3.21907357      -0.70269472      -9.74365969       0.00000000       0.00000000      -0.01545893       0.04540637      -0.02637223       0.04637662
H       -4.62367497       0.87284511      -0.26780531       0.00000000       0.00000000       0.01216629       0.02276456      -0.04446023       0.05196059
H       -4.93130327      -1.14616912      -1.66319471       0.00000000       0.00000000       0.01556313       0.03549391      -0.04859417       0.07339469
H       -5.17294345       0.33725584      -2.53107860       0.00000000       0.00000000      -0.00934078      -0.01278872       0.01445144       0.06432217
H       -2.70754744      -1.43509395      -2.70090467       0.00000000       0.00000000       0.07685382      -0.09868204       0.03747242       0.03579610
H       -2.92777852       0.02194113      -3.63151670       0.00000000       0.00000000      -0.06365862       0.02827754      -0.02054279       0.03001574
H       -4.82915073      -2.39134891      -3.70732290       0.00000000       0.00000000       0.08815074      -0.02383960      -0.01492438       0.04016593
H       -3.66497073      -1.98603000      -4.97326493       0.00000000       0.00000000      -0.01933264       0.08482956       0.07113071       0.05474503
H       -5.03522183      -0.91853025      -4.63040709       0.00000000       0.00000000       0.08460102      -0.01662470      -0.08432459       0.05171795
H       -4.39858472      -0.35410878       1.37647337       0.00000000       0.00000000      -0.06581069      -0.00116846       0.00819313       0.06044005
H       -3.77434328      -2.45280172      -0.55230128       0.00000000       0.00000000       0.00600401      -0.06983041       0.02898956       0.07480968
H       -3.85838126      -3.14155809       1.04758480       0.00000000       0.00000000       0.01874539      -0.04518922       0.06573955       0.05788700
H       -6.10271963      -1.54969596      -0.29042827       0.00000000       0.00000000      -0.05508246      -0.03873400       0.02037550       0.04113714
H       -6.17685335      -2.17217736       1.33456727       0.00000000       0.00000000      -0.02586908      -0.05779813       0.01268397       0.04084062
H       -5.76398005      -3.90457067      -1.15791618       0.00000000       0.00000000      -0.03924965       0.06432583       0.04825762       0.04034501
H       -7.27206486      -3.71901525      -0.26782261       0.00000000       0.00000000       0.02121327      -0.00374502       0.01794382       0.06290196
H       -5.89125640      -4.49898248       0.49990401       0.00000000       0.00000000      -0.05505271       0.05689200      -0.02105332       0.04422419
H       -4.84073967      -2.34953617       2.70792706       0.00000000       0.00000000      -0.03825318       0.02197536       0.02035437       0.07452798
H       -5.02202507      -1.17417318       4.00540389       0.00000000       0.00000000      -0.06692112       0.06155318       0.01120985       0.06445159
H       -5.49872541      -3.22097973       4.94304251       0.00000000       0.00000000      -0.02119752      -0.02084034      -0.03231238       0.06344273
H       -3.88654919      -2.92303866       5.53889141       0.00000000       0.00000000      -0.00280851      -0.02383045      -0.05497397       0.05753253
H       -4.52513006      -4.64348728       3.09842094       0.00000000       0.00000000       0.02317191      -0.06091897       0.05354210       0.03210122
H       -4.42842363      -5.27334715       4.73572616       0.00000000       0.00000000       0.00824900       0.04949178       0.00413032       0.05681654
H       -2.00605498      -4.35610085       4.79930770       0.00000000       0.00000000      -0.03946599      -0.00971023      -0.03143676       0.02957445
H       -2.16447193      -4.19446123       3.03812500       0.00000000       0.00000000      -0.01513062      -0.01799228       0.05687193       0.01709304
H       -2.78616478      -6.61717230       2.91596061       0.00000000       0.00000000       0.00509339      -0.00733525      -0.00504840       0.03108992
H       -2.68819526      -6.72477689       4.66203112       0.00000000       0.00000000       0.01297237      -0.01895139       0.02131828       0.04383215
H       -0.78347928      -7.75630777       3.71819574       0.00000000       0.00000000       0.02983375      -0.06609009       0.05756948       0.04645141
H       -0.24309958      -6.32524859       4.58663996       0.00000000       0.00000000      -0.01552468       0.00489447      -0.02021573       0.04795300
H       -0.77890309      -6.13929706       1.63309117       0.00000000       0.00000000      -0.04199649      -0.02848933      -0.03840405       0.04051486
H        0.69508037      -6.93070036       2.15456426       0.00000000       0.00000000       0.02705130      -0.00299723       0.05292952       0.03298649
H       -0.07784619      -4.16080350       3.13263921       0.00000000       0.00000000      -0.02615382      -0.00746076      -0.02812101       0.03963140
H        0.80153394      -4.39586033       1.64452241       0.00000000       0.00000000      -0.02120091      -0.06411802      -0.01074416       0.00908201
H        1.50538345      -4.92124033       3.18881522       0.00000000       0.00000000       0.04654738       0.00615956       0.00379067       0.02642610
H       -1.30445705      -0.80640009       4.15714437       0.00000000       0.00000000       0.09053315       0.00680377       0.01678532       0.07037576
H       -2.22308888      -1.86821161       5.23153578       0.00000000       0.00000000      -0.03760864      -0.00634293      -0.00657538       0.07839667
H       -4.02075813       0.00480819       5.30140562       0.00000000       0.00000000      -0.03174332      -0.04891018      -0.05995187       0.05988786
H       -2.85237649       1.00611958       4.44132950       0.00000000       0.00000000       0.03431831       0.00902864       0.01686167       0.02981929
H       -2.65434992       1.59948998       6.69029877       0.00000000       0.00000000       0.01631657      -0.01194849       0.08191234       0.05304423
H       -1.29146380       0.54452039       6.43031064       0.00000000       0.00000000       0.03429010      -0.01662805       0.05442285       0.03458034
H       -2.01998120      -0.77893149       8.15972248       0.00000000       0.00000000       0.07238557       0.03750543       0.01040315       0.03541261
H       -3.49245462      -1.12094665       7.27821810       0.00000000       0.00000000      -0.00462237      -0.01658301      -0.02798006       0.03463935
H       -3.12439828       1.37076436       8.97825148       0.00000000       0.00000000       0.01339750      -0.00226657       0.03420708       0.03797849
H       -3.76842379      -0.14729619       9.58087708       0.00000000       0.00000000      -0.01047088      -0.03414201       0.01724960       0.04467953
H       -5.69927982       0.99438892       9.11330145       0.00000000       0.00000000      -0.01121867      -0.01694858      -0.01511923       0.04753643
H       -5.50902478       0.03224696       7.64972609       0.00000000       0.00000000      -0.04335417       0.03153904       0.05945145       0.02829132
H       -4.77249165       2.00621351       6.40225692       0.00000000       0.00000000      -0.01267979      -0.00493272       0.01647244       0.01763326
H       -4.57453226       2.92397128       7.90039730       0.00000000       0.00000000      -0.00443227       0.00338995       0.00765167       0.02973170
H       -7.23126495       1.91138803       6.78296914       0.00000000       0.00000000       0.00047051      -0.00682379      -0.00629262       0.03115125
H       -6.66503919       3.58650441       6.77042126       0.00000000       0.00000000       0.00673358      -0.01895168       0.01641672       0.03585322
H       -7.03063201       2.78926095       8.29327012       0.00000000       0.00000000      -0.01807231       0.00972836       0.02302976       0.04705708
C        0.54012016      -9.85087495      -1.99182233       0.00000000       0.00000000       0.00631384      -0.00855261       0.00290127      -0.10653544
C       -0.94691614      -9.52173093      -2.01261710       0.00000000       0.00000000      -0.01742928       0.01043075       0.00914589      -0.05404594
C       -1.53209790      -9.45532580      -0.60245683       0.00000000       0.00000000       0.01186724      -0.01096082      -0.00486474      -0.06370330
C       -2.97800772      -8.95166755      -0.56510344       0.00000000       0.00000000       0.03581486      -0.06867811      -0.00132614      -0.06450348
C       -3.17065619      -7.51040970      -1.04664689       0.00000000       0.00000000      -0.00681343      -0.00394563      -0.00746585      -0.06149708
C       -2.32789107      -6.55314233      -0.21354733       0.00000000       0.00000000       0.03577520       0.05363004       0.01649469      -0.06697777
C       -2.60370015      -5.06407487      -0.41271145       0.00000000       0.00000000       0.03349339       0.04402497       0.00672035      -0.07025359
C       -2.09038809      -4.45187758      -1.71924567       0.00000000       0.00000000       0.04128082      -0.02165735      -0.00249314      -0.01549887
N       -0.62759477      -4.37856145      -1.75873440       0.00000000       0.00000000       0.01334602      -0.01486639       0.01440674      -0.05163893
C        0.02518383      -5.46345246      -2.48617565       0.00000000       0.00000000      -0.02324092       0.01693700       0.01345238      -0.02037315
C        0.12431276      -5.16934076      -3.99305871       0.00000000       0.00000000       0.06607752      -0.01920801       0.06387017      -0.07411080
C       -1.21132015      -4.98655910      -4.71329473       0.00000000       0.00000000       0.06450791       0.00688700       0.03587825      -0.06098165
C       -1.02046504      -4.72247557      -6.20801658       0.00000000       0.00000000      -0.00152693       0.02002103       0.03051078      -0.06808063
C       -0.46406625      -3.31831167      -6.49619897       0.00000000       0.00000000       0.04253038      -0.00929377      -0.02939602      -0.06221268
C        0.97476376      -3.33843231      -7.00657544       0.00000000       0.00000000       0.02496881      -0.03757236      -0.04036792      -0.06367239
C        1.50387614      -1.93913118      -7.31042922       0.00000000       0.00000000      -0.04198369      -0.01938228      -0.00553441      -0.05257305
C        2.91247019      -1.98931134      -7.88868163       0.00000000       0.00000000       0.00430620       0.00316984       0.00199064      -0.10765549
C       -0.01734238      -3.30444303      -1.25301757       0.00000000       0.00000000      -0.00702553       0.02106840      -0.03585129       0.25532031
O       -0.64038159      -2.25349285      -0.97899736       0.00000000       0.00000000      -0.12784401       0.06621826       0.10322153      -0.37109325
C        1.48011935      -3.36494648      -0.88481543       0.00000000       0.00000000       0.03910158       0.00794150      -0.01541465       0.09104103
C        2.44013391      -3.31995365      -2.08347960       0.00000000       0.00000000      -0.01020607       0.00333996      -0.01965030      -0.08163622
C        2.17672781      -2.19609120      -3.07711677       0.00000000       0.00000000      -0.00052053       0.04477806      -0.02424645      -0.05526560
C        3.28930910      -2.21384266      -4.12245199       0.00000000       0.00000000      -0.00381990       0.00533248      -0.00626577      -0.11224069
O        1.68821332      -2.26586704       0.01756064       0.00000000       0.00000000       0.03289890       0.00524011      -0.01932174      -0.24920311
C        2.64423608      -2.48116975       1.06483091       0.00000000       0.00000000       0.06838244      -0.04520954       0.01762785       0.08309677
C        4.09835489      -2.31904633       0.58492627       0.00000000       0.00000000       0.06732516       0.04150264       0.00938460      -0.08405258
C        4.88625842      -3.63204794       0.49619826       0.00000000       0.00000000       0.02367460       0.01428262      -0.00219564      -0.06107542
C        6.35259766      -3.35936275       0.17245329       0.00000000       0.00000000       0.00490951       0.00107953      -0.00023488      -0.11241579
C        2.22342164      -1.52499782       2.20049595       0.00000000       0.00000000       0.04513213       0.01262136      -0.03325653       0.25645027
O        1.45254856      -0.57956708       1.93565188       0.00000000       0.00000000       0.00758329      -0.05337524      -0.06580741      -0.36167170
N        2.62581514      -1.76681770       3.44965048       0.00000000       0.00000000      -0.03188367      -0.01220471      -0.04306467      -0.05401738
C        3.75428180      -2.59912728       3.83550063       0.00000000       0.00000000      -0.01468424       0.02529638       0.03189910      -0.02324773
C        4.75572952      -1.89109162       4.76323406       0.00000000       0.00000000       0.04393420      -0.00407886      -0.02337038      -0.07195046
C        5.68005112      -0.87386908       4.08310999       0.00000000       0.00000000       0.00702544      -0.01683780       0.02238633      -0.06841801
C        5.18490874       0.57380803       3.96863500       0.00000000       0.00000000      -0.01072139      -0.04429332       0.01575098      -0.05537531
C        6.34918233       1.42604387       3.44966974       0.00000000       0.00000000       0.00184975      -0.04019638       0.01788146      -0.06220133
C        6.15810422       2.94010284       3.33455837       0.00000000       0.00000000       0.04620050      -0.01806057      -0.01216314      -0.06707854
C        4.92499480       3.39652289       2.54918147       0.00000000       0.00000000       0.00300337      -0.00016606       0.00316890      -0.05066001
C        3.80020787       3.74790582       3.50842539       0.00000000       0.00000000      -0.01223680       0.04500661       0.02735079      -0.10710747
C        1.80345252      -1.28955077       4.55895669       0.00000000       0.00000000      -0.02403113       0.00828991      -0.03847649      -0.01767801
C        1.01897633      -2.45602521       5.17327006       0.00000000       0.00000000       0.02084800      -0.02776068      -0.03441339      -0.07078013
C        0.29407253      -2.11571952       6.47229789       0.00000000       0.00000000      -0.00008191      -0.01275802      -0.03470683      -0.06904717
C        1.18826619      -2.12462648       7.72122473       0.00000000       0.00000000      -0.00473894      -0.00563952       0.00368806      -0.06495928
C        0.78927318      -3.20453510       8.72828367       0.00000000       0.00000000       0.01857624      -0.06276119       0.00506798      -0.06512422
C        1.15000130      -4.63252593       8.30249405       0.00000000       0.00000000      -0.01442863      -0.03944526      -0.00758898      -0.06475232
C        0.11582382      -5.32800849       7.41366624       0.00000000       0.00000000       0.00276540       0.00605019       0.01668285      -0.05205137
C        0.38636960      -6.82457484       7.31215017       0.00000000       0.00000000       0.01165856      -0.01815691       0.02230514      -0.10886221
H        0.93629827      -9.91407196      -3.00202353       0.00000000       0.00000000      -0.01287125      -0.01354660      -0.00831465       0.03942841
H        0.71159805     -10.80275281      -1.49816971       0.00000000       0.00000000       0.00170010      -0.02056413      -0.00018920       0.04713312
H        1.09642717      -9.08406893      -1.45368725       0.00000000       0.00000000       0.00258480      -0.00368066       0.01353767       0.02084610
H       -1.48402192     -10.27712690      -2.58725194       0.00000000       0.00000000       0.02000541      -0.00623809      -0.00310244       0.04241858
H       -1.08788008      -8.56514906      -2.52126635       0.00000000       0.00000000       0.00091653       0.00665239      -0.02311619       0.01617192
H       -0.89679271      -8.82500875       0.02603276       0.00000000       0.00000000      -0.03442988      -0.02220818      -0.01044908       0.02587251
H       -1.50927766     -10.45595904      -0.16548778       0.00000000       0.00000000      -0.00660434       0.02442322      -0.04083411       0.04420331
H       -3.33884348      -9.02707776       0.46406485       0.00000000       0.00000000      -0.01165134       0.00340045      -0.03221766       0.03549525
H       -3.59546871      -9.60847327      -1.17782193       0.00000000       0.00000000      -0.00965788      -0.01961150      -0.01706523       0.04671728
H       -4.22415377      -7.25270766      -0.93014619       0.00000000       0.00000000      -0.05491054       0.02276731      -0.02829381       0.03478257
H       -2.93239953      -7.43906674      -2.10706019       0.00000000       0.00000000       0.02922177       0.03181593      -0.04066298       0.02958697
H       -1.27039174      -6.74593773      -0.38038617       0.00000000       0.00000000       0.03430501      -0.05242128      -0.00753504       0.03898932
H       -2.54675281      -6.78977024       0.82947442       0.00000000       0.00000000      -0.02023860       0.01077398      -0.00479924       0.04897226
H       -2.14423682      -4.50567082       0.40796607       0.00000000       0.00000000      -0.05378911      -0.01605146       0.05115232       0.03334804
H       -3.68363132      -4.91531129      -0.38650438       0.00000000       0.00000000       0.05264531       0.00055617       0.01792591       0.05742345
H       -2.48270941      -3.43866783      -1.81597914       0.00000000       0.00000000       0.04711881       0.00575323      -0.03426010       0.06265538
H       -2.44620582      -5.04886150      -2.55122185       0.00000000       0.00000000       0.02219394      -0.04436928      -0.03639045       0.08390190
H       -0.55455465      -6.37641670      -2.34914896       0.00000000       0.00000000      -0.05967782       0.05900543       0.05735633       0.08867326
H        1.02617841      -5.64544841      -2.08915655       0.00000000       0.00000000      -0.11725144       0.00130029       0.04995040       0.05260513
H        0.65606833      -6.00373443      -4.45230501       0.00000000       0.00000000       0.01588926      -0.02566965       0.01398613       0.06280537
H        0.72276511      -4.27277381      -4.13328340       0.00000000       0.00000000       0.00257697       0.01782756      -0.08418191       0.05233956
H       -1.73582092      -4.12827799      -4.28935850       0.00000000       0.00000000      -0.06281802      -0.02790277      -0.05127661       0.03114428
H       -1.82720873      -5.88152549      -4.58663230       0.00000000       0.00000000       0.05331703       0.03607080      -0.00531398       0.03649495
H       -1.98796985      -4.83824215      -6.69667149       0.00000000       0.00000000      -0.00471570       0.00581388      -0.00253561       0.04600148
H       -0.35645494      -5.48122684      -6.62426494       0.00000000       0.00000000      -0.01625117       0.03246987      -0.02401982       0.04857916
H       -0.52495984      -2.69863692      -5.59589315       0.00000000       0.00000000       0.02538321      -0.01654332       0.00818311       0.01589748
H       -1.07851934      -2.82804109      -7.25002182       0.00000000       0.00000000      -0.01759344      -0.02802704      -0.02722668       0.04413005
H        1.01282605      -3.93074952      -7.92132611       0.00000000       0.00000000      -0.00428411      -0.01425523      -0.02506853       0.04343233
H        1.62875895      -3.82600896      -6.27969634       0.00000000       0.00000000      -0.01926630       0.01139039       0.00411209       0.02461604
H        1.48845303      -1.33801856      -6.39647092       0.00000000       0.00000000       0.01061615       0.00138189      -0.00700968       0.01598701
H        0.83600909      -1.45685796      -8.02565834       0.00000000       0.00000000      -0.00567028       0.02435844      -0.02637086       0.03566723
H        3.58979177      -2.51247906      -7.21827236       0.00000000       0.00000000       0.01662240      -0.01055127       0.02142268       0.03263617
H        2.91096972      -2.51221476      -8.84056461       0.00000000       0.00000000      -0.01072310      -0.00694114      -0.01001636       0.04732157
H        3.30350898      -0.98904678      -8.05462277       0.00000000       0.00000000      -0.00296433       0.02465827      -0.02193064       0.03578723
H        1.65422049      -4.30793155      -0.34522336       0.00000000       0.00000000      -0.02734516      -0.01029737       0.02279202       0.05170777
H        3.45032672      -3.19059275      -1.70188802       0.00000000       0.00000000      -0.01616332      -0.05856917      -0.03518115       0.07069037
H        2.42910289      -4.27716492      -2.60381017       0.00000000       0.00000000      -0.03947933       0.02367835      -0.00618234       0.05865556
H        2.13663280      -1.24324462      -2.54501365       0.00000000       0.00000000       0.02794761       0.05308188       0.03277088       0.05215821
H        1.20341047      -2.31807755      -3.55542309       0.00000000       0.00000000       0.00998581      -0.04296906      -0.06347319       0.03426817
H        4.26969087      -2.15597646      -3.64982502       0.00000000       0.00000000      -0.04875683       0.05259397      -0.02652166       0.03718211
H        3.19588457      -1.39457811      -4.83003671       0.00000000       0.00000000      -0.02244210      -0.02731793       0.04559624       0.05422138
H        3.25736367      -3.15063501      -4.67514228       0.00000000       0.00000000      -0.01257234       0.06195120      -0.03559410       0.05251866
H        2.52809237      -3.49815096       1.45595810       0.00000000       0.00000000      -0.02889391      -0.06132193       0.00833395       0.06339289
H        4.05763870      -1.84840935      -0.39396215       0.00000000       0.00000000       0.05302419       0.06388841       0.02105713       0.07557074
H        4.63824844      -1.64065453       1.24376836       0.00000000       0.00000000      -0.02175152       0.07485367       0.03006954       0.05654962
H        4.45831042      -4.28494800      -0.26588404       0.00000000       0.00000000       0.03555227      -0.02059018      -0.00439308       0.03974935
H        4.82739409      -4.17678931       1.44113608       0.00000000       0.00000000       0.03278196       0.01452821       0.00841844       0.03763920
H        6.45930803      -2.89375372      -0.80601493       0.00000000       0.00000000      -0.01980904      -0.04516639       0.02751004       0.04068459
H        6.92051577      -4.28594953       0.17006170       0.00000000       0.00000000      -0.03718222       0.02556358      -0.01581990       0.06252010
H        6.79288641      -2.69648077       0.91568320       0.00000000       0.00000000      -0.00844686      -0.03925039      -0.02107341       0.04460138
H        4.28110699      -2.93020124       2.94832464       0.00000000       0.00000000       0.00721335      -0.01459680       0.03812290       0.07080121
H        3.38250314      -3.48324044       4.35864719       0.00000000       0.00000000      -0.01340530      -0.03749437      -0.00523091       0.06469105
H        5.38526447      -2.68325704       5.17295031       0.00000000       0.00000000       0.00918862      -0.01375764      -0.03467594       0.06498972
H        4.24800112      -1.43571502       5.61390905       0.00000000       0.00000000       0.06617988       0.01258230      -0.06243786       0.05704067
H        5.94184192      -1.24654422       3.08859009       0.00000000       0.00000000       0.02312805       0.04135512       0.03510469       0.02989238
H        6.60600898      -0.84088018       4.66035284       0.00000000       0.00000000      -0.00743947      -0.03700523       0.00362817       0.05651397
H        4.87094167       0.93092938       4.95216874       0.00000000       0.00000000       0.04591031      -0.01045959      -0.00749013       0.03530784
H        4.32742824       0.63481233       3.29179923       0.00000000       0.00000000       0.01309815      -0.01317845       0.00715954       0.01634116
H        6.63224463       1.03469956       2.47026410       0.00000000       0.00000000       0.01451099      -0.02893300       0.00664306       0.02735600
H        7.20257503       1.26586284       4.11120811       0.00000000       0.00000000       0.01623988      -0.01325928       0.00003152       0.04433709
H        7.05405197       3.32865315       2.85035787       0.00000000       0.00000000       0.05781954       0.01286453      -0.00265715       0.04439198
H        6.12008967       3.38408598       4.33013659       0.00000000       0.00000000      -0.00888603      -0.04483439      -0.00451369       0.04911239
H        4.60331737       2.61217328       1.85988344       0.00000000       0.00000000      -0.01837002      -0.03296545      -0.00243514       0.01739310
H        5.17121659       4.27707084       1.95330689       0.00000000       0.00000000       0.03353437       0.01755328      -0.00805132       0.02779746
H        3.60145792       2.90105984       4.15371877       0.00000000       0.00000000      -0.00679876       0.02214564      -0.00977874       0.04387773
H        2.88507894       4.01926410       2.98709258       0.00000000       0.00000000       0.00382031      -0.01208736      -0.02892912       0.00512780
H        4.09286933       4.58787731       4.13151925       0.00000000       0.00000000       0.02163824       0.04061783       0.01080672       0.04769606
H        1.10757537      -0.56556391       4.14097474       0.00000000       0.00000000      -0.03700779       0.08700747       0.02227342       0.07209112
H        2.42220841      -0.79531348       5.30462526       0.00000000       0.00000000       0.00009628      -0.03987327      -0.00417012       0.07686046
H        1.67644781      -3.29619455       5.38457154       0.00000000       0.00000000       0.05935050      -0.01407456      -0.03949264       0.05656155
H        0.29176794      -2.78005870       4.42872355       0.00000000       0.00000000      -0.02544436       0.02673025       0.02508002       0.03598645
H       -0.49520406      -2.85349552       6.60511988       0.00000000       0.00000000      -0.01045717       0.00755779       0.08213557       0.05239072
H       -0.19768816      -1.15593740       6.35537799       0.00000000       0.00000000      -0.00966388       0.03115097       0.05390034       0.03227899
H        1.14073329      -1.15850251       8.22389928       0.00000000       0.00000000      -0.05883982       0.05103634      -0.01185012       0.03578473
H        2.23206386      -2.28206792       7.44536712       0.00000000       0.00000000       0.00918749      -0.00467220      -0.05648017       0.03599071
H       -0.28304085      -3.14365381       8.92462057       0.00000000       0.00000000       0.00696072       0.01669886       0.02978592       0.03630144
H        1.30083140      -2.99355944       9.66811694       0.00000000       0.00000000       0.02624441       0.02059330      -0.00642003       0.04456112
H        1.25608429      -5.23582680       9.20608324       0.00000000       0.00000000       0.01859652       0.01522945      -0.02259737       0.04708626
H        2.12048083      -4.62347056       7.79827716       0.00000000       0.00000000      -0.01968766      -0.05238939       0.05685686       0.02902738
H        0.12061156      -4.90019492       6.40846916       0.00000000       0.00000000       0.00759645      -0.00691117       0.01234405       0.01694534
H       -0.87901109      -5.17797503       7.84019964       0.00000000       0.00000000       0.00102537      -0.00610731       0.00415000       0.02894094
H        1.35516455      -7.01340834       6.85505351       0.00000000       0.00000000       0.01393537       0.00291660      -0.00521176       0.03291556
H       -0.37888194      -7.31886467       6.71807851       0.00000000       0.00000000       0.00431966       0.00296696       0.01256852       0.03695684
H        0.38729413      -7.27363121       8.30047924       0.00000000       0.00000000      -0.00093598      -0.02326949       0.02846963       0.04665497
C        7.44175415       5.88971358      -1.88987359       0.00000000       0.00000000      -0.00025080       0.00866934       0.00286971      -0.10574451
C        8.07754146       4.50662494      -1.93212734       0.00000000       0.00000000       0.00849415      -0.01684817       0.00795342      -0.05545984
C        8.19408921       3.89581905      -0.53624696       0.00000000       0.00000000       0.00233727       0.02288372      -0.00421489      -0.06213033
C        8.64988670       2.43489330      -0.55149655       0.00000000       0.00000000       0.01775648       0.06068515       0.00570136      -0.06430614
C        7.65378424       1.45958999      -1.18339794       0.00000000       0.00000000      -0.00688266      -0.01890560      -0.00696082      -0.06143163
C        6.32186346       1.46843815      -0.44115820       0.00000000       0.00000000      -0.05203822      -0.00430530       0.00001456      -0.06705855
C        5.33654729       0.37617784      -0.85414955       0.00000000       0.00000000      -0.03637761       0.01380705       0.01794600      -0.07022139
C        4.59088647       0.58721521      -2.17602054       0.00000000       0.00000000      -0.00812612       0.04814737      -0.00612491      -0.01789846
N        3.77290386       1.79835312      -2.11358747       0.00000000       0.00000000      -0.00055140       0.05732988       0.04755166      -0.04836180
C        4.37963811       2.97734985      -2.72438368       0.00000000       0.00000000       0.00482173       0.00825934       0.02471692      -0.02037157
C        4.01288467       3.17271579      -4.20550613       0.00000000       0.00000000       0.00614404       0.04285976       0.07451154      -0.07653969
C        4.50792383       2.10148794      -5.17731150       0.00000000       0.00000000      -0.03755278       0.02580107       0.05344821      -0.06194921
C        4.02851480       2.41472045      -6.60001207       0.00000000       0.00000000      -0.00513786       0.00291781      -0.00640089      -0.06776217
C        2.56474619       2.02627033      -6.84018170       0.00000000       0.00000000      -0.02732414       0.03287118      -0.02387621      -0.06112236
C        1.87149967       2.92000882      -7.86935610       0.00000000       0.00000000       0.04343461       0.05606080      -0.00127868      -0.06410435
C        0.43363442       2.47025977      -8.12182925       0.00000000       0.00000000       0.06759105      -0.00931698       0.01811365      -0.05037436
C       -0.38685935       3.51405057      -8.86707726       0.00000000       0.00000000       0.00600898       0.00626923      -0.01495892      -0.10731047
C        2.61061100       1.74357287      -1.46354668       0.00000000       0.00000000      -0.00888876       0.00024066      -0.01485962       0.25552783
O        2.06381800       0.65665829      -1.16308661       0.00000000       0.00000000       0.02744091      -0.11074336       0.08846062      -0.37627024
C        1.92335373       3.03703484      -0.99229278       0.00000000       0.00000000      -0.01937994       0.02180531      -0.00733866       0.09087626
C        1.33403498       3.84165817      -2.16232919       0.00000000       0.00000000       0.00678872      -0.00913934      -0.01544597      -0.08414986
C        0.55471059       3.01110315      -3.17607157       0.00000000       0.00000000      -0.04866403      -0.02364458      -0.03740965      -0.05506286
C        0.08960099       3.92762407      -4.30524590       0.00000000       0.00000000      -0.02205462      -0.00131708      -0.00063604      -0.11097408
O        0.94156599       2.62392494      -0.02847637       0.00000000       0.00000000      -0.02809549       0.06057321      -0.00746446      -0.24263032
C        0.72471165       3.54518454       1.04702758       0.00000000       0.00000000       0.01875881       0.08838628       0.01512439       0.08881777
C       -0.08308614       4.77519853       0.59769361       0.00000000       0.00000000      -0.04174893       0.04499432       0.02243924      -0.08700129
C        0.72212283       6.06683444       0.41959737       0.00000000       0.00000000       0.02601352      -0.02968816       0.02844911      -0.06139495
C       -0.18422846       7.18496943      -0.08701115       0.00000000       0.00000000       0.03765790      -0.01807346       0.01941700      -0.11316218
C        0.05990290       2.73928205       2.18051566       0.00000000       0.00000000      -0.02772573       0.04736787       0.00988203       0.25589365
O       -0.33739892       1.58357478       1.93123113       0.00000000       0.00000000      -0.02546653      -0.00363659      -0.06356539      -0.36176709
N       -0.02105457       3.24224829       3.41528492       0.00000000       0.00000000      -0.01101322      -0.02051863      -0.07309133      -0.05503631
C        0.10670684       4.64023370       3.80160797       0.00000000       0.00000000       0.00684107      -0.02706216       0.04968115      -0.02487188
C       -1.05066819       5.15488143       4.67417655       0.00000000       0.00000000      -0.01299840       0.04754027      -0.02514137      -0.07304247
C       -2.39433038       5.39075282       3.97084765       0.00000000       0.00000000       0.02452987       0.01320607       0.02400817      -0.06891371
C       -3.40370198       4.23241408       3.93047848       0.00000000       0.00000000       0.07097741       0.02480856       0.00958865      -0.05460331
C       -4.79118179       4.83481566       3.68292812       0.00000000       0.00000000       0.03281642       0.00906563       0.02280020      -0.06395883
C       -5.99696878       3.89747130       3.64022293       0.00000000       0.00000000      -0.00787045       0.03611282       0.00885384      -0.06898987
C       -5.99738950       2.84800928       2.52359718       0.00000000       0.00000000      -0.00191183       0.01719158       0.00840695      -0.05525438
C       -5.52895095       1.48409640       3.01117953       0.00000000       0.00000000      -0.02178328      -0.02240306       0.02784773      -0.10089496
C       -0.11592512       2.30722460       4.53634377       0.00000000       0.00000000       0.02055963      -0.01753676      -0.02179764      -0.01841876
C        1.23782458       2.22313439       5.25216665       0.00000000       0.00000000       0.02883604       0.04001671      -0.05800508      -0.07158194
C        1.22010753       1.45226822       6.56909412       0.00000000       0.00000000       0.01182514       0.00271514      -0.04858011      -0.06929512
C        0.72127388       2.26121634       7.77518870       0.00000000       0.00000000       0.01432756       0.00116059       0.01197612      -0.06436031
C        1.83052294       2.61563974       8.76706584       0.00000000       0.00000000       0.04392488       0.04697951      -0.00396471      -0.06580147
C        2.84146707       3.64797270       8.25467802       0.00000000       0.00000000       0.03352820       0.00617424      -0.01419074      -0.06401789
C        4.01564902       3.06001562       7.46913440       0.00000000       0.00000000       0.00030357       0.00340582       0.01528521      -0.05396135
C        5.10416742       4.09817963       7.22861793       0.00000000       0.00000000       0.01512977       0.02455800       0.01930092      -0.10572854
H        7.37985854       6.31849194      -2.88638565       0.00000000       0.00000000       0.01760476      -0.00291405      -0.01154528       0.04074744
H        8.02845291       6.55864934      -1.26712709       0.00000000       0.00000000       0.01305989       0.01360814       0.00393198       0.04644178
H        6.43489707       5.83589671      -1.47711474       0.00000000       0.00000000      -0.01151059       0.01220194       0.01321227       0.01765491
H        9.07078990       4.57188879      -2.37686866       0.00000000       0.00000000       0.00181248       0.02089723      -0.00305610       0.04373548
H        7.47655643       3.85979951      -2.57484638       0.00000000       0.00000000      -0.00716241       0.00873832      -0.01785463       0.01903877
H        7.23521014       3.98566145      -0.01769901       0.00000000       0.00000000       0.03937675      -0.01413872      -0.00844272       0.02272667
H        8.91946757       4.47473602       0.03957876       0.00000000       0.00000000      -0.01295041      -0.01234182      -0.03554779       0.04219353
H        8.84108385       2.12074181       0.47780569       0.00000000       0.00000000      -0.00615091      -0.00697002      -0.01943585       0.03450918
H        9.59298464       2.36774328      -1.09407129       0.00000000       0.00000000       0.02124457       0.00564019      -0.00924961       0.04735155
H        8.08103227       0.45785910      -1.12342999       0.00000000       0.00000000       0.02045488      -0.06374411      -0.00960404       0.03630156
H        7.52749490       1.68679649      -2.24150512       0.00000000       0.00000000      -0.05147988       0.04136597      -0.02907069       0.02993858
H        5.83984337       2.44105806      -0.51913467       0.00000000       0.00000000       0.00399754       0.03429739      -0.01116329       0.03350510
H        6.55350954       1.31709928       0.61381500       0.00000000       0.00000000      -0.02529514      -0.00966328      -0.01403100       0.04742851
H        4.56861528       0.30051144      -0.07991089       0.00000000       0.00000000       0.05418494      -0.00423731       0.06105528       0.03595930
H        5.87693090      -0.57067143      -0.91544237       0.00000000       0.00000000      -0.03972864       0.04605673       0.00572945       0.05443589
H        3.93285291      -0.26165609      -2.34880245       0.00000000       0.00000000      -0.00742387      -0.00057849       0.00099821       0.07374020
H        5.28348816       0.66395503      -3.00813463       0.00000000       0.00000000       0.05224449       0.07074562      -0.02244027       0.07974650
H        5.46229866       2.86953183      -2.65672079       0.00000000       0.00000000      -0.01398163      -0.04710052       0.02856385       0.09051473
H        4.10728710       3.87910932      -2.17038849       0.00000000       0.00000000       0.01668795      -0.08364849       0.02289255       0.04979311
H        4.44699410       4.12663349      -4.51084128       0.00000000       0.00000000      -0.00314021       0.02758034       0.03135918       0.06141617
H        2.93428645       3.25378891      -4.30325133       0.00000000       0.00000000       0.00995070      -0.00567381      -0.05555175       0.05495041
H        4.12346080       1.12290380      -4.88517929       0.00000000       0.00000000       0.03055732      -0.03285926      -0.03109601       0.03158760
H        5.60046947       2.07015517      -5.16773773       0.00000000       0.00000000      -0.06723254      -0.01357660       0.03492698       0.03947543
H        4.66634485       1.88709045      -7.30739532       0.00000000       0.00000000      -0.02033992      -0.00487099      -0.06403857       0.04685956
H        4.15379640       3.48240347      -6.78752929       0.00000000       0.00000000       0.01873139       0.00476193       0.00606066       0.04431071
H        2.00171385       2.09438069      -5.90616820       0.00000000       0.00000000       0.01102751      -0.01577951       0.02459396       0.02008668
H        2.50458380       0.98913646      -7.17386849       0.00000000       0.00000000       0.02251434       0.00219433       0.01130006       0.03462877
H        2.43059693       2.91711786      -8.80548403       0.00000000       0.00000000      -0.00342925      -0.04389433       0.00214302       0.04223641
H        1.86098920       3.94932515      -7.50366788       0.00000000       0.00000000       0.01995239       0.02154579       0.03734513       0.03104806
H       -0.03648881       2.26256581      -7.15645622       0.00000000       0.00000000      -0.02205585      -0.03398540       0.00748580       0.01681019
H        0.44683816       1.53938677      -8.69033408       0.00000000       0.00000000      -0.00499771      -0.02292639      -0.01601854       0.03250514
H       -0.45335894       4.43390540      -8.29034426       0.00000000       0.00000000       0.01417394       0.02464226       0.01027384       0.03210912
H       -1.39520960       3.15221541      -9.04974908       0.00000000       0.00000000      -0.01723837      -0.02368858      -0.01082496       0.03976443
H        0.06517032       3.74607025      -9.82586238       0.00000000       0.00000000       0.04612117      -0.00097937      -0.03074945       0.04647533
H        2.67431968       3.65235016      -0.47473750       0.00000000       0.00000000       0.04623076      -0.01377702       0.01877138       0.05215460
H        0.67087206       4.60867653      -1.77513087       0.00000000       0.00000000       0.03870528       0.02918951      -0.05441112       0.07061994
H        2.14093998       4.36325753      -2.67382189       0.00000000       0.00000000       0.00830800       0.00651331       0.00938812       0.06231648
H       -0.29155768       2.52998905      -2.68297921       0.00000000       0.00000000      -0.07946759      -0.00923303       0.01571562       0.05061164
H        1.17838658       2.20645532      -3.57092017       0.00000000       0.00000000       0.02047506       0.00949803      -0.05856794       0.03122637
H       -0.48809038       4.76112393      -3.90670411       0.00000000       0.00000000      -0.03054702      -0.06699601      -0.03969269       0.03787988
H       -0.52260895       3.39556216      -5.02958020       0.00000000       0.00000000       0.04030332      -0.00096042       0.05463322       0.05338222
H        0.94884475       4.35020748      -4.82544625       0.00000000       0.00000000      -0.08649254      -0.05271174      -0.02280854       0.05169461
H        1.70514833       3.86364453       1.42873140       0.00000000       0.00000000       0.07376849       0.05724840       0.02133432       0.05822004
H       -0.54896897       4.50815404      -0.34518136       0.00000000       0.00000000      -0.07547367      -0.01791547       0.03084315       0.07556096
H       -0.89624124       4.96492235       1.29397062       0.00000000       0.00000000      -0.04488249      -0.01498717       0.02787267       0.05810460
H        1.54502833       5.91917134      -0.28042781       0.00000000       0.00000000      -0.01119469      -0.00191389      -0.03529850       0.03883751
H        1.17419519       6.36745730       1.36665320       0.00000000       0.00000000      -0.04245358       0.02849631       0.04126033       0.04021569
H       -0.61765177       6.92802967      -1.05273492       0.00000000       0.00000000       0.03984945       0.02085252       0.02516271       0.03911146
H        0.37978108       8.10507516      -0.20548989       0.00000000       0.00000000      -0.00958244      -0.00092036       0.01843179       0.06388912
H       -0.99196252       7.36656870       0.61937674       0.00000000       0.00000000       0.03121754       0.04729278      -0.02324808       0.04543798
H        0.18869627       5.26217445       2.91807834       0.00000000       0.00000000       0.01185490       0.00835358       0.06856975       0.06984294
H        1.02507627       4.76585797       4.37883368       0.00000000       0.00000000       0.05582570      -0.00050472       0.00600199       0.07035432
H       -0.71097319       6.12033892       5.05383344       0.00000000       0.00000000       0.01839800       0.02081413      -0.03030931       0.06486417
H       -1.19011977       4.52021244       5.54980911       0.00000000       0.00000000      -0.03624505       0.04888891      -0.06520216       0.05785634
H       -2.21022625       5.75031780       2.95410398       0.00000000       0.00000000      -0.04951576      -0.01060096       0.04968388       0.02840451
H       -2.88591280       6.20511518       4.50750783       0.00000000       0.00000000       0.04942990       0.00864950      -0.01901837       0.05737116
H       -3.40533808       3.69985978       4.88448836       0.00000000       0.00000000      -0.00419082       0.05456149      -0.00073251       0.03369471
H       -3.13883490       3.51783262       3.14627988       0.00000000       0.00000000       0.00269087       0.01294935      -0.00321820       0.01423899
H       -4.75761377       5.39864777       2.74972869       0.00000000       0.00000000       0.00908506       0.02450629       0.01511919       0.03191507
H       -4.98142096       5.55619129       4.48041715       0.00000000       0.00000000      -0.00954184       0.00212341       0.00785977       0.04356159
H       -6.86890076       4.53893501       3.50872578       0.00000000       0.00000000      -0.04157303       0.00881486       0.02138723       0.04626964
H       -6.11076021       3.40081262       4.60305360       0.00000000       0.00000000       0.03759339      -0.01355606      -0.00736388       0.05014293
H       -5.36364861       3.18444184       1.70258504       0.00000000       0.00000000       0.02214692      -0.01228263      -0.02884461       0.02505306
H       -7.01093019       2.74412161       2.13391982       0.00000000       0.00000000      -0.03099340       0.01206143       0.03054253       0.03688360
H       -4.45279034       1.47769585       3.16362619       0.00000000       0.00000000      -0.01801508      -0.02563791      -0.03717848       0.02480391
H       -5.79876660       0.70273789       2.30147347       0.00000000       0.00000000      -0.01426719       0.04032396      -0.03913297       0.01203305
H       -6.01352092       1.24612539       3.95430027       0.00000000       0.00000000      -0.02032129      -0.01633919       0.02071380       0.04511817
H       -0.36784417       1.33664277       4.11536634       0.00000000       0.00000000      -0.04282089      -0.07184989       0.01077047       0.07213832
H       -0.90892334       2.60799733       5.21662891       0.00000000       0.00000000       0.04167175       0.04392864      -0.00793082       0.07800769
H        1.61294682       3.21911553       5.47269324       0.00000000       0.00000000      -0.01671068       0.05549271      -0.04303950       0.06195719
H        1.93062758       1.74443248       4.55694218       0.00000000       0.00000000       0.00613001      -0.02488340       0.01761385       0.03358703
H        2.23631957       1.11707658       6.76737220       0.00000000       0.00000000       0.00754757      -0.00882000       0.10473520       0.05142213
H        0.62427208       0.55752997       6.43600208       0.00000000       0.00000000      -0.04041961      -0.04476129       0.03417929       0.03424507
H       -0.03409918       1.68826917       8.31356373       0.00000000       0.00000000      -0.02102578      -0.05323578       0.00090594       0.03744119
H        0.24233342       3.18569791       7.44797929       0.00000000       0.00000000      -0.00123099      -0.00904391      -0.05841054       0.03445052
H        2.36044702       1.70741659       9.06117824       0.00000000       0.00000000      -0.02833348       0.00321276       0.02913109       0.03804724
H        1.35756469       3.01928312       9.66379440       0.00000000       0.00000000      -0.01793023      -0.00906804      -0.01695276       0.04491915
H        3.25680117       4.17207052       9.11768627       0.00000000       0.00000000      -0.01122288       0.00176801      -0.03691225       0.04698178
H        2.32158449       4.38854349       7.64022344       0.00000000       0.00000000       0.04775736       0.02576119       0.05242931       0.02663954
H        3.68112599       2.67594472       6.50432019       0.00000000       0.00000000       0.00536318       0.01021186       0.01200206       0.01835329
H        4.43800202       2.22685151       8.03532511       0.00000000       0.00000000       0.01892311       0.00578385       0.00023640       0.03139901
H        4.70774609       4.96034047       6.69650827       0.00000000       0.00000000      -0.01591849       0.00455311      -0.00889039       0.02990694
H        5.91883997       3.67574510       6.64442553       0.00000000       0.00000000       0.00161822      -0.00869365       0.01813347       0.03366618
H        5.51101421       4.44464495       8.17340319       0.00000000       0.00000000       0.01811583       0.02010388       0.02449071       0.04709604
