176
Properties=species:S:1:pos:R:3:initial_charges:R:1:initial_magmoms:R:1:forces:R:3:charge:R:1 energy=-6145.954693046078 free_energy=-6145.954693046078 dipole="-0.6783123845720664 -0.8239647823750708 -1.3428557602558782" pbc="F F F"
La       0.05003011      -0.08321644      -0.02820424       3.00000000       0.00000000      -0.13436270       0.11810387      -0.02649229       0.83190181
C        0.77205883       3.98682142      -4.25383273       0.00000000       0.00000000       0.02757356      -0.00379589      -0.00023830      -0.10839978
C        0.02325789       2.87827659      -4.98633650       0.00000000       0.00000000       0.00951191       0.04987293      -0.02743705      -0.05994606
C       -1.48935301       3.11130274      -5.05756841       0.00000000       0.00000000       0.03008289       0.03241044      -0.02712747      -0.07303069
C       -2.22416083       2.62360435      -3.81002650       0.00000000       0.00000000       0.02640993      -0.01318024      -0.11177734      -0.01557580
N       -1.86953576       3.32848791      -2.58744249       0.00000000       0.00000000      -0.06204225       0.01319042      -0.00794819      -0.04508655
C       -2.31017054       4.70699963      -2.50957326       0.00000000       0.00000000       0.00572613       0.06892130      -0.00041931      -0.07451394
C       -1.20906133       2.69882792      -1.61795423       0.00000000       0.00000000      -0.01573648       0.01421901       0.01477476       0.26831434
O       -0.86285866       1.50615592      -1.72923573       0.00000000       0.00000000      -0.07952681       0.01665581       0.02933767      -0.39066654
C       -0.90482686       3.45805962      -0.33826530       0.00000000       0.00000000       0.07256402      -0.03411171       0.00020902      -0.13503357
C        0.59188935       3.29843231      -0.05963988       0.00000000       0.00000000      -0.00443862       0.10691405      -0.02855931       0.26592519
O        1.05726922       2.15591893       0.07763902       0.00000000       0.00000000      -0.01348122      -0.02657985       0.04147301      -0.36097590
N        1.35379227       4.38901822       0.00309327       0.00000000       0.00000000      -0.10254473      -0.04585306       0.00291115      -0.04723363
C        2.77563331       4.25147047       0.25167521       0.00000000       0.00000000       0.00321631      -0.01394140       0.01883698      -0.07233206
C        0.85106278       5.75266100      -0.02295542       0.00000000       0.00000000      -0.04351012       0.09686177       0.04940195      -0.02492865
C        0.14480970       6.15276584       1.28158963       0.00000000       0.00000000       0.01932845      -0.00348422       0.01373773      -0.07203316
C       -0.60589696       7.48017816       1.13656803       0.00000000       0.00000000       0.04651574      -0.02291637      -0.00091527      -0.05956209
C        0.32890155       8.65721137       0.88450739       0.00000000       0.00000000      -0.00305177       0.00189017      -0.00221698      -0.11705575
H        1.84331630       3.85109303      -4.37901416       0.00000000       0.00000000       0.00983775       0.04898909      -0.01393611       0.04315462
H        0.56488499       3.98689268      -3.18606753       0.00000000       0.00000000      -0.01835973      -0.01349353      -0.01662604       0.01864853
H        0.49788534       4.95256583      -4.67463855       0.00000000       0.00000000       0.06522284      -0.01788733       0.06670437       0.05187101
H        0.22869774       1.91284002      -4.51409700       0.00000000       0.00000000      -0.00449854       0.06034779      -0.00155177       0.03348006
H        0.40501817       2.84588321      -6.00662921       0.00000000       0.00000000       0.01812140      -0.04627364      -0.04337469       0.04990970
H       -1.90117712       2.54695101      -5.89722269       0.00000000       0.00000000       0.00570972       0.04481540       0.01714644       0.05956798
H       -1.68593798       4.16617833      -5.24866007       0.00000000       0.00000000      -0.00334886       0.00084758       0.00947285       0.06241523
H       -1.95768111       1.57548096      -3.68952641       0.00000000       0.00000000       0.02563546      -0.01925298       0.05351862       0.07322986
H       -3.30719758       2.70830474      -3.94526263       0.00000000       0.00000000       0.01802235       0.03719136      -0.03613394       0.05867286
H       -2.85813678       4.94614368      -3.41711840       0.00000000       0.00000000      -0.00821367       0.00190332       0.02598902       0.09814221
H       -1.46348776       5.39042816      -2.44336817       0.00000000       0.00000000       0.00229652       0.03456194      -0.04364415       0.07452107
H       -2.97475420       4.87059366      -1.65977111       0.00000000       0.00000000      -0.01147283      -0.02689599      -0.04523340       0.07530792
H       -1.41438508       2.92489918       0.47352495       0.00000000       0.00000000       0.03627755      -0.03265839      -0.07740745       0.13412972
H       -1.24303681       4.48463104      -0.35565754       0.00000000       0.00000000       0.04593483      -0.00708561      -0.03788513       0.09129535
H        3.01998568       3.19639867       0.31614248       0.00000000       0.00000000       0.01899498      -0.09413357       0.01535611       0.09288940
H        3.04303893       4.74618176       1.18341649       0.00000000       0.00000000       0.00892070       0.02221980       0.05159143       0.08065839
H        3.34317932       4.70290441      -0.56100281       0.00000000       0.00000000      -0.01351172       0.02688284      -0.03810497       0.08055951
H        0.17624870       5.89680494      -0.87087596       0.00000000       0.00000000       0.05215830      -0.00210450      -0.01528947       0.05532772
H        1.70672321       6.41078747      -0.16961347       0.00000000       0.00000000       0.00021390      -0.02605199      -0.05681090       0.08997372
H        0.88835721       6.24471279       2.07461113       0.00000000       0.00000000      -0.01798065       0.01489221       0.00510975       0.05582905
H       -0.55867916       5.37166374       1.57989823       0.00000000       0.00000000       0.02197526       0.01368222      -0.00135238       0.03127107
H       -1.16826317       7.66362849       2.05370691       0.00000000       0.00000000       0.03534688      -0.01764570      -0.01336101       0.05476066
H       -1.32848994       7.40041703       0.31964301       0.00000000       0.00000000       0.01023838       0.02968381       0.01324853       0.03104456
H        1.08072802       8.72193634       1.66761582       0.00000000       0.00000000      -0.01692875      -0.00148204      -0.01778753       0.04999374
H       -0.23265410       9.58667578       0.88194198       0.00000000       0.00000000      -0.00633303      -0.01164593      -0.00228776       0.06021104
H        0.83092840       8.56614177      -0.07572585       0.00000000       0.00000000      -0.00960494       0.02905170       0.01616767       0.03795603
C        5.64946349      -1.10790319       2.31753881       0.00000000       0.00000000      -0.00260021       0.01822211      -0.01868008      -0.11157543
C        5.47889851      -2.13164487       3.43829094       0.00000000       0.00000000       0.01812545       0.02828093      -0.04157222      -0.06197181
C        4.86168778      -1.56897116       4.72067963       0.00000000       0.00000000      -0.01416368       0.04639878      -0.02144471      -0.07421966
C        3.32996813      -1.45649237       4.72863697       0.00000000       0.00000000       0.01788272      -0.03411365       0.01618175      -0.01873465
N        2.77885386      -0.62073236       3.67311997       0.00000000       0.00000000      -0.01372859      -0.05033819       0.04588569      -0.03870402
C        3.22800241       0.76322203       3.66271615       0.00000000       0.00000000      -0.03779389      -0.01840148      -0.01339189      -0.06445326
C        1.89225849      -0.95222415       2.73622050       0.00000000       0.00000000      -0.08657579       0.06026847      -0.02033600       0.26158983
O        1.57074426      -0.11368777       1.86863303       0.00000000       0.00000000      -0.01638390      -0.11939370       0.09955213      -0.37522415
C        1.24109446      -2.33356069       2.72891833       0.00000000       0.00000000       0.06098819       0.02664814       0.02234138      -0.12343793
C       -0.27351813      -2.22115768       2.58684861       0.00000000       0.00000000      -0.01077708      -0.06458991       0.14658581       0.26796436
O       -0.75216259      -1.47089791       1.71949053       0.00000000       0.00000000      -0.05458260       0.04855068      -0.02194055      -0.36618570
N       -1.07687034      -2.94256419       3.37091093       0.00000000       0.00000000       0.06917460       0.03109090      -0.03908483      -0.04117578
C       -0.70315038      -3.80058830       4.47408551       0.00000000       0.00000000       0.03039464      -0.07063828       0.10366116      -0.07320182
C       -2.52430089      -2.82457486       3.19167285       0.00000000       0.00000000      -0.09818012      -0.02166470      -0.09184746      -0.01298123
C       -3.07627347      -3.28069936       1.83519004       0.00000000       0.00000000       0.00257165      -0.02510101      -0.07305004      -0.06851130
C       -2.81280736      -4.74641760       1.47880560       0.00000000       0.00000000      -0.00841694       0.03551781      -0.00062174      -0.06179933
C       -1.39213936      -5.00163028       0.98570334       0.00000000       0.00000000      -0.00877056       0.00377890      -0.00180847      -0.10684255
H        6.30682399      -1.50938722       1.54944219       0.00000000       0.00000000      -0.00849517       0.01623431       0.04387656       0.04881012
H        6.11055342      -0.20047792       2.70201310       0.00000000       0.00000000      -0.01040504      -0.03395094      -0.00467898       0.04735324
H        4.70463127      -0.84750936       1.84281919       0.00000000       0.00000000       0.00579658      -0.01884680       0.03631982       0.02368772
H        6.47095473      -2.50180600       3.69507502       0.00000000       0.00000000       0.02088338      -0.03095759       0.01530028       0.06023351
H        4.89702937      -2.98501272       3.08315786       0.00000000       0.00000000      -0.02079148       0.00275936       0.01717960       0.03026326
H        5.31526460      -0.60293185       4.93594069       0.00000000       0.00000000       0.05159900       0.01475069       0.01254310       0.06112160
H        5.12094192      -2.23221576       5.54806944       0.00000000       0.00000000      -0.04549688       0.02483236       0.00221128       0.06723207
H        3.01552418      -1.03789584       5.69205007       0.00000000       0.00000000       0.02380489       0.00525582      -0.02617078       0.07055413
H        2.93067250      -2.46513422       4.65768247       0.00000000       0.00000000      -0.00645720       0.00323127      -0.00151140       0.05796143
H        3.94930782       0.91930181       4.45491040       0.00000000       0.00000000       0.00509049       0.01422139       0.01599855       0.09261431
H        2.37800693       1.42684789       3.81250946       0.00000000       0.00000000      -0.06799425       0.04915725       0.02702694       0.06382170
H        3.67589805       1.00532170       2.70181667       0.00000000       0.00000000       0.03334902       0.04592665      -0.04284240       0.08833338
H        1.53377481      -2.93576355       3.57663895       0.00000000       0.00000000       0.03975252      -0.01101566       0.00843133       0.07457732
H        1.58492772      -2.82390160       1.81232351       0.00000000       0.00000000      -0.05661700       0.08685864      -0.00591367       0.12576861
H        0.36679307      -3.84225521       4.63751272       0.00000000       0.00000000       0.00919043      -0.03312379      -0.00218568       0.07054226
H       -1.05701378      -4.81853952       4.29750367       0.00000000       0.00000000      -0.01481670       0.03996734      -0.02972060       0.09195483
H       -1.16216828      -3.43544849       5.39603693       0.00000000       0.00000000      -0.01851328       0.00259899      -0.03593939       0.08495067
H       -2.80038929      -1.77650420       3.33778421       0.00000000       0.00000000       0.00474310       0.06002917      -0.00251302       0.05717688
H       -2.99722641      -3.41855005       3.97288328       0.00000000       0.00000000       0.01329177       0.01433810       0.02071273       0.08033273
H       -2.68389358      -2.64262328       1.03830037       0.00000000       0.00000000       0.02388094      -0.00233046       0.05752805       0.05935878
H       -4.15970240      -3.13481858       1.88196493       0.00000000       0.00000000       0.06972866       0.02611181       0.03534895       0.04920179
H       -3.50685704      -5.02313020       0.68192006       0.00000000       0.00000000       0.01920152       0.00596520       0.00542444       0.04629878
H       -3.04138621      -5.38901932       2.33083058       0.00000000       0.00000000       0.04692341       0.02817817       0.00996666       0.05080532
H       -1.13316180      -4.27783920       0.21181418       0.00000000       0.00000000       0.03558879      -0.01955637       0.00455539       0.02910932
H       -1.32262640      -6.00467998       0.57295084       0.00000000       0.00000000       0.02258196       0.00888718      -0.02950320       0.04918024
H       -0.66390713      -4.91810607       1.78731901       0.00000000       0.00000000      -0.00123009      -0.01997981      -0.00239345       0.02987477
C        5.23365492      -3.08501988      -1.42239424       0.00000000       0.00000000       0.00615747      -0.00387648       0.00084783      -0.10628021
C        5.01256836      -3.68384593      -0.03535200       0.00000000       0.00000000       0.01917461      -0.01475843      -0.03232897      -0.06336158
C        4.14674800      -4.94754411      -0.00384806       0.00000000       0.00000000       0.07131201       0.01229695      -0.02284716      -0.07405564
C        2.64734573      -4.66937363      -0.11584487       0.00000000       0.00000000       0.07056440      -0.02467493       0.03157704      -0.01291123
N        2.26596913      -4.05239099      -1.37548628       0.00000000       0.00000000      -0.01665535      -0.03542836      -0.03129369      -0.04187443
C        2.47880785      -4.85821691      -2.56042845       0.00000000       0.00000000       0.01705672      -0.03463957      -0.07930182      -0.07229660
C        1.74590874      -2.82777829      -1.39233676       0.00000000       0.00000000      -0.03858380       0.03357938       0.07592572       0.26912563
O        1.46561692      -2.20707045      -0.34938866       0.00000000       0.00000000      -0.06529398      -0.02303862      -0.05399896      -0.39204814
C        1.47425424      -2.18834072      -2.74415202       0.00000000       0.00000000      -0.03818123       0.04547144       0.01054670      -0.13242310
C        2.04533299      -0.77332319      -2.75464867       0.00000000       0.00000000       0.02617783       0.00097341       0.01362885       0.26731871
O        1.66369493       0.02975511      -1.88415240       0.00000000       0.00000000      -0.03072432      -0.04604913      -0.05547537      -0.37096479
N        2.91927737      -0.43924760      -3.70172875       0.00000000       0.00000000      -0.06313481      -0.08125673      -0.00211535      -0.04724137
C        3.41773520       0.92103275      -3.76469305       0.00000000       0.00000000      -0.03921467      -0.01618613       0.00862120      -0.06921104
C        3.35614274      -1.32033932      -4.77585306       0.00000000       0.00000000       0.00005866      -0.03725852      -0.10594316      -0.02429207
C        2.26496847      -1.58354372      -5.82820893       0.00000000       0.00000000      -0.00972511       0.04174863      -0.00390215      -0.07452463
C        2.53945136      -2.84834582      -6.64798554       0.00000000       0.00000000       0.02779069       0.05862849       0.01341168      -0.05754206
C        3.74932075      -2.69049204      -7.56053535       0.00000000       0.00000000       0.00809355      -0.00300002      -0.00026018      -0.11762351
H        6.01538999      -2.33081099      -1.36813298       0.00000000       0.00000000      -0.00084773      -0.02119236      -0.01871075       0.04758658
H        4.33813407      -2.59991239      -1.80666694       0.00000000       0.00000000       0.01087902      -0.00758268       0.03331250       0.01313539
H        5.55585186      -3.85306823      -2.12225490       0.00000000       0.00000000       0.01339124       0.02380310       0.01127291       0.04569849
H        4.57079953      -2.92605937       0.61391496       0.00000000       0.00000000      -0.00744338      -0.04082794      -0.02613608       0.03869892
H        5.99105407      -3.94440377       0.37079126       0.00000000       0.00000000      -0.02488444      -0.00138654       0.02240893       0.05609920
H        4.30791768      -5.44810894       0.95373185       0.00000000       0.00000000      -0.04541178      -0.01085565      -0.04511566       0.05951135
H        4.47281885      -5.63614967      -0.78279544       0.00000000       0.00000000       0.02532892       0.00676480      -0.01444271       0.06094981
H        2.37579306      -3.97633243       0.67604303       0.00000000       0.00000000      -0.07147853       0.02166174       0.02615069       0.06636000
H        2.07389873      -5.59103937       0.01724716       0.00000000       0.00000000       0.02469707      -0.04028683      -0.04789515       0.06342803
H        2.80960618      -5.84562057      -2.24799276       0.00000000       0.00000000      -0.03660934       0.01217027      -0.02689974       0.09916970
H        3.25268420      -4.43624588      -3.20389152       0.00000000       0.00000000       0.02550018      -0.04816526       0.02028470       0.07509246
H        1.55775726      -4.97769598      -3.13464877       0.00000000       0.00000000       0.00876546      -0.00226572       0.05712084       0.06755306
H        0.38914464      -2.04735953      -2.78559688       0.00000000       0.00000000       0.01442744      -0.04360660       0.00079775       0.12434910
H        1.81061003      -2.79916369      -3.56945574       0.00000000       0.00000000      -0.00743730       0.02575793       0.01344730       0.08868797
H        2.96886480       1.49100305      -2.95807255       0.00000000       0.00000000      -0.05188688       0.07633440       0.06361279       0.09283102
H        3.14930039       1.36148771      -4.72342759       0.00000000       0.00000000       0.00184907       0.04253601      -0.03473131       0.07932726
H        4.50142603       0.93760080      -3.65470631       0.00000000       0.00000000       0.01983245      -0.05299804      -0.00291461       0.08098915
H        3.71453092      -2.27026040      -4.36737900       0.00000000       0.00000000       0.01859693       0.06342514       0.03391779       0.05922011
H        4.20084103      -0.83318668      -5.26187615       0.00000000       0.00000000       0.04228024      -0.05220573       0.05506839       0.08906831
H        2.19684354      -0.73103512      -6.50434116       0.00000000       0.00000000       0.01665553       0.00904306      -0.00546603       0.05831551
H        1.29823285      -1.67571221      -5.33345874       0.00000000       0.00000000       0.00915053       0.01428909       0.01047519       0.03130354
H        1.66150596      -3.07132405      -7.25856463       0.00000000       0.00000000       0.03330127       0.04483207       0.01844176       0.04819871
H        2.69112397      -3.69501497      -5.97177317       0.00000000       0.00000000       0.01279371      -0.00959655      -0.04474835       0.02615676
H        3.61378382      -1.83963427      -8.22397600       0.00000000       0.00000000       0.01264322      -0.01521467       0.01983584       0.05140026
H        3.87893481      -3.57557390      -8.17630095       0.00000000       0.00000000      -0.00856423      -0.01101764       0.02562365       0.05961939
H        4.65898907      -2.54231383      -6.98402803       0.00000000       0.00000000      -0.00225043      -0.00996053      -0.02738709       0.04092858
C       -1.28192296      -0.71162656      -5.67652351       0.00000000       0.00000000       0.02681476      -0.00525774       0.02011789      -0.10809302
C       -2.76946726      -0.78405139      -6.00768265       0.00000000       0.00000000       0.05956279       0.01633389       0.01951142      -0.06358773
C       -3.41306145      -2.12121160      -5.63456442       0.00000000       0.00000000       0.04109890      -0.02332697       0.05054867      -0.07659137
C       -3.82103895      -2.26429831      -4.16197293       0.00000000       0.00000000      -0.03585464       0.02866459       0.02831117      -0.01963752
N       -2.70919543      -2.32941048      -3.22011941       0.00000000       0.00000000      -0.08486226      -0.00265516      -0.08019458      -0.04523110
C       -1.82743617      -3.46948220      -3.41501992       0.00000000       0.00000000      -0.04387929       0.02592399       0.01710893      -0.06334571
C       -2.40916448      -1.46971607      -2.24648995       0.00000000       0.00000000       0.08135459       0.04729260       0.11058751       0.26507782
O       -1.37719349      -1.62525728      -1.55639361       0.00000000       0.00000000      -0.07691431       0.06178448      -0.14120132      -0.40388001
C       -3.28954396      -0.25707227      -1.99422977       0.00000000       0.00000000       0.08811331      -0.00199447      -0.05717681      -0.12890023
C       -3.54077376      -0.06445528      -0.50459387       0.00000000       0.00000000      -0.08824243      -0.04534880      -0.03421441       0.26650227
O       -2.57473014       0.18459685       0.23395310       0.00000000       0.00000000       0.04047600      -0.07073068       0.01315230      -0.38317352
N       -4.79127762      -0.11099719      -0.04622365       0.00000000       0.00000000       0.06495523      -0.00721953      -0.02398776      -0.04499516
C       -5.99495716      -0.39320907      -0.79632844       0.00000000       0.00000000      -0.07785069      -0.04243921      -0.06778753      -0.07193792
C       -5.03445093       0.11271842       1.37477166       0.00000000       0.00000000       0.02082297       0.07091642       0.08711748      -0.01610572
C       -4.67533677       1.51018580       1.88533409       0.00000000       0.00000000       0.00578570       0.07394668       0.01131394      -0.07339663
C       -5.42133901       2.66901659       1.21649212       0.00000000       0.00000000       0.00806049      -0.00759370       0.01769977      -0.06393652
C       -4.84016303       3.05717391      -0.14046038       0.00000000       0.00000000      -0.02050990      -0.00724551       0.03115354      -0.10847924
H       -0.83815616       0.18204641      -6.10994398       0.00000000       0.00000000      -0.05145101      -0.02925493       0.01680394       0.04778060
H       -0.77811087      -1.57281071      -6.11148096       0.00000000       0.00000000      -0.01553444       0.02806473       0.00776369       0.04365830
H       -1.09429477      -0.69301225      -4.60212329       0.00000000       0.00000000      -0.03868006       0.00133554      -0.01965886       0.01453883
H       -2.87231803      -0.65480954      -7.08517210       0.00000000       0.00000000      -0.02102543      -0.00435233      -0.00877361       0.06231931
H       -3.30642241       0.03793007      -5.53058748       0.00000000       0.00000000      -0.00775055       0.00140700       0.02383294       0.03152197
H       -2.74551558      -2.93274805      -5.91779764       0.00000000       0.00000000       0.00803380      -0.04139676      -0.05851934       0.06171973
H       -4.32865333      -2.23365650      -6.21761404       0.00000000       0.00000000       0.00800261      -0.02840022       0.04998185       0.07086459
H       -4.40201977      -3.18599648      -4.04994212       0.00000000       0.00000000       0.02564123       0.00461059      -0.00139068       0.07361417
H       -4.47613632      -1.42968285      -3.92806033       0.00000000       0.00000000      -0.02582604      -0.03747276       0.04533474       0.06017778
H       -2.37446090      -4.27337616      -3.89431325       0.00000000       0.00000000      -0.08813019      -0.05838455      -0.02681275       0.08842607
H       -1.45595566      -3.81932387      -2.45510379       0.00000000       0.00000000       0.01587655       0.02696516       0.10178423       0.07708404
H       -0.98407536      -3.19212407      -4.04481546       0.00000000       0.00000000       0.02743719      -0.05018604      -0.09199269       0.06839959
H       -4.18033168      -0.22021252      -2.60456584       0.00000000       0.00000000      -0.01030983      -0.02492120       0.04710485       0.07012193
H       -2.66066706       0.59549764      -2.25620694       0.00000000       0.00000000       0.03764387      -0.02742679      -0.00791473       0.12630492
H       -5.80302028      -0.66098376      -1.82732297       0.00000000       0.00000000       0.00224921      -0.03255059      -0.02605826       0.06648329
H       -6.65330421       0.47863249      -0.78691767       0.00000000       0.00000000      -0.00063837      -0.03665150       0.03995517       0.08918256
H       -6.52226838      -1.23213905      -0.33852623       0.00000000       0.00000000      -0.00241510       0.02976090       0.03138865       0.08342028
H       -4.45019479      -0.62356504       1.93113674       0.00000000       0.00000000       0.03340804      -0.01542917       0.06670691       0.06094834
H       -6.09395259      -0.06795555       1.55401547       0.00000000       0.00000000       0.03239936      -0.00820651       0.04110388       0.07879353
H       -3.60115190       1.67414618       1.77702250       0.00000000       0.00000000      -0.04228192      -0.03538504      -0.03182029       0.05231420
H       -4.91449449       1.51532530       2.95063952       0.00000000       0.00000000       0.01360355      -0.00893067      -0.01126215       0.05648553
H       -5.34303132       3.53611547       1.87572996       0.00000000       0.00000000      -0.01817768      -0.01485643      -0.01850724       0.05362064
H       -6.48339791       2.43612563       1.12406163       0.00000000       0.00000000       0.04263573      -0.02979440      -0.01638621       0.05180439
H       -3.76620707       3.20909809      -0.04322846       0.00000000       0.00000000      -0.03165464       0.03191685      -0.03520136       0.02213688
H       -5.30139099       3.97930056      -0.48516958       0.00000000       0.00000000       0.01670053      -0.00711180      -0.00672740       0.05100670
H       -5.00554486       2.29315696      -0.89521934       0.00000000       0.00000000      -0.02972308       0.02334410       0.00918037       0.02632415
O       -0.88856258       1.58796581       2.07411182       0.00000000       0.00000000       0.03259200      -0.02502915       0.01213923      -0.50703388
H       -1.62128655       1.23400103       2.59129339       0.00000000       0.00000000      -0.06652412      -0.13106501       0.01438876       0.33174621
H       -0.25451989       1.94309913       2.70808216       0.00000000       0.00000000       0.09817506      -0.03532909      -0.00346949       0.32623151
