87
Properties=species:S:1:pos:R:3:initial_charges:R:1:initial_magmoms:R:1:forces:R:3:charge:R:1 energy=-3877.4850142382506 free_energy=-3877.4850142382506 dipole="3.0002356524819613 -0.0034218001403991598 0.03874941965906328" pbc="F F F"
La      -0.17518375       0.12921698      -0.11926250       1.00000000       0.00000000       0.10995714      -0.03842411      -0.01089497       0.70894840
C        0.23948053       1.32806156      -5.48046474       0.00000000       0.00000000      -0.02888553      -0.03491638      -0.00264075      -0.12331027
C       -0.06932403      -0.16121750      -5.71553164       0.00000000       0.00000000      -0.03478138       0.09549168      -0.02621653       0.02306598
C       -1.59759921      -0.35750855      -5.75569658       0.00000000       0.00000000       0.07416659       0.01880869       0.00681636      -0.11267099
C        0.60754085      -0.67967917      -6.99289210       0.00000000       0.00000000      -0.00578468       0.02913852       0.05403968      -0.07230852
C        0.64366341      -2.20257472      -7.05884976       0.00000000       0.00000000       0.00877829      -0.05948521       0.03120995      -0.07270797
C        1.45618495      -2.82890359      -5.91465801       0.00000000       0.00000000       0.00893092      -0.07234361      -0.06582603       0.02244622
C        2.96790803      -2.59742187      -6.11213793       0.00000000       0.00000000      -0.06359985       0.00438032       0.01669336      -0.10863930
C        1.20285740      -4.34354663      -5.86372192       0.00000000       0.00000000      -0.00024265       0.02291721       0.03294778      -0.11508550
C        1.09109676      -2.18394317      -4.61037940       0.00000000       0.00000000      -0.05306093       0.00625132      -0.04165233       0.12117296
N        1.45031290      -2.78725969      -3.48922672       0.00000000       0.00000000      -0.01883187       0.07239190      -0.00847725      -0.21853520
C        1.17903569      -2.16789684      -2.34672212       0.00000000       0.00000000      -0.00391929      -0.01944923       0.05589164       0.16638373
C        1.60555446      -2.78454225      -1.08369366       0.00000000       0.00000000      -0.01002199      -0.07143144       0.04568281       0.09053506
C        2.14131944      -4.06966926      -1.05958319       0.00000000       0.00000000       0.07191178      -0.09590091       0.01184896      -0.02154923
C        2.52833153      -4.59517905       0.16139424       0.00000000       0.00000000      -0.07993612      -0.02405831       0.04953319       0.00198742
C        2.40542722      -3.81182304       1.29711407       0.00000000       0.00000000       0.02433932      -0.00380616       0.01827564      -0.02748910
C        1.89460417      -2.51864437       1.18366697       0.00000000       0.00000000       0.04006586       0.07429156      -0.04366866       0.09507426
C        1.88113454      -1.55686907       2.30527326       0.00000000       0.00000000       0.00572134       0.08190617      -0.05886451       0.09649911
C        2.36704285      -1.84835771       3.58212518       0.00000000       0.00000000       0.03049295      -0.07735995      -0.07622327      -0.02544857
C        2.41340999      -0.84410400       4.53279236       0.00000000       0.00000000      -0.04904645      -0.02728512       0.06533162       0.00208457
C        1.97946322       0.42433187       4.19137092       0.00000000       0.00000000       0.07923184      -0.04737353       0.08329714      -0.02003596
C        1.50235681       0.63085720       2.89984648       0.00000000       0.00000000       0.08414735       0.00875439       0.08789974       0.09123937
C        1.06382226       1.96608369       2.47666852       0.00000000       0.00000000       0.01317220       0.02545689      -0.01553314       0.17095806
N        0.48119901       2.06572945       1.28114424       0.00000000       0.00000000      -0.08442895      -0.05757733      -0.03813836      -0.08765965
N        0.02524570       3.23546366       0.90235365       0.00000000       0.00000000       0.01173506       0.04679048       0.03268204      -0.10133762
C        0.18980438       4.30421356       1.66666523       0.00000000       0.00000000      -0.01642551      -0.00221979      -0.01499914       0.09311082
C        0.90913667       4.19344580       2.88738499       0.00000000       0.00000000      -0.06288244       0.01956243       0.03809447       0.12211037
N        1.30865432       2.99614417       3.27699513       0.00000000       0.00000000      -0.03828094      -0.00199319       0.01573267      -0.21818867
C        1.23022364       5.36388044       3.77026873       0.00000000       0.00000000       0.05945507      -0.00696932       0.04769991       0.02243168
C        0.34166180       5.28595197       5.02698796       0.00000000       0.00000000       0.02053760      -0.03076824      -0.05901388      -0.10962428
C        2.69570316       5.27518038       4.22930288       0.00000000       0.00000000      -0.02818103      -0.01188962      -0.03087966      -0.11446468
C        0.99436071       6.67201560       3.00301684       0.00000000       0.00000000       0.04681567      -0.05898668       0.01913879      -0.07244556
C       -0.32430130       6.66995923       2.24100085       0.00000000       0.00000000      -0.05786131      -0.06043901      -0.04142832      -0.07340337
C       -0.36917877       5.59389016       1.14427749       0.00000000       0.00000000      -0.07942849       0.04758259      -0.05278969       0.02316868
C        0.49303047       5.98455286      -0.07232153       0.00000000       0.00000000      -0.06770665      -0.03236213       0.05795178      -0.11301072
C       -1.81749895       5.34372879       0.68965165       0.00000000       0.00000000       0.03229161       0.02150563      -0.00585946      -0.12289917
N        1.45502465      -0.33167030       1.98031102       0.00000000       0.00000000       0.02007510       0.01237423       0.05901430      -0.14092782
N        1.47200045      -2.03115854       0.01082037       0.00000000       0.00000000       0.01300715      -0.09137410       0.00515581      -0.14948047
N        0.56182499      -0.98902317      -2.24955028       0.00000000       0.00000000       0.01733740       0.04125479       0.07677169      -0.07235870
N        0.17877894      -0.39296497      -3.34483359       0.00000000       0.00000000      -0.00398472      -0.04805185      -0.05418183      -0.08030178
C        0.42397873      -0.93378095      -4.52729679       0.00000000       0.00000000      -0.03991369       0.02570323      -0.00365918       0.08845344
H       -0.12897980       1.93860640      -6.30206807       0.00000000       0.00000000       0.01913414      -0.12390758      -0.01166387       0.06164819
H       -0.24018139       1.65639530      -4.56075948       0.00000000       0.00000000       0.04022938       0.01114337      -0.04432509       0.07458716
H        1.31358000       1.48722967      -5.38185897       0.00000000       0.00000000      -0.07575953      -0.01435135      -0.04381084       0.03918440
H       -2.03112320       0.19433661      -6.58764947       0.00000000       0.00000000       0.08902514      -0.02177343       0.03794904       0.06520038
H       -1.84966359      -1.41077354      -5.86774293       0.00000000       0.00000000      -0.04290664       0.07074461       0.02771029       0.04454332
H       -2.02858979       0.01463378      -4.82768745       0.00000000       0.00000000      -0.01994029      -0.06037552      -0.05795910       0.06106332
H        0.08376970      -0.29165594      -7.86665946       0.00000000       0.00000000      -0.04081514       0.01475774       0.03390742       0.05891393
H        1.62787718      -0.29768407      -7.03096316       0.00000000       0.00000000       0.03248783       0.05590410      -0.02168042       0.04628680
H       -0.37230710      -2.59916370      -7.02434297       0.00000000       0.00000000      -0.01461794       0.02108737      -0.00560968       0.04893537
H        1.07815223      -2.51466680      -8.01031318       0.00000000       0.00000000       0.00451942       0.01591212       0.03135693       0.05664801
H        3.28024240      -3.02775539      -7.06160756       0.00000000       0.00000000      -0.02047690       0.01355644       0.06537214       0.06525077
H        3.20647436      -1.53657929      -6.11611952       0.00000000       0.00000000       0.02787649      -0.01493783       0.00401224       0.04286759
H        3.52153545      -3.07581057      -5.30673082       0.00000000       0.00000000       0.00048430       0.02973467      -0.04166955       0.05299569
H        1.46818949      -4.79122876      -6.82013998       0.00000000       0.00000000      -0.02100109       0.05985199       0.06096576       0.05974644
H        1.80390257      -4.80755897      -5.08615100       0.00000000       0.00000000      -0.01653914       0.04120500      -0.00602463       0.05803309
H        0.15520883      -4.55898090      -5.66205680       0.00000000       0.00000000       0.02393581       0.03879814      -0.00759379       0.04538813
H        2.25047207      -4.62466969      -1.97738859       0.00000000       0.00000000      -0.04908361       0.03561702      -0.00144530       0.09646653
H        2.92027158      -5.59800870       0.23654094       0.00000000       0.00000000       0.01446474       0.01476799      -0.03892635       0.08548056
H        2.71522216      -4.19318212       2.25458297       0.00000000       0.00000000       0.01290132      -0.05967204       0.00063968       0.07797986
H        2.73192751      -2.83048295       3.83506057       0.00000000       0.00000000      -0.06782601      -0.00692795      -0.02005892       0.07814087
H        2.78471702      -1.05715009       5.52422101       0.00000000       0.00000000       0.00132346       0.04595974      -0.01981978       0.08563202
H        2.02228332       1.24341389       4.88824999       0.00000000       0.00000000      -0.05488351       0.05196071       0.00431247       0.09603805
H        0.56082637       4.37517037       5.57899368       0.00000000       0.00000000      -0.03889395       0.00599377      -0.02162441       0.05549244
H        0.55236308       6.14035306       5.66704043       0.00000000       0.00000000      -0.00650259      -0.04457557      -0.03752616       0.06474074
H       -0.71548978       5.29471837       4.77662651       0.00000000       0.00000000      -0.00397029      -0.01389403      -0.01916376       0.04758898
H        2.86237854       4.36289508       4.79844905       0.00000000       0.00000000      -0.01531953       0.05913363      -0.05499771       0.05879023
H        3.37271429       5.27977848       3.37613230       0.00000000       0.00000000      -0.03202507       0.00780226       0.03306779       0.04031946
H        2.92739166       6.13065862       4.86129155       0.00000000       0.00000000      -0.00702271      -0.05951912      -0.05359030       0.06148805
H        1.00998108       7.50200394       3.70990739       0.00000000       0.00000000      -0.00282091       0.00393983      -0.01751842       0.05760887
H        1.81755621       6.81770723       2.30373606       0.00000000       0.00000000       0.04950375       0.06143673      -0.02465081       0.04582211
H       -1.14107070       6.49623876       2.94124061       0.00000000       0.00000000      -0.06342667      -0.00509930       0.01491885       0.04967073
H       -0.48937391       7.64987283       1.79242976       0.00000000       0.00000000       0.02155010      -0.02596415      -0.04700992       0.05917499
H        1.53082156       6.13836728       0.22045094       0.00000000       0.00000000      -0.04595049      -0.00121830      -0.05741093       0.04068882
H        0.45018459       5.18711413      -0.81160655       0.00000000       0.00000000       0.02375874       0.05957095      -0.00208805       0.05942524
H        0.11776720       6.90144042      -0.52152469       0.00000000       0.00000000      -0.01535048      -0.05457497       0.05941024       0.06655963
H       -2.41774359       4.96406805       1.51637623       0.00000000       0.00000000       0.03512162       0.03369777      -0.05543185       0.04433811
H       -2.27414112       6.26190159       0.32751422       0.00000000       0.00000000       0.09547781       0.01899737       0.06543985       0.06330528
H       -1.84287817       4.61655726      -0.11823325       0.00000000       0.00000000      -0.03297115       0.05019206       0.03707181       0.07659579
N       -2.00443178      -1.42861852       0.74514085       0.00000000       0.00000000      -0.01930956      -0.13413004      -0.08008133       0.79184733
O       -2.92358667      -2.08229183       1.10849707       0.00000000       0.00000000       0.01670665       0.07860046      -0.01114573      -0.37700040
O       -1.69558989      -1.35825383      -0.46213854       0.00000000       0.00000000      -0.00333955      -0.06316891       0.07424738      -0.43678886
O       -1.26761916      -0.83044397       1.54556748       0.00000000       0.00000000       0.02576654       0.02943693      -0.06082607      -0.43435575
N       -1.75363824       1.96546660      -1.02562693       0.00000000       0.00000000       0.00220463       0.10259905      -0.08556294       0.80377189
O       -2.42342775       2.85488995      -1.44282786       0.00000000       0.00000000       0.10182026      -0.09795842       0.03410949      -0.38483805
O       -2.09320520       1.28651411      -0.04534672       0.00000000       0.00000000       0.10018740      -0.01069170       0.07951177      -0.41955063
O       -0.66100827       1.67454896      -1.55528623       0.00000000       0.00000000       0.02730747       0.10024162       0.02445017      -0.40151250
