233
Properties=species:S:1:pos:R:3:initial_charges:R:1:initial_magmoms:R:1:forces:R:3:charge:R:1 energy=-7721.6325298348265 free_energy=-7721.6325298348265 dipole="1.267993827732831 0.49010349306668705 -1.8897200333679516" pbc="F F F"
Lu       0.47718607       0.15340742       0.23328650       2.00000000       0.00000000       0.03512164      -0.06569384       0.00583209       0.83772005
C        2.64585981       8.34698365      -1.35795724       0.00000000       0.00000000       0.03120469      -0.01503916       0.00935685      -0.10803943
C        2.34163115       7.64561322      -0.03929182       0.00000000       0.00000000       0.03361162       0.03416261       0.02824973      -0.04979093
C        0.86182265       7.76969746       0.33677396       0.00000000       0.00000000       0.02670496       0.02031290      -0.02790483      -0.06092414
C        0.60736534       7.81995972       1.84217781       0.00000000       0.00000000      -0.00197060      -0.08193664      -0.00802268      -0.06554612
C        1.11341478       6.59167426       2.59791435       0.00000000       0.00000000       0.01597052      -0.02342576       0.02632364      -0.05886043
C        0.60711478       6.56267697       4.05107174       0.00000000       0.00000000       0.04902825       0.01084548      -0.00725338      -0.06838894
C       -0.36503524       5.42082734       4.35753440       0.00000000       0.00000000       0.07961182      -0.00227319       0.01384269      -0.06054048
C       -1.60531234       5.38086293       3.46529132       0.00000000       0.00000000       0.04056680       0.01304978       0.04360450      -0.06087807
C       -2.48279950       4.18902453       3.84357459       0.00000000       0.00000000      -0.03214799      -0.03054643       0.03842974      -0.06999700
C       -3.72811899       3.97680929       2.96773996       0.00000000       0.00000000       0.02511795       0.02947992      -0.04172174      -0.07155294
C       -3.53939975       2.94350613       1.84155358       0.00000000       0.00000000      -0.04387363      -0.06339810       0.00166065      -0.07573232
C       -3.36903497       3.56504759       0.44177112       0.00000000       0.00000000       0.05192522       0.06394264       0.06839430      -0.02683552
N       -2.68341974       2.64599972      -0.45422333       0.00000000       0.00000000       0.01454319      -0.04585826       0.03264435      -0.04040834
C       -3.43947922       2.05223784      -1.56584135       0.00000000       0.00000000       0.06341623       0.09640111       0.01124137      -0.01728249
C       -4.59877475       1.12071284      -1.19103707       0.00000000       0.00000000      -0.09144180      -0.04693786      -0.09782151      -0.07201609
C       -4.25232119      -0.36739218      -0.97345196       0.00000000       0.00000000       0.00095763       0.04444693       0.08263843      -0.06810979
C       -4.55593219      -1.31353915      -2.16226519       0.00000000       0.00000000      -0.09372098       0.07440659       0.05420949      -0.07002533
C       -5.38964901      -2.57356909      -1.80946405       0.00000000       0.00000000       0.02524603      -0.01399374       0.09579553      -0.06724584
C       -4.70753444      -3.88845794      -2.21367873       0.00000000       0.00000000       0.03178406       0.02759828      -0.01904345      -0.06162550
C       -5.47923120      -5.17063492      -1.85169285       0.00000000       0.00000000       0.08088587       0.04763726      -0.13250705      -0.06657788
C       -5.70905070      -5.39694456      -0.35400598       0.00000000       0.00000000       0.04913377       0.09543284       0.07302461      -0.06464634
C       -5.71741851      -6.87537711       0.08849941       0.00000000       0.00000000       0.04293714       0.04716319      -0.04830810      -0.06712620
C       -4.46666729      -7.24928276       0.90451191       0.00000000       0.00000000      -0.12563185       0.12468495      -0.05692350      -0.05738380
C       -4.68507788      -8.36421209       1.92534305       0.00000000       0.00000000      -0.04697300      -0.07920692       0.15038874      -0.05915881
C       -3.74017084      -8.25801982       3.11886062       0.00000000       0.00000000      -0.00997028       0.10556838       0.09723421      -0.10517699
C       -1.40572232       2.34629599      -0.29550943       0.00000000       0.00000000       0.00328361      -0.10270800      -0.05091093       0.26659245
O       -0.87132120       1.38109430      -0.88503676       0.00000000       0.00000000       0.02194798       0.11345142       0.01192237      -0.36990386
C       -0.45726638       3.25444600       0.51367969       0.00000000       0.00000000       0.09593226       0.02243543       0.05141276       0.04486210
O        0.65802041       2.43402482       0.85572431       0.00000000       0.00000000      -0.00524340      -0.07595654      -0.04298646      -0.22658130
C        1.95356364       3.01061273       0.95675633       0.00000000       0.00000000      -0.01519454      -0.00581858       0.03593409       0.09188680
C        2.44495739       3.10648091       2.41463648       0.00000000       0.00000000       0.01213203       0.04632803       0.01305347      -0.08000726
C        3.93563313       3.48809943       2.43776496       0.00000000       0.00000000       0.00565037      -0.01052729       0.05614748      -0.08110209
C        4.48512333       3.67577293       1.02003320       0.00000000       0.00000000       0.09010074       0.02997234       0.11893990      -0.02130566
N        4.18157986       2.47979048       0.26627875       0.00000000       0.00000000      -0.07353380      -0.03639683      -0.07369735      -0.03596669
C        5.24128662       1.75885307      -0.41590543       0.00000000       0.00000000      -0.05490760       0.04814403      -0.02344350      -0.01175825
C        5.52785372       2.35811209      -1.79735664       0.00000000       0.00000000      -0.03540293      -0.04064010      -0.05692362      -0.07442417
C        4.30161879       2.34250299      -2.72557071       0.00000000       0.00000000       0.05744347      -0.01505837      -0.04297964      -0.06443609
C        3.46669070       3.62677526      -2.69434465       0.00000000       0.00000000       0.04539281       0.03321138       0.01391782      -0.05410917
C        4.12230982       4.80929972      -3.41357631       0.00000000       0.00000000       0.05613857       0.01711200       0.00105989      -0.05752257
C        4.12893726       4.65532651      -4.93013407       0.00000000       0.00000000      -0.00649992      -0.00218274       0.00248984      -0.10827157
C        2.92837644       2.06228570       0.26157313       0.00000000       0.00000000      -0.01217942      -0.06430426      -0.11972624       0.26407357
O        2.54008782       0.97457565      -0.21938331       0.00000000       0.00000000      -0.07543235       0.12923652      -0.06707973      -0.39063232
H        3.68017941       8.18953130      -1.65258849       0.00000000       0.00000000       0.02000921      -0.03678751      -0.01242114       0.03759279
H        2.49138651       9.41704707      -1.25007600       0.00000000       0.00000000      -0.02827339      -0.00052018      -0.01597447       0.04842207
H        1.99608089       7.98786936      -2.15063510       0.00000000       0.00000000      -0.01992278      -0.05040463      -0.05952226       0.03317943
H        2.95269337       8.10928928       0.73560015       0.00000000       0.00000000       0.00440537      -0.01810502       0.05435970       0.04094398
H        2.62710640       6.58912204      -0.09981489       0.00000000       0.00000000       0.01517247       0.04336486      -0.01701727      -0.00076194
H        0.29419342       6.95083389      -0.11863391       0.00000000       0.00000000       0.00493378       0.00906059       0.03792222       0.00823600
H        0.48096720       8.69752783      -0.08677505       0.00000000       0.00000000      -0.05244403       0.05664703      -0.04759260       0.04848267
H       -0.46689068       7.92758404       2.00771021       0.00000000       0.00000000       0.01580610      -0.00530981       0.00198143       0.03777356
H        1.09763520       8.70431477       2.25065983       0.00000000       0.00000000      -0.03412138       0.01988097       0.00981312       0.04512616
H        2.20481693       6.59357808       2.58254780       0.00000000       0.00000000      -0.00183533       0.01785311       0.01904167       0.02621130
H        0.78935233       5.68930855       2.07462544       0.00000000       0.00000000      -0.02298131      -0.00259027      -0.03019949       0.01219646
H        0.12666279       7.51366942       4.28028781       0.00000000       0.00000000      -0.05675187      -0.00497354      -0.01931742       0.04904303
H        1.45221006       6.47108189       4.73533956       0.00000000       0.00000000       0.00872728      -0.01263640       0.00217443       0.03725112
H       -0.68049359       5.51842503       5.39807403       0.00000000       0.00000000      -0.02512589      -0.00956032      -0.02791245       0.04524776
H        0.16230919       4.46388756       4.27758967       0.00000000       0.00000000      -0.01695451       0.00467396      -0.02722465       0.01798564
H       -1.30394314       5.31609795       2.42030021       0.00000000       0.00000000      -0.02066643       0.02933540      -0.09095167       0.01667402
H       -2.16027880       6.31156652       3.57817064       0.00000000       0.00000000      -0.07863876       0.00546658       0.05888657       0.04475557
H       -2.79518320       4.33690485       4.87837684       0.00000000       0.00000000      -0.04918266      -0.00743889      -0.02031665       0.05132942
H       -1.87984006       3.27675752       3.82735265       0.00000000       0.00000000       0.00861043       0.00634564       0.02722107       0.03394380
H       -4.04882885       4.92945251       2.54493115       0.00000000       0.00000000      -0.01373169       0.01204824       0.01583419       0.04971326
H       -4.53127784       3.63131389       3.61512900       0.00000000       0.00000000      -0.04361878      -0.02298882      -0.00662465       0.05827957
H       -4.40288886       2.27347425       1.81570592       0.00000000       0.00000000       0.06931953       0.07362229       0.01225161       0.05542266
H       -2.66926425       2.31884355       2.06636003       0.00000000       0.00000000      -0.07165683      -0.00659930      -0.05218772       0.05828090
H       -2.81425989       4.50295856       0.50250017       0.00000000       0.00000000       0.04409395       0.04265418       0.01658585       0.06332510
H       -4.34039125       3.79320655       0.00392266       0.00000000       0.00000000      -0.02928320      -0.00484385       0.03270053       0.08658282
H       -2.71435041       1.54243398      -2.20543841       0.00000000       0.00000000      -0.09688069      -0.05044610       0.05323145       0.08707139
H       -3.84388402       2.91420581      -2.11241128       0.00000000       0.00000000      -0.00044097      -0.12173491      -0.01381747       0.07251448
H       -5.32956433       1.18765374      -2.00040451       0.00000000       0.00000000      -0.00628870       0.01841196       0.04436841       0.06701081
H       -5.08619828       1.51535608      -0.29760863       0.00000000       0.00000000       0.04806194      -0.03437081      -0.03435953       0.05709585
H       -4.83780694      -0.70466552      -0.11735511       0.00000000       0.00000000       0.01068647       0.00918689       0.01294925       0.04552676
H       -3.19573740      -0.44133008      -0.70124179       0.00000000       0.00000000       0.00387649       0.04177852      -0.01681557       0.04201249
H       -3.61707246      -1.63056143      -2.61128662       0.00000000       0.00000000       0.07566814      -0.02127135      -0.02695224       0.03300797
H       -5.09596335      -0.75222117      -2.92379684       0.00000000       0.00000000       0.00374068       0.01014623      -0.04246613       0.04337918
H       -6.36131652      -2.53313288      -2.30146826       0.00000000       0.00000000       0.01740881       0.05646031      -0.04558987       0.04645656
H       -5.59368966      -2.58785494      -0.73786186       0.00000000       0.00000000      -0.02927362      -0.01718330       0.01107775       0.03385008
H       -3.70574595      -3.92538971      -1.76638575       0.00000000       0.00000000      -0.10247752      -0.03451841      -0.06274177       0.00906864
H       -4.57480076      -3.88903671      -3.29937991       0.00000000       0.00000000      -0.01272772       0.04188345       0.10304239       0.03871496
H       -4.91198243      -6.01219676      -2.26068788       0.00000000       0.00000000      -0.01141044       0.05105122       0.03037326       0.03635777
H       -6.44216556      -5.15140530      -2.36315506       0.00000000       0.00000000       0.00892319      -0.03181844      -0.02814353       0.04246423
H       -6.65168191      -4.92640466      -0.07135517       0.00000000       0.00000000       0.02575183      -0.01535808       0.02075000       0.03891807
H       -4.91752163      -4.88873824       0.19883678       0.00000000       0.00000000      -0.08361835       0.02293210      -0.00137652       0.02686190
H       -5.81052009      -7.51374508      -0.78942497       0.00000000       0.00000000       0.02817773      -0.07945284       0.03957732       0.04042764
H       -6.59593232      -7.06081108       0.70612264       0.00000000       0.00000000      -0.01093373       0.04284779       0.02396997       0.04231649
H       -4.17296745      -6.36007268       1.46676389       0.00000000       0.00000000       0.03024616       0.02193205       0.11147035       0.01979647
H       -3.64196955      -7.51220540       0.23950497       0.00000000       0.00000000       0.00598365       0.00874956      -0.02471831       0.02147684
H       -4.56373959      -9.34222827       1.46780416       0.00000000       0.00000000      -0.01787814      -0.06991656      -0.15371676       0.03857818
H       -5.70326528      -8.30662464       2.31028065       0.00000000       0.00000000      -0.07954419      -0.00988143      -0.02594383       0.04072216
H       -2.69683302      -8.24203063       2.81849713       0.00000000       0.00000000       0.06527496      -0.01376302      -0.12913070       0.02680890
H       -3.88066596      -9.10396637       3.78403254       0.00000000       0.00000000      -0.02731003      -0.04597694       0.00983389       0.04602416
H       -3.94468962      -7.35195487       3.69042805       0.00000000       0.00000000       0.02110783      -0.01323942      -0.04621432       0.03059436
H       -0.89169820       3.68513127       1.42214975       0.00000000       0.00000000      -0.05969807      -0.13780406      -0.02298916       0.11394984
H       -0.15734679       4.06753544      -0.16765722       0.00000000       0.00000000       0.02456767      -0.02387223       0.02537555       0.08559414
H        1.97537697       3.99341907       0.46871409       0.00000000       0.00000000      -0.05400212       0.02183863       0.02422541       0.07380024
H        2.30027866       2.12483961       2.87559492       0.00000000       0.00000000      -0.05733793       0.05829200      -0.03725006       0.07731749
H        1.84969921       3.83348733       2.96633421       0.00000000       0.00000000      -0.00916167      -0.00088347      -0.05009951       0.08632703
H        4.50690538       2.68780565       2.90725455       0.00000000       0.00000000       0.01725097       0.03168995       0.07739519       0.07202348
H        4.09535294       4.39594005       3.01547767       0.00000000       0.00000000      -0.00655426       0.03510732      -0.02237429       0.08394817
H        5.56610480       3.80444218       1.04497706       0.00000000       0.00000000       0.02739499       0.00979893       0.01400185       0.09169595
H        4.05562956       4.56617708       0.54969836       0.00000000       0.00000000       0.00990043      -0.00416044      -0.02252311       0.06793957
H        4.91328785       0.72324948      -0.51906507       0.00000000       0.00000000      -0.00545035      -0.03059653      -0.01330361       0.06936341
H        6.13580168       1.78399026       0.21297376       0.00000000       0.00000000      -0.03582185       0.00135290      -0.07968039       0.07395766
H        6.32365517       1.76201086      -2.24574609       0.00000000       0.00000000       0.02050881       0.02884331       0.02940006       0.06882461
H        5.90055462       3.37827575      -1.69366639       0.00000000       0.00000000      -0.01651689      -0.04493740       0.03458526       0.06001141
H        3.66383450       1.49669135      -2.45498326       0.00000000       0.00000000      -0.00017484       0.00141759      -0.02779733       0.02620496
H        4.64013799       2.18676302      -3.75073013       0.00000000       0.00000000      -0.03180405      -0.02452603       0.03290199       0.05442944
H        3.27507276       3.90356301      -1.65626193       0.00000000       0.00000000      -0.01429443       0.04473294       0.01028226       0.00431325
H        2.49628329       3.43670644      -3.16152599       0.00000000       0.00000000       0.04012363      -0.04898164      -0.00742578       0.03018034
H        5.14756170       4.94425423      -3.05978086       0.00000000       0.00000000      -0.04258374      -0.03038115      -0.02304971       0.03668734
H        3.57491792       5.71826540      -3.15716624       0.00000000       0.00000000      -0.03879309      -0.00389848      -0.00505080       0.03791029
H        4.76982011       3.83806627      -5.24840824       0.00000000       0.00000000       0.03370204      -0.01157037       0.01865168       0.03743080
H        4.49241651       5.56604730      -5.39615967       0.00000000       0.00000000       0.03319508       0.01146549       0.00457039       0.04947292
H        3.12564384       4.46544374      -5.30187914       0.00000000       0.00000000      -0.06188858       0.00116483       0.00442115       0.03638245
C       -2.67692730      -3.02618809      -5.18893151       0.00000000       0.00000000      -0.02806257      -0.01387907       0.01752006      -0.10080457
C       -2.06921975      -2.83162269      -6.57159103       0.00000000       0.00000000       0.02456967       0.01094828       0.01577048      -0.05611886
C       -1.06907818      -3.93156722      -6.91652504       0.00000000       0.00000000       0.02580884      -0.01596633      -0.05041521      -0.05713918
C       -0.45420444      -3.81182732      -8.31564320       0.00000000       0.00000000       0.04045428      -0.00507961      -0.00984919      -0.06590654
C        0.68233669      -2.78881810      -8.46173416       0.00000000       0.00000000      -0.01756198       0.03315808      -0.01841500      -0.05656754
C        0.21397527      -1.39017454      -8.87091879       0.00000000       0.00000000      -0.02708854       0.00228086       0.00897577      -0.06114413
C        1.36729357      -0.43674704      -9.19802329       0.00000000       0.00000000      -0.03935663      -0.04451901      -0.02317337      -0.06475296
C        2.16245604       0.09091525      -7.99810709       0.00000000       0.00000000      -0.05496899       0.04993927      -0.01723802      -0.06180855
C        1.52839289       1.30413533      -7.29900387       0.00000000       0.00000000      -0.01302205       0.02288426       0.09236787      -0.06446624
C        0.67041030       0.97780587      -6.07545189       0.00000000       0.00000000       0.00147045      -0.02268094       0.10358587      -0.06177104
C        1.49541630       0.40023853      -4.91081193       0.00000000       0.00000000       0.03254992      -0.08684318      -0.05717953      -0.06532890
C        0.92306910      -0.95127691      -4.48375175       0.00000000       0.00000000       0.00405365       0.03272619       0.08458909      -0.01232843
N        1.76056378      -1.64631786      -3.51032558       0.00000000       0.00000000       0.02074195      -0.02604668      -0.07388838      -0.05072422
C        2.86599386      -2.44607420      -4.01365842       0.00000000       0.00000000       0.03120027       0.08387163       0.03619646      -0.02324463
C        4.21526051      -1.71940354      -3.89291104       0.00000000       0.00000000       0.10029666      -0.03967697       0.02897241      -0.06885945
C        5.38951390      -2.68813860      -3.73021537       0.00000000       0.00000000       0.01679641      -0.03356114       0.00921524      -0.07127184
C        5.32328567      -3.49977111      -2.43501684       0.00000000       0.00000000      -0.02666413       0.03838862      -0.03667790      -0.05995771
C        6.63648638      -4.20549318      -2.10240889       0.00000000       0.00000000       0.00539700       0.04274046       0.01819172      -0.06590594
C        7.70086233      -3.23254553      -1.57269294       0.00000000       0.00000000       0.04538249      -0.02863856       0.00743285      -0.06346902
C        8.80499588      -2.93921712      -2.58827089       0.00000000       0.00000000      -0.06840316      -0.05146569      -0.01231713      -0.05983865
C        9.98378663      -2.17509209      -1.98848258       0.00000000       0.00000000      -0.03935168      -0.05145319      -0.03568012      -0.06251706
C        9.63210286      -0.82011814      -1.37310407       0.00000000       0.00000000       0.00192476       0.01622079      -0.00565563      -0.06082686
C        8.90308868       0.16229790      -2.29278140       0.00000000       0.00000000      -0.01514743       0.02109320      -0.01063547      -0.05389395
C        9.70360520       0.55216307      -3.53502077       0.00000000       0.00000000      -0.01080849       0.00223100       0.01333855      -0.05783822
C        9.02036997       1.65694810      -4.33518033       0.00000000       0.00000000       0.00128877      -0.01470100       0.01054824      -0.10325307
C        1.56153207      -1.40323699      -2.22499441       0.00000000       0.00000000       0.08607723      -0.10064693      -0.10413485       0.25357449
O        0.67625338      -0.62242559      -1.82342002       0.00000000       0.00000000      -0.04026831       0.06216263      -0.02486704      -0.37382407
C        2.35726989      -2.13111614      -1.13502287       0.00000000       0.00000000       0.00059528       0.00551755       0.00124018       0.04074800
O        1.51399318      -2.25573672      -0.00120314       0.00000000       0.00000000      -0.04220722       0.05321962      -0.01286946      -0.23497700
C        0.50436536      -3.26493472      -0.15204044       0.00000000       0.00000000       0.01858549       0.00990925       0.06340857       0.09171270
C        0.78025984      -4.46079474       0.77197115       0.00000000       0.00000000       0.04011275       0.11110844       0.11053029      -0.07844512
C       -0.38261824      -5.46198519       0.75905348       0.00000000       0.00000000      -0.01796682       0.01244572       0.07054571      -0.07995398
C       -1.66886736      -4.85714056       0.18129776       0.00000000       0.00000000       0.01930596       0.02275864      -0.12763884      -0.02429361
N       -1.81335067      -3.44820209       0.48953569       0.00000000       0.00000000      -0.03738132      -0.03437670       0.04861390      -0.03528367
C       -3.08093872      -2.90888825       0.95845832       0.00000000       0.00000000       0.05387189       0.04417164      -0.01910671      -0.02476826
C       -3.46589701      -3.34343825       2.37031989       0.00000000       0.00000000      -0.03752920      -0.00150305       0.00001881      -0.06771439
C       -4.72506820      -2.56172664       2.79337188       0.00000000       0.00000000       0.08851533       0.04250513       0.05326865      -0.06529914
C       -5.88906891      -3.42574258       3.29691760       0.00000000       0.00000000      -0.03874957       0.06461400      -0.01806072      -0.06554672
C       -7.22110092      -2.90971573       2.74513321       0.00000000       0.00000000      -0.02579627      -0.04548017       0.06945935      -0.05350186
C       -8.37523742      -3.86425740       3.02058743       0.00000000       0.00000000      -0.02212982      -0.08392031      -0.04940441      -0.10711515
C       -0.81243747      -2.63118018       0.26052790       0.00000000       0.00000000      -0.07907308      -0.08971460      -0.00353862       0.26606940
O       -0.89362770      -1.38836570       0.38554959       0.00000000       0.00000000      -0.04768418      -0.02108058       0.03505239      -0.41137612
H       -3.43492681      -2.26848268      -5.00279531       0.00000000       0.00000000       0.01705624      -0.00190138       0.01115350       0.03616394
H       -1.91921145      -2.95900628      -4.40660449       0.00000000       0.00000000       0.00450622      -0.00364102      -0.04157521       0.01103082
H       -3.14774834      -4.00446463      -5.12475477       0.00000000       0.00000000       0.01271899      -0.00971944       0.00085000       0.03882707
H       -1.58812631      -1.85478788      -6.61204260       0.00000000       0.00000000       0.01936620       0.03526689      -0.01134110       0.02578461
H       -2.87307413      -2.83892772      -7.30885387       0.00000000       0.00000000       0.03375872       0.01377276      -0.03152044       0.04227698
H       -1.59263754      -4.88935777      -6.86501724       0.00000000       0.00000000      -0.00267996       0.00815972       0.02916698       0.03567805
H       -0.27173028      -3.96057122      -6.16473833       0.00000000       0.00000000      -0.02417246       0.02489852      -0.03410083       0.01378049
H       -1.24130525      -3.57921637      -9.03632236       0.00000000       0.00000000       0.02627495      -0.02050271       0.04343968       0.04340625
H       -0.05665027      -4.79374632      -8.58250542       0.00000000       0.00000000      -0.00096655       0.01239788       0.02202636       0.03775412
H        1.35795623      -3.14289490      -9.24446035       0.00000000       0.00000000      -0.00124738       0.00442431       0.03109723       0.03751104
H        1.26208445      -2.75328571      -7.53391578       0.00000000       0.00000000      -0.03980583       0.03115263      -0.01874931       0.01285232
H       -0.42372146      -0.94984995      -8.10562825       0.00000000       0.00000000       0.01077254      -0.00232005       0.02149042       0.02929962
H       -0.39755114      -1.50060526      -9.76961525       0.00000000       0.00000000       0.02545805       0.02733220       0.01233260       0.03884114
H        0.97190602       0.41439118      -9.75636137       0.00000000       0.00000000       0.00894242      -0.00485064       0.02452392       0.03965951
H        2.05294038      -0.96086467      -9.86569250       0.00000000       0.00000000       0.03568532      -0.02225430      -0.01255425       0.03882924
H        3.14049204       0.39889701      -8.36851384       0.00000000       0.00000000       0.03981150      -0.00195948      -0.02473127       0.03607880
H        2.33128585      -0.71702714      -7.28560564       0.00000000       0.00000000      -0.01306944       0.00455390       0.00039151       0.02919294
H        0.90880503       1.84603418      -8.01340475       0.00000000       0.00000000       0.02865282       0.00943694      -0.04425017       0.04895827
H        2.31841291       1.98487276      -6.97283707       0.00000000       0.00000000       0.00861196       0.01155864      -0.03753313       0.03272833
H       -0.10599722       0.26499572      -6.35251934       0.00000000       0.00000000       0.00007435       0.02778361      -0.03644666       0.04366388
H        0.16261011       1.88549937      -5.74476823       0.00000000       0.00000000       0.02340012       0.00737638      -0.04930854       0.03609062
H        1.49705526       1.07234433      -4.05012450       0.00000000       0.00000000      -0.02999120      -0.01752816      -0.03385311       0.03749551
H        2.53107486       0.26828078      -5.22760592       0.00000000       0.00000000      -0.02966887       0.01601911       0.00134050       0.05402831
H        0.81122649      -1.59984356      -5.35479697       0.00000000       0.00000000      -0.01658550       0.00029172       0.04854396       0.07995314
H       -0.05205628      -0.78938602      -4.01829591       0.00000000       0.00000000      -0.02926928      -0.05269147      -0.04605639       0.07568378
H        2.65914676      -2.67876455      -5.05902591       0.00000000       0.00000000       0.01883180      -0.00679994       0.03829541       0.08457928
H        2.90818191      -3.39000603      -3.46508877       0.00000000       0.00000000      -0.02981436       0.04195012      -0.07905196       0.06340248
H        4.19319011      -1.05157930      -3.02788611       0.00000000       0.00000000      -0.05408689      -0.01454837      -0.00722880       0.03239081
H        4.38706718      -1.09979243      -4.77494776       0.00000000       0.00000000      -0.03121786      -0.04621829       0.00823306       0.05749044
H        6.31007904      -2.10333214      -3.72659115       0.00000000       0.00000000      -0.06344427      -0.01538301      -0.01542851       0.06262871
H        5.43425593      -3.36671237      -4.58395585       0.00000000       0.00000000      -0.00657050       0.02612054       0.02114905       0.05045356
H        4.53409199      -4.25301886      -2.50359545       0.00000000       0.00000000       0.03521314      -0.02282496      -0.03377017       0.01561239
H        5.08272114      -2.82951237      -1.60542856       0.00000000       0.00000000      -0.02703470      -0.02161272       0.00129491       0.02120736
H        7.00757116      -4.72223703      -2.98717343       0.00000000       0.00000000      -0.00204890      -0.00870230      -0.00739742       0.04788176
H        6.42498861      -4.96555006      -1.34912898       0.00000000       0.00000000       0.03485196       0.00341678       0.02697083       0.03757656
H        8.16409009      -3.65684496      -0.68100311       0.00000000       0.00000000       0.03342433      -0.01250365      -0.00321088       0.03984810
H        7.21491480      -2.30099436      -1.27170808       0.00000000       0.00000000       0.06497140      -0.02802554       0.00297012       0.02797381
H        8.39858420      -2.38769816      -3.43746525       0.00000000       0.00000000       0.02769088       0.00339892      -0.00460271       0.03036833
H        9.17586151      -3.89264771      -2.97071127       0.00000000       0.00000000       0.04721547       0.02819536      -0.00952832       0.03668928
H       10.73929885      -2.04577008      -2.76330508       0.00000000       0.00000000       0.01454503       0.05410451      -0.01217658       0.04115377
H       10.42669965      -2.79239126      -1.20495603       0.00000000       0.00000000       0.04718180       0.00793094       0.02259559       0.03743846
H       10.56182196      -0.35660312      -1.04156860       0.00000000       0.00000000       0.03255545       0.03729003       0.01806628       0.03838052
H        9.02024015      -0.98459790      -0.48340381       0.00000000       0.00000000      -0.02324899       0.01231442       0.01340184       0.02524786
H        8.69623112       1.06802885      -1.71220032       0.00000000       0.00000000       0.01268501      -0.00508428      -0.02494445       0.01811045
H        7.93815943      -0.25411801      -2.59748849       0.00000000       0.00000000       0.02251694      -0.00942118      -0.00255685       0.01662303
H        9.83904029      -0.31926929      -4.17694345       0.00000000       0.00000000       0.00097859      -0.00300095       0.01962356       0.03792307
H       10.69184036       0.89643213      -3.22672836       0.00000000       0.00000000       0.00776538      -0.01330763      -0.00063579       0.03997880
H        8.02712531       1.34541131      -4.65862781       0.00000000       0.00000000       0.01671629       0.00562458       0.01562736       0.02167952
H        9.60539545       1.89665788      -5.21983474       0.00000000       0.00000000      -0.02065514      -0.00168728       0.02241826       0.04369096
H        8.92315423       2.56199096      -3.73734321       0.00000000       0.00000000      -0.01550650      -0.02519528      -0.00917653       0.03066606
H        3.18040563      -1.48166498      -0.81396201       0.00000000       0.00000000       0.02652694      -0.09310311      -0.00118842       0.12089582
H        2.73520722      -3.11278075      -1.43373644       0.00000000       0.00000000       0.02820005       0.05451766      -0.02292517       0.08702805
H        0.42110195      -3.57582395      -1.20378867       0.00000000       0.00000000       0.05754461      -0.04710300       0.02938073       0.06356122
H        0.92120723      -4.04984912       1.77595671       0.00000000       0.00000000      -0.02507166      -0.02809461      -0.04515943       0.08068059
H        1.71638628      -4.94093521       0.48743805       0.00000000       0.00000000      -0.02262541      -0.01162756      -0.03523371       0.07408424
H       -0.57075176      -5.80734410       1.77482317       0.00000000       0.00000000       0.01414911       0.06186485       0.03202215       0.08140693
H       -0.13019439      -6.34343867       0.17152005       0.00000000       0.00000000       0.02528584       0.01601161      -0.05636344       0.07569560
H       -2.53555395      -5.38301936       0.57030305       0.00000000       0.00000000      -0.05386837      -0.03746411       0.06748020       0.10550124
H       -1.68375449      -4.98220674      -0.91120806       0.00000000       0.00000000       0.06773580       0.06145408       0.06714780       0.06266969
H       -3.85887055      -3.19387518       0.24598618       0.00000000       0.00000000       0.09734135      -0.00101218       0.12550206       0.08678987
H       -2.97380589      -1.82074431       0.94530215       0.00000000       0.00000000       0.02028688      -0.13565975       0.05521474       0.08531057
H       -2.63679071      -3.13412611       3.04672692       0.00000000       0.00000000      -0.01138147      -0.04950809       0.01498984       0.05478939
H       -3.67023595      -4.41646433       2.39354015       0.00000000       0.00000000       0.05813256       0.06603101       0.05082990       0.05036762
H       -5.07937282      -1.98823444       1.93389063       0.00000000       0.00000000      -0.00535096      -0.03432367      -0.01607276       0.03251743
H       -4.45265936      -1.83116584       3.55258876       0.00000000       0.00000000      -0.00173494       0.01360213       0.04994029       0.04561987
H       -5.91730237      -3.42186236       4.38733065       0.00000000       0.00000000      -0.00942022      -0.04195828      -0.03743817       0.04378071
H       -5.75748376      -4.46171946       2.98025990       0.00000000       0.00000000      -0.02434575       0.01089666      -0.05973802       0.04198393
H       -7.11994027      -2.78698640       1.66241393       0.00000000       0.00000000      -0.06183509       0.03521787       0.02258034       0.02450365
H       -7.44840312      -1.93176409       3.18143561       0.00000000       0.00000000       0.05998270      -0.07476338      -0.07785801       0.03207130
H       -8.15816795      -4.84892382       2.60179046       0.00000000       0.00000000      -0.05609899       0.10144340       0.06336210       0.03655653
H       -9.29020959      -3.48971195       2.56481978       0.00000000       0.00000000       0.04009868      -0.03520541       0.02273760       0.04187886
H       -8.55025761      -3.97358458       4.08766943       0.00000000       0.00000000       0.04997134      -0.00627117      -0.00269890       0.04287259
N        0.13204482      -0.32450075       2.45707822       0.00000000       0.00000000      -0.04710670       0.02718459      -0.18958080       0.80327814
O       -0.17589575      -1.19909041       3.19535478       0.00000000       0.00000000      -0.05737376      -0.09250791       0.01576132      -0.39360084
O       -0.66825016       0.52874161       2.06174887       0.00000000       0.00000000      -0.04834217      -0.00089909       0.00222951      -0.44128546
O        1.29644048      -0.21875044       2.02663953       0.00000000       0.00000000       0.07213280      -0.05732772       0.05677847      -0.45909219
