149
Properties=species:S:1:pos:R:3:initial_charges:R:1:initial_magmoms:R:1:forces:R:3:charge:R:1 energy=-5988.256444901699 free_energy=-5988.256444901699 dipole="-1.5022718488632845 3.090386937791262 1.0626367019771596" pbc="F F F"
Lu      -0.07134229       0.02548797      -0.02636289       3.00000000       0.00000000       0.01418455       0.00298564      -0.05359843       0.76460453
C       -4.12616830       7.99115431       4.23938764       0.00000000       0.00000000      -0.01258047      -0.02777309      -0.00226341      -0.10649762
C       -2.68751401       8.30114789       3.81926097       0.00000000       0.00000000       0.00076514       0.05360336       0.00973656      -0.06665981
C       -1.92662936       7.04750625       3.52740008       0.00000000       0.00000000      -0.00860206       0.12271103      -0.00948780       0.03440382
C       -2.22904573       6.26301373       2.41469775       0.00000000       0.00000000       0.04509570       0.06518863       0.06840585      -0.03293933
C       -1.54557180       5.09242784       2.16755057       0.00000000       0.00000000      -0.06931274       0.01010749       0.01401453      -0.04749896
C       -0.56614786       4.63742633       3.05425316       0.00000000       0.00000000      -0.03313558       0.04445529       0.04472816       0.04612819
N        0.08432715       3.41107926       2.79388849       0.00000000       0.00000000      -0.04608991       0.01892088       0.02021393      -0.04042733
C        1.46603808       3.20909850       3.26937832       0.00000000       0.00000000      -0.04255912      -0.01409996      -0.03266732      -0.00172334
C        2.57614366       3.82278695       2.41911247       0.00000000       0.00000000      -0.05011961       0.00548586      -0.00229123      -0.11106208
C       -0.42154923       2.42774908       2.03124512       0.00000000       0.00000000       0.13602469       0.00761921      -0.00090769       0.24920273
O        0.39258108       1.61689241       1.51988505       0.00000000       0.00000000      -0.11542013       0.01221427       0.12579554      -0.41606016
C       -1.86395026       2.05466041       1.80881085       0.00000000       0.00000000      -0.01740863      -0.10667572      -0.08536990       0.07604962
C       -2.99921754       2.38643180       2.56447639       0.00000000       0.00000000      -0.00928750       0.01906604       0.01850236      -0.02850438
C       -4.18681599       1.73096937       2.31883281       0.00000000       0.00000000      -0.03591986       0.01437609       0.04807324      -0.00765999
C       -4.26533225       0.70538087       1.35673953       0.00000000       0.00000000      -0.11550935       0.00135736      -0.00828711       0.02572505
C       -5.42561010      -0.07855324       1.07045535       0.00000000       0.00000000       0.01085677      -0.03010916      -0.06604921      -0.02318220
C       -5.41247145      -1.06198751       0.12762010       0.00000000       0.00000000       0.04736874       0.08415724       0.03675293      -0.02081499
C       -4.23447239      -1.35817353      -0.62326347       0.00000000       0.00000000      -0.14301656       0.03497707       0.01545571       0.02762266
C       -4.12976472      -2.34597623      -1.62607361       0.00000000       0.00000000      -0.05247146      -0.05783362       0.01088615      -0.00131229
C       -2.93785443      -2.56411949      -2.28282958       0.00000000       0.00000000       0.08790874      -0.01403459       0.03107376      -0.02158760
C       -1.81356429      -1.80981338      -1.90467532       0.00000000       0.00000000       0.00808863       0.03395544       0.09146278       0.08437689
C       -0.37226072      -1.95993773      -2.30709380       0.00000000       0.00000000       0.02686314       0.05498074      -0.01473627       0.25783148
O        0.46675565      -1.55753829      -1.44965078       0.00000000       0.00000000      -0.05878499       0.09321703       0.00042273      -0.39928890
N        0.04945336      -2.47928442      -3.45306864       0.00000000       0.00000000       0.00958252      -0.03904726      -0.01448881      -0.02578881
C        1.50538033      -2.61781680      -3.60043505       0.00000000       0.00000000      -0.03437042      -0.01597878       0.01053671      -0.00241297
C        2.09029371      -3.64967498      -2.64262881       0.00000000       0.00000000      -0.02035666      -0.01759459      -0.02030484      -0.11794052
C       -0.73634171      -2.74853770      -4.60520387       0.00000000       0.00000000      -0.02509937      -0.02417046       0.00418651       0.03958849
C       -0.44729495      -3.85945158      -5.39958563       0.00000000       0.00000000       0.01295485      -0.00437241       0.05494784      -0.03916245
C       -1.13413754      -4.07172965      -6.57708927       0.00000000       0.00000000      -0.03843321       0.04381029       0.01915904      -0.02659365
C       -2.13509215      -3.19293033      -6.99465715       0.00000000       0.00000000      -0.02849252       0.00405810      -0.07997701       0.03718703
C       -2.86512230      -3.43590712      -8.28001779       0.00000000       0.00000000      -0.01052846      -0.00592507      -0.03847870      -0.06616706
C       -1.96835640      -3.25055052      -9.50967559       0.00000000       0.00000000       0.03608674       0.00784209       0.01673161      -0.10664270
C       -2.42063255      -2.08706133      -6.19337376       0.00000000       0.00000000       0.10378574      -0.07984648      -0.01269106      -0.03248710
C       -1.72621316      -1.85969115      -5.01865589       0.00000000       0.00000000      -0.00983197       0.01057968      -0.01484203      -0.04440182
N       -1.90993636      -0.88350669      -0.95396701       0.00000000       0.00000000       0.05660835       0.02675173      -0.08749067      -0.14406210
C       -3.06802090      -0.61703012      -0.34685971       0.00000000       0.00000000      -0.04360958      -0.01413635      -0.03769175       0.09057106
C       -3.08061466       0.43965749       0.63930282       0.00000000       0.00000000       0.01903647       0.05434450       0.03397782       0.09354115
N       -1.94354769       1.11822639       0.85565804       0.00000000       0.00000000      -0.00883258       0.01582305       0.07965220      -0.16864975
C       -0.21855704       5.44934558       4.13420315       0.00000000       0.00000000      -0.05561864       0.00008272       0.01206386      -0.04061137
C       -0.89115293       6.63538582       4.35860026       0.00000000       0.00000000       0.00309964       0.00228858      -0.02827574      -0.03078973
H       -4.64438034       8.91200005       4.48918269       0.00000000       0.00000000      -0.00032846      -0.00695395      -0.03069428       0.06756633
H       -4.13679251       7.34636035       5.11391868       0.00000000       0.00000000       0.01445816      -0.00651269       0.03610773       0.04462455
H       -4.66481945       7.49265090       3.43840941       0.00000000       0.00000000      -0.04074026       0.00683646      -0.01782672       0.04099370
H       -2.20047660       8.85839732       4.62036192       0.00000000       0.00000000       0.03067990      -0.02270733      -0.03955922       0.06301044
H       -2.70545283       8.93290817       2.92932955       0.00000000       0.00000000      -0.02978651       0.01022765      -0.01789288       0.06185920
H       -2.99239284       6.58867747       1.72464138       0.00000000       0.00000000       0.02234938       0.00516847      -0.00056750       0.05857049
H       -1.76222323       4.53745427       1.26697606       0.00000000       0.00000000       0.01680293      -0.07802680       0.01829263       0.01938467
H        1.63433354       2.13016535       3.32130437       0.00000000       0.00000000      -0.09709067       0.00301423       0.03482241       0.06076443
H        1.52185869       3.62889555       4.27284337       0.00000000       0.00000000       0.01745651      -0.09506559       0.00734917       0.08370508
H        2.55673246       3.44425515       1.39909915       0.00000000       0.00000000      -0.02815757      -0.01687935       0.06219024       0.03902998
H        3.54087314       3.55780529       2.85119813       0.00000000       0.00000000      -0.12014297       0.02012714       0.02752741       0.06770104
H        2.50298503       4.90641320       2.40246529       0.00000000       0.00000000      -0.01178166      -0.03456022       0.00108212       0.06704992
H       -2.95907799       3.14123856       3.33234481       0.00000000       0.00000000       0.07468382       0.03032611       0.01449680       0.08237349
H       -5.06072743       1.99206146       2.89528793       0.00000000       0.00000000       0.01861661      -0.00055720      -0.07046361       0.10254818
H       -6.33429127       0.12044742       1.61956281       0.00000000       0.00000000       0.04631583       0.02121408      -0.02215876       0.09029983
H       -6.29994469      -1.64272675      -0.06363512       0.00000000       0.00000000      -0.05802113      -0.01304953      -0.02491240       0.09644425
H       -4.98921724      -2.94894513      -1.87957019       0.00000000       0.00000000      -0.04451878       0.04142673       0.03759189       0.10069821
H       -2.86018265      -3.31540647      -3.05392051       0.00000000       0.00000000      -0.02880892       0.00641301       0.04590050       0.09151917
H        1.95280108      -1.63774466      -3.40154444       0.00000000       0.00000000      -0.01056821      -0.00494742       0.01073719       0.06890306
H        1.70558001      -2.89544810      -4.63513802       0.00000000       0.00000000       0.02288236       0.04490385       0.03547214       0.08605073
H        1.94089775      -3.34434752      -1.60876316       0.00000000       0.00000000       0.01845442      -0.03370002      -0.03580119       0.05754259
H        3.15739612      -3.74426204      -2.82508874       0.00000000       0.00000000      -0.02920912      -0.00741037      -0.01966093       0.07311902
H        1.62490544      -4.62064525      -2.79210940       0.00000000       0.00000000       0.01968237      -0.00646934      -0.00564700       0.06400196
H        0.30450092      -4.57143371      -5.09505049       0.00000000       0.00000000      -0.01556242       0.01895850       0.02561137       0.06320348
H       -0.87864661      -4.93100374      -7.18149546       0.00000000       0.00000000      -0.10151341       0.05860862       0.03948768       0.07700085
H       -3.71751333      -2.76046407      -8.36594573       0.00000000       0.00000000       0.00942308      -0.00760566       0.06844179       0.05551765
H       -3.24018292      -4.46223010      -8.27967051       0.00000000       0.00000000      -0.01454363       0.01382354      -0.01053209       0.06837281
H       -1.55003991      -2.24753175      -9.53481675       0.00000000       0.00000000       0.00015447       0.02085115       0.03091099       0.04381094
H       -2.54910389      -3.39702919     -10.41688041       0.00000000       0.00000000      -0.00504838      -0.01977250       0.05991638       0.06427286
H       -1.15035457      -3.96538205      -9.51104605       0.00000000       0.00000000       0.01157485      -0.00036420       0.01480916       0.04888381
H       -3.17401869      -1.38080277      -6.51156474       0.00000000       0.00000000       0.02339903      -0.04161594       0.03149519       0.06252104
H       -1.92767987      -0.97767786      -4.42802525       0.00000000       0.00000000       0.00741177       0.04500047       0.00144937       0.02808449
H        0.56724400       5.18384499       4.82260174       0.00000000       0.00000000      -0.06182851      -0.04798523       0.00568707       0.06072362
H       -0.60404632       7.25969744       5.19344197       0.00000000       0.00000000      -0.02976496      -0.09587724      -0.02889444       0.07545090
C       -6.43235976       0.84891866       4.79070745       0.00000000       0.00000000       0.00688142       0.01177557      -0.00990500      -0.10505681
C       -5.67129083      -0.31329814       5.43400521       0.00000000       0.00000000      -0.04524239      -0.00533467       0.04164741      -0.07024148
C       -4.24822179      -0.47440611       4.98312998       0.00000000       0.00000000      -0.03713190      -0.00317635       0.01522382       0.02326657
C       -3.21446525       0.16107887       5.66227473       0.00000000       0.00000000      -0.00679105       0.03101790       0.02076689      -0.03735274
C       -1.89123818      -0.04284390       5.32405612       0.00000000       0.00000000       0.01239582      -0.01072706      -0.05380944      -0.04632577
C       -1.54932763      -0.92252499       4.29408604       0.00000000       0.00000000       0.07858117      -0.01007567      -0.03874049       0.05549068
N       -0.15524159      -1.19174796       4.02846705       0.00000000       0.00000000       0.05257039       0.01941156      -0.11247611      -0.04161602
C        0.64552435      -1.37666224       5.23763303       0.00000000       0.00000000       0.04589548       0.01033199      -0.00841203      -0.01390045
C        0.14601381      -2.57352532       6.04168657       0.00000000       0.00000000      -0.01438910      -0.01331082      -0.03044150      -0.12224695
C        0.29795123      -1.27854660       2.77188245       0.00000000       0.00000000       0.02050536       0.09537675       0.02942064       0.26101498
O       -0.49475853      -1.25955266       1.79882350       0.00000000       0.00000000      -0.05253219       0.07301211      -0.07055033      -0.39744403
C        1.77095263      -1.15206879       2.37123454       0.00000000       0.00000000      -0.07601807       0.03059701      -0.01494477       0.07805494
C        2.97992331      -1.54813714       2.97021306       0.00000000       0.00000000      -0.02699142       0.02824126      -0.05396145      -0.02836403
C        4.17621839      -1.13697832       2.41551657       0.00000000       0.00000000      -0.01565616      -0.02650737      -0.01173855      -0.00297468
C        4.19771016      -0.26164707       1.31255402       0.00000000       0.00000000       0.10401434       0.03198575       0.02782799       0.02762928
C        5.35805130       0.34958545       0.75070689       0.00000000       0.00000000       0.14052973      -0.05902314      -0.00685198      -0.02193135
C        5.27170139       1.28643527      -0.23069456       0.00000000       0.00000000       0.11601030       0.00985813      -0.09619317      -0.02148033
C        4.01310662       1.71120056      -0.74921324       0.00000000       0.00000000      -0.00925400       0.02531701       0.04091146       0.02560297
C        3.80784575       2.78255469      -1.64517505       0.00000000       0.00000000       0.08472524      -0.01001488       0.04526782      -0.00242616
C        2.53263798       3.19211972      -1.97059415       0.00000000       0.00000000      -0.05315915       0.02220024      -0.00417265      -0.02418496
C        1.44426266       2.45958484      -1.47815989       0.00000000       0.00000000      -0.04472761      -0.05982627       0.03388621       0.08129289
C       -0.03694175       2.56308753      -1.78723272       0.00000000       0.00000000      -0.01475628       0.19517687       0.03351461       0.26153886
O       -0.58146517       1.44065204      -1.87396864       0.00000000       0.00000000      -0.06534191      -0.07287373       0.05684479      -0.39005988
N       -0.70140190       3.71831103      -1.90871169       0.00000000       0.00000000       0.06742478      -0.04654429       0.06674309      -0.04974944
C       -2.09468422       3.79724830      -2.41337307       0.00000000       0.00000000       0.05949081       0.00467567      -0.03870579      -0.00170216
C       -2.90124407       2.51584377      -2.53879559       0.00000000       0.00000000      -0.01067595      -0.05072506      -0.00744347      -0.11161504
C       -0.23914191       4.96822953      -1.38769405       0.00000000       0.00000000      -0.04225224       0.03307635      -0.02918593       0.04082767
C        0.58037764       5.02992439      -0.26420473       0.00000000       0.00000000      -0.03972791      -0.02639437       0.02335995      -0.05044210
C        0.83697646       6.24124841       0.35291785       0.00000000       0.00000000      -0.09508846      -0.00474261      -0.01271225      -0.03555577
C        0.22735642       7.41672252      -0.07047986       0.00000000       0.00000000      -0.01629336       0.04745031       0.07643147       0.03039932
C        0.34070564       8.66659453       0.74694391       0.00000000       0.00000000       0.01950513       0.06749310       0.03788073      -0.06248903
C        1.11167146       9.78867554       0.05001805       0.00000000       0.00000000       0.02064688      -0.00119548      -0.03658503      -0.10822584
C       -0.54478140       7.36464307      -1.22722426       0.00000000       0.00000000       0.02920912      -0.06805960      -0.01827641      -0.02730248
C       -0.75551045       6.16834723      -1.88495193       0.00000000       0.00000000       0.02104259      -0.01754623      -0.04332506      -0.04320736
N        1.63805575       1.38076504      -0.72692776       0.00000000       0.00000000      -0.03608549      -0.00310157       0.00375553      -0.15729684
C        2.85651226       1.04218886      -0.29831616       0.00000000       0.00000000       0.03593338      -0.06060874       0.02185499       0.09364604
C        2.94534345       0.04334298       0.74424953       0.00000000       0.00000000       0.01977957      -0.06810232       0.01930652       0.09223698
N        1.80821800      -0.46568079       1.22995859       0.00000000       0.00000000       0.00022034       0.01293656      -0.01717858      -0.14037592
C       -2.57713361      -1.54814404       3.59508044       0.00000000       0.00000000       0.02010118       0.04476972       0.00210208      -0.03843159
C       -3.90080422      -1.31456731       3.93236012       0.00000000       0.00000000       0.02364984       0.03352138      -0.01512747      -0.03992080
H       -7.41898029       0.93380343       5.23975261       0.00000000       0.00000000       0.05532401      -0.02388055       0.05215281       0.06815404
H       -6.57568338       0.68555331       3.72678211       0.00000000       0.00000000       0.00751793      -0.05517529      -0.02113043       0.03065030
H       -5.90920406       1.79001449       4.94349538       0.00000000       0.00000000       0.00994573       0.01432218       0.06095690       0.03630926
H       -6.21728444      -1.23343260       5.23044630       0.00000000       0.00000000      -0.01212418      -0.06323519       0.00053671       0.06239333
H       -5.67256725      -0.14968909       6.51099245       0.00000000       0.00000000       0.00410585      -0.04034608       0.06608247       0.06796046
H       -3.44804684       0.79198282       6.50627124       0.00000000       0.00000000       0.01585697       0.07101477      -0.03417704       0.06671349
H       -1.14254696       0.47398006       5.90462926       0.00000000       0.00000000      -0.00254680      -0.00335971      -0.08521008       0.05054974
H        0.57657530      -0.46870354       5.84174049       0.00000000       0.00000000       0.07970505      -0.06521029       0.01765712       0.07424702
H        1.68569285      -1.52428152       4.97060088       0.00000000       0.00000000      -0.03616782       0.06771853      -0.00095550       0.06612307
H       -0.88346984      -2.42694934       6.35340524       0.00000000       0.00000000      -0.02492622      -0.00752636       0.03139234       0.06621735
H        0.75675940      -2.70675512       6.92982856       0.00000000       0.00000000       0.02176245       0.05327519      -0.01768342       0.08198638
H        0.20002588      -3.48403901       5.45246673       0.00000000       0.00000000       0.01040885      -0.03079152      -0.04273415       0.06179989
H        3.01610572      -2.18578321       3.83655888       0.00000000       0.00000000      -0.00873142      -0.12741002      -0.02571918       0.09039739
H        5.09694734      -1.47484216       2.86281321       0.00000000       0.00000000       0.11372598       0.04630635      -0.02288923       0.10109433
H        6.32496487       0.05786783       1.12911083       0.00000000       0.00000000       0.02827250       0.00519271       0.05560780       0.09665518
H        6.16577614       1.73739829      -0.63418576       0.00000000       0.00000000       0.01240220       0.02172752       0.04806408       0.09621893
H        4.65497733       3.30782098      -2.05688264       0.00000000       0.00000000       0.07694041       0.01153942       0.03174424       0.10057642
H        2.37208145       4.05534418      -2.59211340       0.00000000       0.00000000       0.00171307       0.06222316      -0.09643933       0.08858663
H       -2.05150826       4.26224895      -3.40394777       0.00000000       0.00000000       0.07161507      -0.04971217      -0.00183576       0.08402378
H       -2.62898044       4.48247045      -1.74626773       0.00000000       0.00000000       0.04663320      -0.04580418      -0.00512527       0.06957777
H       -2.43269646       1.80922190      -3.21464424       0.00000000       0.00000000       0.01160863      -0.01918778      -0.02040475       0.06904652
H       -3.87495868       2.77356952      -2.95228776       0.00000000       0.00000000       0.01200361       0.06720712       0.05901591       0.07223705
H       -3.04782364       2.04280270      -1.57095638       0.00000000       0.00000000      -0.00710121      -0.03198073       0.00090703       0.04428258
H        0.96071297       4.12479558       0.18285560       0.00000000       0.00000000      -0.00106156      -0.03796527      -0.09818460       0.02196131
H        1.47215000       6.27236855       1.22570427       0.00000000       0.00000000      -0.05916522      -0.01604908      -0.04495758       0.04804796
H        0.83292378       8.43286209       1.69300403       0.00000000       0.00000000       0.00313044      -0.00718044      -0.00141505       0.04416496
H       -0.66361688       9.02972187       0.98069477       0.00000000       0.00000000      -0.00555808      -0.03321346      -0.05157340       0.05696021
H        2.10880287       9.45261332      -0.21892817       0.00000000       0.00000000       0.04121925       0.01236189      -0.00209363       0.04753332
H        1.20006788      10.64018036       0.71972751       0.00000000       0.00000000       0.01245991      -0.02966134      -0.02450050       0.06322908
H        0.60489884      10.11947982      -0.85116984       0.00000000       0.00000000      -0.02321677      -0.03046692      -0.02810587       0.05319393
H       -1.01498263       8.25959187      -1.60793178       0.00000000       0.00000000       0.06443892      -0.03150172       0.03003861       0.07731440
H       -1.35389167       6.17372896      -2.77941579       0.00000000       0.00000000       0.02334580       0.05759648      -0.04345431       0.06436749
H       -2.34482448      -2.24519502       2.80872949       0.00000000       0.00000000      -0.00164146      -0.07175793      -0.03125527       0.05549275
H       -4.68496377      -1.82781040       3.39868749       0.00000000       0.00000000       0.02125768      -0.07960566      -0.06196932       0.05134602
