160
Properties=species:S:1:pos:R:3:initial_charges:R:1:initial_magmoms:R:1:forces:R:3:charge:R:1 energy=-6627.444492325408 free_energy=-6627.444492325408 dipole="-1.0571591379020195 -0.5060326384780001 0.48572568462172644" pbc="F F F"
Nd       0.03249519      -0.06914277      -0.08985328       3.00000000       0.00000000       0.09909638       0.06602506      -0.03533876       0.86198203
C        1.21574910      -3.24863769      -4.79824054       0.00000000       0.00000000      -0.00349045       0.04955191      -0.02135292      -0.06960563
N        0.70552975      -2.03096118      -4.19531245       0.00000000       0.00000000      -0.04751919       0.07238324       0.05604175      -0.05192785
C        0.40045656      -1.92658696      -2.90191136       0.00000000       0.00000000      -0.01768150      -0.11151386       0.06425001       0.27203688
O       -0.10236522      -0.91615309      -2.39730670       0.00000000       0.00000000       0.09290025       0.03990387       0.04890511      -0.35894242
C        0.68539707      -3.12834804      -2.01198080       0.00000000       0.00000000      -0.02770294      -0.06214108       0.04997951      -0.12737709
C        1.80573086      -2.76658309      -1.05089154       0.00000000       0.00000000      -0.01678606      -0.00431446      -0.00296319       0.26833388
O        1.92337794      -1.58661046      -0.66924628       0.00000000       0.00000000      -0.00095870      -0.12300999       0.04416678      -0.39947950
N        2.64592895      -3.72453793      -0.65634502       0.00000000       0.00000000      -0.02072443      -0.08900114       0.04124027      -0.04816389
C        3.72992127      -3.37644210       0.24938287       0.00000000       0.00000000      -0.01760275       0.00035818       0.00187600      -0.05926047
C        2.56236181      -5.10639337      -1.01201666       0.00000000       0.00000000       0.02078323      -0.06682854      -0.02142805       0.04502740
C        1.36536612      -5.81790888      -0.96500718       0.00000000       0.00000000      -0.00869764      -0.02381224      -0.01545795      -0.04909796
C        1.32907200      -7.14979740      -1.34569284       0.00000000       0.00000000       0.10053646      -0.03720257       0.02223945      -0.02417810
C        2.49489385      -7.80169045      -1.71679592       0.00000000       0.00000000      -0.00509832      -0.04725116       0.02685902      -0.01945394
C        3.70096659      -7.12068975      -1.69227951       0.00000000       0.00000000      -0.03210669      -0.01387981      -0.00002738      -0.01868355
C        3.73028149      -5.77787288      -1.35989005       0.00000000       0.00000000       0.04353013      -0.01952585      -0.03524618      -0.04026918
C        0.48861267      -0.93319028      -5.08501403       0.00000000       0.00000000      -0.03697379       0.05073013      -0.05200152       0.05933964
C       -0.22263183      -1.15372253      -6.25716189       0.00000000       0.00000000      -0.03013842      -0.00776220      -0.04883714      -0.04260822
C       -0.35977109      -0.14006368      -7.18775989       0.00000000       0.00000000       0.02346920       0.03715469      -0.00552216      -0.02197902
C        0.21437603       1.09877146      -6.94933872       0.00000000       0.00000000      -0.00678301      -0.00368002      -0.03218071      -0.02561357
C        0.88345796       1.33331966      -5.75962619       0.00000000       0.00000000      -0.01732607      -0.01599716      -0.02321827      -0.02992711
C        1.01883725       0.32141699      -4.82245326       0.00000000       0.00000000      -0.01499299       0.03343531       0.00430055      -0.04140899
H        2.13581073      -3.57514533      -4.31875427       0.00000000       0.00000000       0.10988544       0.02685951       0.02160653       0.06996543
H        1.43089980      -3.02731566      -5.83678169       0.00000000       0.00000000       0.09377241      -0.07801832      -0.14053257       0.09940170
H        0.48729067      -4.05680201      -4.75576974       0.00000000       0.00000000      -0.08342546      -0.04020798      -0.03761675       0.07099133
H        0.88960115      -4.04315489      -2.55569646       0.00000000       0.00000000       0.02483895      -0.02269032       0.00210821       0.08802812
H       -0.21298026      -3.26078612      -1.40307351       0.00000000       0.00000000      -0.06495560       0.04979757      -0.00694225       0.11956004
H        3.54230085      -2.37815983       0.63511715       0.00000000       0.00000000      -0.02774476       0.01052710       0.04166654       0.07774237
H        4.69141517      -3.37909231      -0.26248895       0.00000000       0.00000000      -0.00414827       0.01362490      -0.04323794       0.07946151
H        3.75960385      -4.09701124       1.06483366       0.00000000       0.00000000       0.01205880       0.00724787       0.03126809       0.07746962
H        0.45799339      -5.35668644      -0.61315392       0.00000000       0.00000000      -0.00339923       0.10117110       0.04351168       0.03494320
H        0.39131033      -7.68887724      -1.32991394       0.00000000       0.00000000       0.08565554       0.06877487       0.01824097       0.06085043
H        2.46698879      -8.84078933      -2.00278713       0.00000000       0.00000000      -0.00850424      -0.00273607       0.01510685       0.07352198
H        4.62777931      -7.62828200      -1.92081692       0.00000000       0.00000000      -0.12667852       0.03187846      -0.05733764       0.07305457
H        4.67553013      -5.26323245      -1.38027144       0.00000000       0.00000000       0.02340488       0.05398657      -0.00755237       0.05611666
H       -0.66405070      -2.11977593      -6.43941086       0.00000000       0.00000000      -0.03359429      -0.04180506      -0.04856180       0.05422447
H       -0.90252746      -0.32188192      -8.10315506       0.00000000       0.00000000       0.03067938       0.00931042       0.04003469       0.06844691
H        0.14599046       1.87391460      -7.69566477       0.00000000       0.00000000      -0.02903748       0.02641257       0.02779543       0.06650647
H        1.31298259       2.30691318      -5.57003081       0.00000000       0.00000000       0.00660994      -0.06771410      -0.01191974       0.05042607
H        1.52671035       0.50847922      -3.89072479       0.00000000       0.00000000       0.03682005      -0.06551836       0.02831878       0.05085411
C       -1.58834277       2.41715729      -3.87046615       0.00000000       0.00000000      -0.00505534       0.05182118       0.06520360      -0.05856185
N       -2.40489030       2.75166194      -2.71245609       0.00000000       0.00000000      -0.03686459       0.07057436      -0.00089971      -0.05581154
C       -2.14863616       2.06885595      -1.59254834       0.00000000       0.00000000      -0.00005089       0.05232708      -0.01141047       0.26963296
O       -1.14665368       1.34917473      -1.50619089       0.00000000       0.00000000      -0.08320480      -0.05773598       0.04224190      -0.35624460
C       -3.21700650       2.12457334      -0.49274200       0.00000000       0.00000000       0.03524241       0.03890682      -0.10162232      -0.11785287
C       -2.58258308       2.02569205       0.89406422       0.00000000       0.00000000      -0.11153331       0.03458884      -0.04496694       0.26617291
O       -1.52782962       1.39083492       0.99696686       0.00000000       0.00000000       0.05850371       0.03936584       0.07203058      -0.36474516
N       -3.21128559       2.59345418       1.94155048       0.00000000       0.00000000       0.09256391      -0.05133887       0.07239397      -0.05431032
C       -4.57710549       3.08811545       1.84797430       0.00000000       0.00000000       0.03884819      -0.00782423       0.00856202      -0.07325928
C       -2.62569191       2.65983489       3.25221624       0.00000000       0.00000000       0.04138599       0.01377581       0.12085564       0.05520339
C       -3.41126545       3.08282027       4.32538440       0.00000000       0.00000000      -0.04672512       0.02210967       0.07385561      -0.05104530
C       -2.89860004       3.18724018       5.60636844       0.00000000       0.00000000       0.07400298      -0.02967587      -0.00686530      -0.02313376
C       -1.56483390       2.91168754       5.85027886       0.00000000       0.00000000      -0.00046192      -0.02038575       0.00193217      -0.02450870
C       -0.76893974       2.50473823       4.79480201       0.00000000       0.00000000      -0.03590819      -0.04692768      -0.02015188      -0.02603705
C       -1.29038863       2.35139376       3.52017468       0.00000000       0.00000000       0.00995989      -0.02229837       0.02580458      -0.04912755
C       -3.23881202       3.90368856      -2.78720921       0.00000000       0.00000000      -0.02783603       0.07974640      -0.01520922       0.04624275
C       -4.11841087       4.07898253      -3.84768605       0.00000000       0.00000000       0.00933153       0.00551438      -0.03950644      -0.04011717
C       -4.85756727       5.24707105      -3.94983442       0.00000000       0.00000000       0.03024591       0.01706141       0.06899610      -0.01833976
C       -4.74343487       6.22554243      -2.97358544       0.00000000       0.00000000      -0.02871701       0.02546008      -0.02945990      -0.02010074
C       -3.87084866       6.05377032      -1.90873971       0.00000000       0.00000000      -0.01653553      -0.00347456      -0.07120117      -0.02347398
C       -3.10560235       4.90376387      -1.82597205       0.00000000       0.00000000       0.00259953       0.05446896      -0.00213354      -0.05033502
H       -1.76067125       1.37426452      -4.14538424       0.00000000       0.00000000       0.00519331       0.07958914      -0.04329526       0.07471546
H       -0.53340905       2.52286040      -3.61992386       0.00000000       0.00000000       0.02530995       0.04636527      -0.00655683       0.08006025
H       -1.84176661       3.08130941      -4.69076220       0.00000000       0.00000000       0.02290212      -0.04920779      -0.01068358       0.08705682
H       -3.84129096       1.23679224      -0.65442624       0.00000000       0.00000000      -0.01762733       0.06020444      -0.01166470       0.08607056
H       -3.81732145       3.01672564      -0.63288212       0.00000000       0.00000000      -0.05476263      -0.00045887      -0.03252182       0.09203939
H       -4.63601327       4.13227589       2.14456201       0.00000000       0.00000000       0.08274033       0.11493480       0.03051877       0.09040512
H       -5.21376861       2.50550336       2.51058414       0.00000000       0.00000000      -0.10116690      -0.06993955       0.01929004       0.08137003
H       -4.98013153       3.00228272       0.85071512       0.00000000       0.00000000      -0.02515895      -0.04864885      -0.11489847       0.07308589
H       -4.44188237       3.35252698       4.20056237       0.00000000       0.00000000      -0.08967732       0.00442433       0.02871604       0.05941874
H       -3.55487470       3.49078881       6.40965125       0.00000000       0.00000000       0.08320870       0.01286127      -0.06211945       0.06729597
H       -1.15927019       3.00588191       6.84474146       0.00000000       0.00000000       0.01310213       0.01323789      -0.02516828       0.06170746
H        0.27647821       2.27854624       4.95429574       0.00000000       0.00000000      -0.09531404       0.02235878       0.02084835       0.03913742
H       -0.62863233       1.97075181       2.76130799       0.00000000       0.00000000      -0.03852719      -0.00149952      -0.00052858       0.07725515
H       -4.21587125       3.31130396      -4.59771565       0.00000000       0.00000000      -0.01255768      -0.04321929      -0.03573442       0.05649907
H       -5.51118015       5.39809957      -4.79883703       0.00000000       0.00000000       0.04444148      -0.04873970       0.14375234       0.07256567
H       -5.32463005       7.13011688      -3.05271383       0.00000000       0.00000000       0.00694321       0.00993888       0.00817000       0.07274883
H       -3.76262930       6.82646907      -1.15910291       0.00000000       0.00000000      -0.02489678      -0.07650885      -0.09214963       0.05992374
H       -2.37789500       4.78932425      -1.03561201       0.00000000       0.00000000       0.04027071      -0.00140018       0.00877428       0.03335291
C        3.76223776       3.55367889       2.71439984       0.00000000       0.00000000      -0.03798572       0.03964490       0.05933879      -0.07488165
N        2.53776678       3.34153329       1.95172569       0.00000000       0.00000000       0.00454767       0.05697200      -0.05172902      -0.04433427
C        2.23009428       2.12896815       1.46238874       0.00000000       0.00000000      -0.02524385       0.01409820       0.00277792       0.26938167
O        1.21282014       1.89886616       0.79137422       0.00000000       0.00000000       0.02513620      -0.03186372       0.01367851      -0.36923543
C        3.23327551       0.98854238       1.67110474       0.00000000       0.00000000       0.01266160      -0.01191344      -0.02625871      -0.13459062
C        2.54330338      -0.28151361       2.18759945       0.00000000       0.00000000      -0.02846302       0.02514304       0.00687318       0.27300611
O        1.48021795      -0.60269564       1.64596525       0.00000000       0.00000000       0.01733092       0.09311258       0.02192243      -0.34983218
N        3.15227018      -1.01186096       3.14324585       0.00000000       0.00000000       0.06006667      -0.06702177      -0.05333068      -0.04703174
C        4.35526790      -0.46947111       3.76481202       0.00000000       0.00000000       0.00391580      -0.02501379       0.06120087      -0.07664761
C        2.73735860      -2.34695949       3.50286367       0.00000000       0.00000000       0.03603576      -0.02138175       0.00483670       0.05814963
C        1.58944778      -2.95270794       2.98306207       0.00000000       0.00000000      -0.00779406      -0.00724775      -0.00443643      -0.05136537
C        1.19795337      -4.22042435       3.38278895       0.00000000       0.00000000       0.06787499      -0.02339183       0.03812248      -0.02803479
C        1.94290567      -4.94579072       4.29644467       0.00000000       0.00000000       0.02035952       0.01064639      -0.01320388      -0.02424447
C        3.11375480      -4.38571856       4.77448978       0.00000000       0.00000000       0.01943945       0.03815595      -0.02766385      -0.02203835
C        3.50351531      -3.11676012       4.38064547       0.00000000       0.00000000       0.03971236       0.00877095       0.00515160      -0.04729140
C        1.73229714       4.50583250       1.69806398       0.00000000       0.00000000       0.00952620       0.02080642      -0.05185742       0.05731514
C        0.36604956       4.42577463       1.43870605       0.00000000       0.00000000      -0.01368561      -0.00006415       0.00644817      -0.04955143
C       -0.39229391       5.57353117       1.28002521       0.00000000       0.00000000       0.03227527       0.04213825       0.02562688      -0.02669455
C        0.18607051       6.82687932       1.37383917       0.00000000       0.00000000       0.01185613      -0.00594275      -0.00012221      -0.02306791
C        1.55251505       6.91539745       1.57245854       0.00000000       0.00000000       0.03463538      -0.03720239       0.00050255      -0.02043936
C        2.31899847       5.77160208       1.71387726       0.00000000       0.00000000       0.02943062      -0.00285219      -0.00218426      -0.04507395
H        3.86713546       2.82692507       3.51587207       0.00000000       0.00000000      -0.09171905      -0.06509258       0.04370379       0.06746068
H        3.71722093       4.52493573       3.19083116       0.00000000       0.00000000      -0.02835750       0.08109409       0.09684134       0.10315381
H        4.65221745       3.52541989       2.08276708       0.00000000       0.00000000      -0.04142523       0.01038823      -0.05057285       0.07546700
H        4.10412754       1.27897249       2.23445589       0.00000000       0.00000000       0.05115193       0.01444272      -0.06441560       0.09448367
H        3.54252097       0.71741680       0.65530757       0.00000000       0.00000000       0.04465497      -0.03925054      -0.05258282       0.11807346
H        4.20439903       0.54785248       4.11829521       0.00000000       0.00000000      -0.13729465       0.05156936      -0.04217371       0.06830839
H        5.20385217      -0.49897023       3.08027376       0.00000000       0.00000000       0.02943740      -0.04874938       0.00985446       0.07310407
H        4.61018294      -1.04030683       4.64480475       0.00000000       0.00000000       0.04018845      -0.04612369       0.10725806       0.10263900
H        0.97467816      -2.45935720       2.25124839       0.00000000       0.00000000      -0.05443440       0.03072770      -0.03603802       0.07855306
H        0.29022304      -4.63792670       2.96911167       0.00000000       0.00000000       0.06836276       0.01449911       0.01831789       0.04119089
H        1.63318931      -5.92833755       4.61816213       0.00000000       0.00000000      -0.00269496       0.05493418      -0.03146169       0.06468977
H        3.75213935      -4.92465657       5.45975974       0.00000000       0.00000000      -0.10666055      -0.01633571      -0.04411862       0.06900732
H        4.44121206      -2.77366731       4.77814940       0.00000000       0.00000000       0.03957076      -0.03471261       0.03257385       0.05861745
H       -0.12127956       3.47388530       1.34785140       0.00000000       0.00000000       0.00346921      -0.02770376       0.03640153       0.06520671
H       -1.45407089       5.48256381       1.09771082       0.00000000       0.00000000       0.03469804      -0.00373158       0.02598885       0.03366748
H       -0.41031766       7.72072743       1.28390939       0.00000000       0.00000000       0.00089051      -0.01884958      -0.01829839       0.06400576
H        2.04012298       7.87640672       1.62751448       0.00000000       0.00000000      -0.04675953      -0.00729624      -0.04723582       0.07016274
H        3.38300590       5.89842552       1.81986345       0.00000000       0.00000000       0.03045599       0.00392355      -0.00538077       0.05996358
C       -5.26042996      -2.76045659       0.09545522       0.00000000       0.00000000      -0.00895772      -0.03548347       0.00668334      -0.06849720
N       -3.90938507      -2.54490033      -0.39358300       0.00000000       0.00000000       0.01556884      -0.02095911      -0.03165672      -0.05670507
C       -2.97203770      -1.81962225       0.22176422       0.00000000       0.00000000      -0.01912690      -0.02509515       0.02564993       0.27130980
O       -1.83698834      -1.66627426      -0.25715826       0.00000000       0.00000000      -0.01587832       0.05056628      -0.00273654      -0.38263408
C       -3.40293233      -1.17015648       1.52866114       0.00000000       0.00000000       0.00652749       0.00295165       0.01728227      -0.12492899
C       -2.24629661      -1.07493314       2.53011086       0.00000000       0.00000000       0.05576959      -0.03163935      -0.03658436       0.27013617
O       -1.10698414      -0.88662483       2.09673834       0.00000000       0.00000000      -0.10050495      -0.00508728      -0.03481493      -0.35242219
N       -2.56840311      -1.16290046       3.83359561       0.00000000       0.00000000       0.00332765       0.04840191       0.02857643      -0.05042986
C       -3.87928319      -1.64156188       4.25278001       0.00000000       0.00000000       0.00713107      -0.04803466       0.02523464      -0.07186065
C       -1.66105780      -0.81349558       4.88409122       0.00000000       0.00000000       0.01715935       0.02509427       0.00772879       0.05838196
C       -0.28264979      -0.79602144       4.69993182       0.00000000       0.00000000       0.02250356      -0.02145623       0.01553327      -0.05408174
C        0.56569866      -0.53667163       5.76138953       0.00000000       0.00000000      -0.01294041      -0.01089585       0.05431097      -0.02816245
C        0.06344105      -0.29815553       7.02735884       0.00000000       0.00000000       0.01148614       0.00098822       0.01548818      -0.02595215
C       -1.30768311      -0.24907923       7.20395609       0.00000000       0.00000000      -0.01341470       0.01042218      -0.01555598      -0.02307687
C       -2.16217128      -0.47632515       6.14091234       0.00000000       0.00000000      -0.01179739       0.00493900       0.00707916      -0.04802461
C       -3.62648667      -3.16683824      -1.64849554       0.00000000       0.00000000       0.01814252       0.01239512      -0.03853502       0.06114312
C       -2.60117868      -4.08989562      -1.76895266       0.00000000       0.00000000      -0.01791762      -0.01751941       0.00503380      -0.03681717
C       -2.41212385      -4.74092041      -2.97671636       0.00000000       0.00000000      -0.03517818      -0.01298725      -0.00995178      -0.02804734
C       -3.26722094      -4.49391098      -4.03788317       0.00000000       0.00000000       0.03445685      -0.01835417      -0.03734780      -0.02374309
C       -4.28575000      -3.56340732      -3.91535967       0.00000000       0.00000000       0.00504834      -0.01207937      -0.00923813      -0.02030708
C       -4.45359023      -2.88227974      -2.72561620       0.00000000       0.00000000      -0.02716321      -0.01529322      -0.02469471      -0.04073768
H       -5.25655889      -3.27560563       1.05416224       0.00000000       0.00000000       0.00624383      -0.05946218       0.07971019       0.07394830
H       -5.76828616      -3.40764981      -0.61256229       0.00000000       0.00000000      -0.07639332      -0.04125130      -0.03483516       0.10035590
H       -5.82947975      -1.83576787       0.18337170       0.00000000       0.00000000       0.02763897       0.07476648      -0.00815092       0.07025945
H       -4.27113501      -1.67148644       1.93440205       0.00000000       0.00000000      -0.00060923       0.04183884       0.00250932       0.09142486
H       -3.67602548      -0.13764639       1.29480979       0.00000000       0.00000000      -0.06379644      -0.00554378       0.06230499       0.08823302
H       -4.17278513      -2.52875227       3.69747805       0.00000000       0.00000000       0.04667274      -0.07022035      -0.09265732       0.06796698
H       -4.65813569      -0.88383101       4.15693821       0.00000000       0.00000000       0.04422522       0.07237613       0.01916478       0.06745003
H       -3.82146622      -1.95304867       5.28921641       0.00000000       0.00000000       0.00023689      -0.01846926       0.09299055       0.10261437
H        0.13884239      -0.97966836       3.73160831       0.00000000       0.00000000       0.00228895      -0.05688222       0.01819481       0.07864960
H        1.63311584      -0.54888017       5.59507497       0.00000000       0.00000000      -0.02831249      -0.00372509       0.02095392       0.03540702
H        0.72676091      -0.14416379       7.86247115       0.00000000       0.00000000       0.01114839       0.02013239       0.01696935       0.06182488
H       -1.73049809      -0.04807583       8.17548060       0.00000000       0.00000000       0.04373135       0.06282267       0.00107459       0.06568878
H       -3.21856775      -0.36924338       6.31869772       0.00000000       0.00000000      -0.02205189      -0.00670648       0.00905619       0.05338774
H       -1.99517687      -4.32293568      -0.90604919       0.00000000       0.00000000      -0.02862908      -0.03604612       0.01239206       0.03900812
H       -1.62639770      -5.47494187      -3.07811216       0.00000000       0.00000000      -0.01278087       0.00389871       0.02576466       0.05072294
H       -3.15587725      -5.04233181      -4.95770380       0.00000000       0.00000000       0.04211337      -0.02238367      -0.06546209       0.06710845
H       -4.96935791      -3.38424218      -4.72964226       0.00000000       0.00000000       0.06406718       0.01294340      -0.05149175       0.07018502
H       -5.24193844      -2.15338907      -2.62103279       0.00000000       0.00000000      -0.02376935       0.00582901      -0.02239664       0.05312108
O        2.08299037       1.01988838      -1.52210132       0.00000000       0.00000000       0.00295493       0.01281203      -0.00777488      -0.49537998
H        2.84523637       0.61216730      -1.95100675       0.00000000       0.00000000      -0.02197658      -0.07375895      -0.02773611       0.32798031
H        2.16035347       1.97047627      -1.66766546       0.00000000       0.00000000      -0.07459572       0.04195442      -0.02785948       0.32898377
