340
Properties=species:S:1:pos:R:3:initial_charges:R:1:initial_magmoms:R:1:forces:R:3:charge:R:1 energy=-10774.36417703447 free_energy=-10774.36417703447 dipole="-0.6543908282812064 -0.7357077048745368 0.15691214447409005" pbc="F F F"
Nd      -0.28890444       0.10009339       0.02695447       3.00000000       0.00000000       0.04555264      -0.04611155      -0.01791192       0.83267249
C       -5.15859184      -5.67571594       2.85608297       0.00000000       0.00000000      -0.02017676       0.00186628       0.00853941      -0.11234303
C       -4.40110934      -5.69268257       1.53729879       0.00000000       0.00000000      -0.01497471       0.00695276      -0.02867994      -0.05588656
C       -4.42803101      -4.36324498       0.78113067       0.00000000       0.00000000      -0.00233226       0.05746573      -0.03110933      -0.05918524
C       -5.82631591      -3.83911268       0.44744439       0.00000000       0.00000000      -0.05517545       0.01848702      -0.02666387      -0.07148755
C       -5.87055445      -2.75782075      -0.65876547       0.00000000       0.00000000      -0.01829091      -0.06145696       0.00913921      -0.02558146
C       -5.54065748      -3.35093715      -2.03922146       0.00000000       0.00000000       0.00142756      -0.02938506      -0.03702686      -0.07075581
C       -4.07638057      -3.39433926      -2.47553105       0.00000000       0.00000000       0.01411354       0.00768014      -0.00861422      -0.09760416
C       -5.02432801      -1.56535635      -0.19813715       0.00000000       0.00000000      -0.01737235       0.02121781      -0.02017049      -0.01594631
N       -4.76985727      -0.43936788      -1.11086071       0.00000000       0.00000000      -0.07805278      -0.01437215      -0.01186876      -0.05796349
C       -5.92232770       0.29235004      -1.64744867       0.00000000       0.00000000      -0.00439157       0.08950930      -0.02677520      -0.02464289
C       -6.60531749      -0.16911001      -2.96375332       0.00000000       0.00000000      -0.03052319       0.04205617       0.02479771      -0.02952608
C       -7.55131416       0.93657844      -3.47116235       0.00000000       0.00000000      -0.00178725       0.03641588       0.01826087      -0.06828262
C       -8.65340022       1.36198600      -2.51059071       0.00000000       0.00000000      -0.00292088      -0.01031442       0.03193456      -0.11431626
C       -5.66718957      -0.55130494      -4.11780674       0.00000000       0.00000000      -0.00402603      -0.02877951      -0.02163705      -0.06663584
C       -6.42420016      -1.35342509      -5.19506456       0.00000000       0.00000000       0.06822338       0.02608578       0.03375952      -0.06515412
C       -5.51483121      -2.15255988      -6.12885213       0.00000000       0.00000000       0.03051010       0.03940897       0.01209962      -0.05491987
C       -4.82571390      -1.27360416      -7.16383782       0.00000000       0.00000000       0.01448966       0.02145108      -0.01022685      -0.10716215
C       -3.53747688       0.07070937      -1.02961950       0.00000000       0.00000000      -0.01616954      -0.02276419      -0.05150197       0.25545628
O       -2.61368365      -0.48362756      -0.39705386       0.00000000       0.00000000      -0.01068370       0.01888077       0.02787951      -0.38341823
C       -3.20106779       1.35034431      -1.79036178       0.00000000       0.00000000       0.08030691       0.02904961      -0.10892410       0.04527935
O       -1.88439496       1.80530980      -1.47358898       0.00000000       0.00000000       0.03779296       0.01180594       0.00317094      -0.22412368
C       -1.83957098       3.11323794      -0.91603599       0.00000000       0.00000000       0.08217766       0.06680598      -0.00321008       0.04672400
C       -1.88650451       3.02418918       0.61563684       0.00000000       0.00000000      -0.08778626      -0.14140060      -0.03863180       0.24975938
O       -1.54302820       1.92670198       1.10630416       0.00000000       0.00000000       0.00345986       0.02830729       0.02469142      -0.36636766
N       -2.30351556       4.05640944       1.33208260       0.00000000       0.00000000       0.05272403       0.06717073       0.11947032      -0.04539371
C       -2.56534441       5.39346312       0.81107074       0.00000000       0.00000000       0.01296672      -0.08764939       0.00696353      -0.02485401
C       -4.01206237       5.96303205       0.79045364       0.00000000       0.00000000      -0.05874186       0.04358972       0.03303078      -0.03067172
C       -5.09740401       5.09324228       0.12792017       0.00000000       0.00000000       0.05411440       0.02075259       0.00558759      -0.06112602
C       -5.35729951       3.69547103       0.68576008       0.00000000       0.00000000       0.04182174       0.01173796      -0.02453935      -0.10815987
C       -4.44805208       6.63972710       2.11439255       0.00000000       0.00000000      -0.01913880      -0.02870736      -0.00620359      -0.07278718
C       -5.23656422       5.84068277       3.15415723       0.00000000       0.00000000       0.01430704       0.00319562      -0.03434552      -0.06334834
C       -5.33279428       6.61731756       4.46971290       0.00000000       0.00000000       0.01336330       0.00605454      -0.05879161      -0.05886993
C       -5.86215045       5.73520379       5.59091114       0.00000000       0.00000000      -0.00740501       0.00814083      -0.00673594      -0.10733692
C       -2.24496086       3.99286623       2.79035955       0.00000000       0.00000000      -0.05473563       0.00486127       0.01388352      -0.02855203
C       -0.83967614       4.32504145       3.32813108       0.00000000       0.00000000       0.02699692      -0.02690254      -0.08574194      -0.02284799
C       -0.87699299       5.42903861       4.40022156       0.00000000       0.00000000       0.00454158      -0.05537582       0.00130024      -0.06062163
C       -1.58275462       5.03603774       5.69190362       0.00000000       0.00000000      -0.05245495      -0.06592838      -0.01588140      -0.11260694
C       -0.00199722       3.11725190       3.81227601       0.00000000       0.00000000      -0.03054500      -0.01286245      -0.05156007      -0.06727746
C       -0.72296114       1.80271687       4.10905256       0.00000000       0.00000000       0.00762776       0.01606629      -0.00126845      -0.06847382
C        0.27210261       0.66258198       4.32962201       0.00000000       0.00000000      -0.01220098      -0.02813617       0.00511471      -0.05251527
C        1.16883797       0.87242076       5.53785643       0.00000000       0.00000000       0.05930159      -0.03160701       0.02985972      -0.11088964
H       -4.98214433      -6.60558010       3.38753778       0.00000000       0.00000000      -0.02786529      -0.01903976       0.05002787       0.04914876
H       -6.22595204      -5.58208323       2.68964549       0.00000000       0.00000000      -0.04707286       0.00647041      -0.00956541       0.05061866
H       -4.83465174      -4.85103022       3.48569181       0.00000000       0.00000000       0.01188013       0.02542669       0.02464030       0.02830133
H       -4.80983401      -6.48055029       0.90324088       0.00000000       0.00000000      -0.01904484       0.01262388      -0.00991363       0.04608454
H       -3.35233355      -5.94030344       1.73261490       0.00000000       0.00000000      -0.01591209      -0.04267124      -0.01475751       0.01634010
H       -3.85870662      -4.50111868      -0.13538746       0.00000000       0.00000000      -0.01700837      -0.00863044      -0.05756012       0.02782233
H       -3.90760305      -3.61321471       1.37807855       0.00000000       0.00000000       0.04090309       0.04480959       0.02560607       0.01369673
H       -6.28221444      -3.43890089       1.35526187       0.00000000       0.00000000       0.01666749       0.00880749      -0.01964905       0.04198238
H       -6.45042446      -4.66995135       0.11643167       0.00000000       0.00000000       0.01422279      -0.01848995       0.01027815       0.05916396
H       -6.91103604      -2.42319044      -0.71893483       0.00000000       0.00000000      -0.03926030      -0.04650643       0.02532946       0.04762923
H       -6.09627962      -2.79240207      -2.78730622       0.00000000       0.00000000       0.04821613       0.01239201       0.00331482       0.05547129
H       -5.93907961      -4.36638214      -2.06619867       0.00000000       0.00000000       0.00493025       0.00227282      -0.00694683       0.05589975
H       -3.51325373      -2.53015340      -2.12450837       0.00000000       0.00000000      -0.03526780      -0.05656081      -0.00737702       0.01915927
H       -4.04463767      -3.40017584      -3.56270331       0.00000000       0.00000000       0.05744861       0.00893397       0.01933075       0.04164059
H       -3.58507456      -4.30707575      -2.14134105       0.00000000       0.00000000      -0.01454956       0.05637956       0.04988688       0.02340557
H       -4.04104458      -1.92291296       0.10138873       0.00000000       0.00000000       0.03182710      -0.00432862      -0.03333594       0.08207390
H       -5.50406631      -1.14957481       0.69282197       0.00000000       0.00000000      -0.06922215      -0.00434505       0.03617276       0.06240730
H       -5.64330609       1.33581029      -1.78847880       0.00000000       0.00000000       0.01161539      -0.00667816       0.03083096       0.05102949
H       -6.69086876       0.26244397      -0.86834365       0.00000000       0.00000000       0.03207955      -0.02148127      -0.03759562       0.07885445
H       -7.22400946      -1.03616077      -2.72566566       0.00000000       0.00000000      -0.02573032      -0.03811392       0.01962564       0.05293825
H       -8.03366291       0.55962991      -4.37358342       0.00000000       0.00000000       0.03147304       0.01119510       0.04837082       0.06235352
H       -6.97294478       1.81781849      -3.76350689       0.00000000       0.00000000       0.05328237      -0.04247728       0.05356338       0.03283522
H       -9.22502140       0.50265696      -2.17163951       0.00000000       0.00000000      -0.00787774      -0.01699726       0.01542271       0.04596831
H       -9.33291658       2.03447014      -3.02790195       0.00000000       0.00000000      -0.00690493      -0.01698948       0.04187292       0.05880467
H       -8.26249842       1.88818051      -1.64419922       0.00000000       0.00000000       0.01338183       0.00116149       0.04390171       0.02839416
H       -4.83906763      -1.15308844      -3.74201692       0.00000000       0.00000000       0.01622792       0.00733583       0.02341891       0.02916176
H       -5.24829534       0.35303343      -4.56545233       0.00000000       0.00000000      -0.00650237      -0.01806601       0.02162473       0.03121112
H       -7.02473416      -0.68337616      -5.81085798       0.00000000       0.00000000       0.00626035       0.00170737       0.05768194       0.04980435
H       -7.11263236      -2.04619375      -4.70533751       0.00000000       0.00000000       0.03303033       0.00132916       0.00634166       0.03564936
H       -6.11566412      -2.90077345      -6.64714838       0.00000000       0.00000000      -0.02292890       0.03033042      -0.00923166       0.04727947
H       -4.76656771      -2.68931231      -5.54241275       0.00000000       0.00000000      -0.00538744      -0.00044552       0.02275500       0.02138232
H       -5.56838204      -0.75322459      -7.76214633       0.00000000       0.00000000       0.01380304       0.01954181      -0.01122144       0.04876441
H       -4.21947569      -1.87520010      -7.83786214       0.00000000       0.00000000       0.00524162       0.01295990       0.01709424       0.03804935
H       -4.18985806      -0.53084810      -6.68513421       0.00000000       0.00000000       0.01161894       0.00064541      -0.01682566       0.02521211
H       -3.92587402       2.14339891      -1.58465462       0.00000000       0.00000000       0.02185001      -0.05999646      -0.01953879       0.07864551
H       -3.20619967       1.11984172      -2.86333449       0.00000000       0.00000000      -0.07842153       0.03338072      -0.01069289       0.10628287
H       -2.63412243       3.74419292      -1.32555200       0.00000000       0.00000000       0.02212388      -0.03772565      -0.04802643       0.08096504
H       -0.85919635       3.51934182      -1.20216704       0.00000000       0.00000000      -0.00954296       0.06600686      -0.01979951       0.09994050
H       -2.15224177       5.45925415      -0.19375689       0.00000000       0.00000000      -0.03099140      -0.01364519      -0.05414139       0.04858695
H       -1.98680898       6.07511550       1.44137304       0.00000000       0.00000000       0.05861924       0.04305661      -0.07618546       0.07790662
H       -3.89366035       6.81280450       0.10598522       0.00000000       0.00000000      -0.00035388       0.01196183      -0.01999736       0.05730648
H       -4.85272086       5.00475048      -0.93576619       0.00000000       0.00000000       0.01629950      -0.02794649       0.00145147       0.02303062
H       -6.02843317       5.66220481       0.18331661       0.00000000       0.00000000       0.05231861      -0.02696279       0.00616454       0.06341932
H       -4.48681730       3.05284687       0.58499953       0.00000000       0.00000000       0.01906151      -0.06036891       0.01551793       0.01017897
H       -6.18364845       3.24304616       0.13946241       0.00000000       0.00000000       0.01508714       0.02416869      -0.00477990       0.03649926
H       -5.63508456       3.72665704       1.73166690       0.00000000       0.00000000      -0.00553432      -0.00340634      -0.00551522       0.05829154
H       -5.06934156       7.50085808       1.85496915       0.00000000       0.00000000       0.03166275      -0.05844101      -0.04202348       0.05433957
H       -3.55188172       7.05133399       2.58904586       0.00000000       0.00000000      -0.03449612      -0.01554349      -0.00202070       0.03598002
H       -4.77154695       4.87608180       3.36424959       0.00000000       0.00000000      -0.03803902       0.00992659      -0.00573969       0.02863210
H       -6.24417882       5.64706504       2.78396381       0.00000000       0.00000000       0.00505520       0.01683579       0.01296754       0.04231195
H       -5.98622894       7.47959442       4.33544937       0.00000000       0.00000000      -0.00065542      -0.00395598       0.02168705       0.04420905
H       -4.34529597       6.99688567       4.74360388       0.00000000       0.00000000       0.01088071      -0.01882466       0.01938145       0.03101023
H       -6.85593203       5.36960912       5.34983415       0.00000000       0.00000000      -0.04791691      -0.00212479       0.02584318       0.04183949
H       -5.91262994       6.29233221       6.52008851       0.00000000       0.00000000      -0.03952158       0.01948932       0.03288226       0.05058039
H       -5.21001872       4.87723803       5.74452184       0.00000000       0.00000000       0.00492884      -0.02786040       0.02047348       0.02678989
H       -2.59939941       3.01269484       3.09677332       0.00000000       0.00000000       0.07151795      -0.01731652       0.06238667       0.07933251
H       -2.94231995       4.73917021       3.15204402       0.00000000       0.00000000       0.00511285       0.02912155       0.04889929       0.10033826
H       -0.29580736       4.76242588       2.47918155       0.00000000       0.00000000      -0.00294031       0.00377668       0.06452875       0.02027363
H       -1.34995782       6.32289723       3.98940816       0.00000000       0.00000000      -0.07053358      -0.00158477      -0.01351108       0.03399842
H        0.15810345       5.70593874       4.61545294       0.00000000       0.00000000      -0.02712864       0.00450744       0.05417137       0.03965425
H       -2.65465423       4.94787232       5.53270067       0.00000000       0.00000000       0.01859658      -0.04576987       0.03075770       0.04108636
H       -1.41867651       5.79789679       6.44824382       0.00000000       0.00000000      -0.01530366       0.02042174      -0.00443432       0.05456690
H       -1.21173820       4.09005284       6.08467989       0.00000000       0.00000000      -0.01602955       0.10530616      -0.05892967       0.04462004
H        0.53271857       3.43822390       4.70576282       0.00000000       0.00000000      -0.00456531      -0.09881587      -0.02468995       0.06099884
H        0.74003749       2.89723571       3.04533763       0.00000000       0.00000000       0.03628117      -0.03423831      -0.02737336       0.01845717
H       -1.32217905       1.50901062       3.24566077       0.00000000       0.00000000      -0.03276500      -0.01183493       0.05086373       0.06152070
H       -1.36426458       1.90716403       4.98688018       0.00000000       0.00000000       0.00229720       0.01067667      -0.02890300       0.04200825
H        0.86298407       0.54385279       3.41498356       0.00000000       0.00000000       0.02794964      -0.01090967      -0.04590673       0.02397918
H       -0.27927365      -0.26800837       4.45937857       0.00000000       0.00000000      -0.02912307      -0.02421524       0.01720435       0.04075104
H        1.80606937       1.73742131       5.39561505       0.00000000       0.00000000       0.01436745       0.04442616       0.05400207       0.03948628
H        1.80483119       0.00788276       5.70678427       0.00000000       0.00000000      -0.00184446      -0.01232116      -0.01924931       0.03722028
H        0.57310804       1.02612098       6.43459678       0.00000000       0.00000000      -0.00745522       0.01312729      -0.02649623       0.04730522
C        1.95019855       4.19769708       8.20120638       0.00000000       0.00000000       0.01645786       0.03496440      -0.01016874      -0.10862443
C        2.28778280       4.82397823       6.84873360       0.00000000       0.00000000       0.02130677      -0.02021049      -0.00861443      -0.05663365
C        3.40415066       4.05219128       6.13529315       0.00000000       0.00000000      -0.04955940      -0.02056736       0.01375335      -0.06662105
C        3.53327622       4.34067816       4.62965379       0.00000000       0.00000000      -0.03186784       0.01924165       0.04483861      -0.06622933
C        4.12881025       3.17161582       3.82623218       0.00000000       0.00000000      -0.00529528       0.00382813       0.00024377      -0.02719693
C        5.62411828       2.90580937       4.09809656       0.00000000       0.00000000      -0.03341371      -0.00379901      -0.03402908      -0.06262822
C        5.96693637       2.37497577       5.48607909       0.00000000       0.00000000       0.00368287       0.00882879      -0.02575119      -0.11186901
C        4.03489844       3.43943523       2.29962582       0.00000000       0.00000000       0.04396733       0.00297263      -0.00891681      -0.03395975
N        2.77176799       3.29666611       1.56584715       0.00000000       0.00000000       0.08396476       0.05685860      -0.06756603      -0.05655528
C        2.21160405       4.53009358       1.00376630       0.00000000       0.00000000       0.05381098      -0.04823548      -0.00186330      -0.01167251
C        2.79696196       4.99596467      -0.35868282       0.00000000       0.00000000       0.01879214      -0.01045055      -0.01743749      -0.02628107
C        4.32066568       4.81957501      -0.46961126       0.00000000       0.00000000      -0.00431429      -0.03202867       0.05396437      -0.06191425
C        4.90031167       5.10181628      -1.85464650       0.00000000       0.00000000      -0.02447722      -0.00900613       0.02905487      -0.11125056
C        2.42438577       6.46897124      -0.59327701       0.00000000       0.00000000       0.01716648      -0.00482553       0.00146358      -0.07603467
C        0.95684805       6.75426495      -0.91493852       0.00000000       0.00000000      -0.00686274       0.00516696       0.03844192      -0.06584970
C        0.49826388       6.16787237      -2.24987663       0.00000000       0.00000000       0.02558191      -0.02121957       0.00683397      -0.05561498
C       -0.83747169       6.74972691      -2.69505676       0.00000000       0.00000000      -0.00680930      -0.01016211       0.01016603      -0.11001700
C        2.24340834       2.12124400       1.23454173       0.00000000       0.00000000       0.02946181      -0.00181239       0.03687083       0.26104524
O        1.22873302       1.98740493       0.51545477       0.00000000       0.00000000      -0.00779357      -0.02581496      -0.02952370      -0.38093225
C        2.94906797       0.88238583       1.78372611       0.00000000       0.00000000      -0.00322348      -0.01781282       0.02929258       0.05165328
O        2.22045934      -0.31173494       1.50926369       0.00000000       0.00000000      -0.07719173      -0.01572799      -0.08542249      -0.24310540
C        3.06991548      -1.38282451       1.10892408       0.00000000       0.00000000      -0.02059706      -0.07128414      -0.02582992       0.05075810
C        3.12702811      -1.40707371      -0.43136476       0.00000000       0.00000000       0.00115761      -0.01444307      -0.07036180       0.24619901
O        2.16044406      -0.87327609      -1.00597788       0.00000000       0.00000000      -0.07066845       0.00649180       0.03141309      -0.38963462
N        4.14362027      -1.99019686      -1.07340878       0.00000000       0.00000000      -0.00524892      -0.01901902       0.02787565      -0.06481714
C        5.41813194      -2.36955646      -0.44443640       0.00000000       0.00000000      -0.00126281      -0.01394009       0.00621662      -0.02583471
C        5.65751035      -3.85203455      -0.05200222       0.00000000       0.00000000      -0.00829907      -0.02677290      -0.03489129      -0.02595256
C        6.18492525      -4.68820532      -1.23328819       0.00000000       0.00000000       0.05558913       0.03925370       0.00444281      -0.06599812
C        6.15631437      -6.19901126      -0.98119406       0.00000000       0.00000000      -0.01921356       0.09292910      -0.01381777      -0.10730572
C        6.70652376      -3.89793613       1.07402161       0.00000000       0.00000000      -0.02697779       0.00871648      -0.04856268      -0.07812095
C        6.17556359      -3.62565261       2.48476406       0.00000000       0.00000000      -0.00477366      -0.00428380      -0.00317978      -0.06033652
C        5.84675276      -4.90162935       3.26525443       0.00000000       0.00000000       0.01179841      -0.02883377       0.01004803      -0.05927479
C        4.58084997      -5.61497941       2.80341787       0.00000000       0.00000000       0.00469914       0.01124622       0.01486342      -0.10083655
C        4.17068650      -1.87358555      -2.54211768       0.00000000       0.00000000       0.05857835      -0.02511095       0.06577509      -0.01266164
C        3.06363061      -2.54709890      -3.36173354       0.00000000       0.00000000       0.03612425       0.06397353      -0.02862944      -0.02295495
C        3.28976618      -2.17341979      -4.84458283       0.00000000       0.00000000      -0.00886782      -0.01439005      -0.00535641      -0.06849333
C        3.46722046      -0.69615353      -5.18545552       0.00000000       0.00000000      -0.01095377      -0.02467929       0.01052988      -0.11380565
C        3.04250447      -4.08217846      -3.31271665       0.00000000       0.00000000       0.01531367      -0.00399926       0.03041201      -0.07325999
C        2.69457832      -4.73459572      -1.97002360       0.00000000       0.00000000       0.04112537      -0.01623555       0.06776789      -0.06769140
C        1.86454911      -6.02106005      -2.12738751       0.00000000       0.00000000      -0.02055579       0.02255178       0.05876272      -0.05361910
C        2.72167392      -7.26520936      -2.34821057       0.00000000       0.00000000       0.01078759       0.01522016       0.01378509      -0.11157153
H        1.17123718       4.76994696       8.69872519       0.00000000       0.00000000       0.02142302       0.02555879      -0.01644811       0.04552294
H        2.81769353       4.17121183       8.85538054       0.00000000       0.00000000       0.02812966       0.03871709      -0.05548819       0.04549461
H        1.59030860       3.17787530       8.07848822       0.00000000       0.00000000       0.01936102      -0.01045171      -0.03769755       0.03088949
H        2.58634225       5.86374893       6.99887334       0.00000000       0.00000000      -0.02944485      -0.05246727      -0.06863666       0.03947714
H        1.38265482       4.81525354       6.23701175       0.00000000       0.00000000       0.04163858       0.05172381       0.00149428       0.02616311
H        3.20579604       2.98751673       6.27440638       0.00000000       0.00000000       0.04054855       0.00802999       0.01369319       0.03657813
H        4.34415188       4.27641375       6.63501034       0.00000000       0.00000000      -0.06198832       0.01378603       0.01237899       0.05031349
H        4.13509029       5.23772355       4.47586256       0.00000000       0.00000000       0.00395897      -0.01810970       0.01016358       0.04400473
H        2.53625520       4.53959125       4.22757546       0.00000000       0.00000000      -0.00330943       0.01728442      -0.00763393       0.03001030
H        3.58359016       2.26971132       4.11427973       0.00000000       0.00000000      -0.05956190       0.00569965      -0.05288655       0.03442877
H        6.19290894       3.81566608       3.90458163       0.00000000       0.00000000      -0.00657209       0.01379464       0.03398681       0.05025581
H        5.95748795       2.15601253       3.37304033       0.00000000       0.00000000       0.02623866       0.01433881       0.02340932       0.02335670
H        5.95574727       3.15874494       6.23421669       0.00000000       0.00000000       0.02910254      -0.04455112      -0.02078522       0.05831261
H        6.96696479       1.95128003       5.46718824       0.00000000       0.00000000       0.02598541       0.00178437       0.01653026       0.05275389
H        5.27276265       1.59489115       5.78776072       0.00000000       0.00000000      -0.00270892      -0.01933745       0.01293894       0.03678704
H        4.77916025       2.81397751       1.79802741       0.00000000       0.00000000       0.00601655      -0.01379308       0.02868353       0.05105926
H        4.34894653       4.47281785       2.16580148       0.00000000       0.00000000       0.00762435       0.00886792      -0.03959384       0.09317809
H        2.35462969       5.31249986       1.75305718       0.00000000       0.00000000      -0.00687023      -0.02264595      -0.05643772       0.07375023
H        1.14174975       4.35763805       0.86689299       0.00000000       0.00000000       0.00262549       0.01222828       0.01334926       0.06109552
H        2.34321208       4.38809493      -1.14622362       0.00000000       0.00000000      -0.00392888      -0.06085326      -0.01145004       0.04176948
H        4.57215651       3.78521198      -0.22926756       0.00000000       0.00000000      -0.01722913      -0.01470271       0.02841660       0.02111571
H        4.81958314       5.47356806       0.24678030       0.00000000       0.00000000       0.00211991       0.00391334       0.01615097       0.04354153
H        4.36579820       4.55717787      -2.62772476       0.00000000       0.00000000      -0.05873612      -0.02586533      -0.00836735       0.03884852
H        5.93862510       4.78195252      -1.87036417       0.00000000       0.00000000       0.01984784       0.00871547      -0.02624383       0.05131507
H        4.88412240       6.15790800      -2.09926085       0.00000000       0.00000000      -0.02651780       0.03258579      -0.00300557       0.05216833
H        3.01363500       6.83554321      -1.43193904       0.00000000       0.00000000      -0.00768301      -0.00566456      -0.02233531       0.06671130
H        2.71874135       7.05787622       0.27847255       0.00000000       0.00000000      -0.01584003      -0.04714868       0.02711516       0.04310035
H        0.84253496       7.83825753      -0.96642066       0.00000000       0.00000000      -0.00891211       0.00027379       0.00821580       0.05609957
H        0.30910444       6.40049207      -0.10914238       0.00000000       0.00000000      -0.00853019      -0.02387249       0.01569367       0.01438670
H        0.42116982       5.07849606      -2.17575134       0.00000000       0.00000000      -0.00783249      -0.01056838      -0.01308665       0.00792323
H        1.24439564       6.39024957      -3.01305211       0.00000000       0.00000000       0.02596576       0.00130114      -0.00059644       0.04957359
H       -1.60092844       6.60964644      -1.93297166       0.00000000       0.00000000      -0.04187982      -0.01625327       0.02109689       0.01963660
H       -1.17461646       6.27953136      -3.61443141       0.00000000       0.00000000      -0.00353573      -0.00668407      -0.02677653       0.04246705
H       -0.74244410       7.81652018      -2.87313239       0.00000000       0.00000000       0.01311365       0.00981870      -0.01730002       0.05594279
H        3.06392041       0.95872126       2.87071152       0.00000000       0.00000000       0.04660027       0.03649257      -0.01643564       0.09216162
H        3.94727277       0.84338113       1.33290198       0.00000000       0.00000000      -0.00334838       0.00633061      -0.04247692       0.06706411
H        2.59661986      -2.30750182       1.45578846       0.00000000       0.00000000       0.03089745       0.03477530       0.02649119       0.07908545
H        4.04353120      -1.30558607       1.60281460       0.00000000       0.00000000      -0.04533955       0.02631527      -0.07545826       0.06938956
H        5.56003792      -1.76016071       0.44931886       0.00000000       0.00000000      -0.01591485      -0.01207580      -0.00450744       0.05126202
H        6.21177608      -2.08995073      -1.14307954       0.00000000       0.00000000      -0.02937099       0.02417875       0.04810099       0.07506150
H        4.72466191      -4.28486035       0.31355142       0.00000000       0.00000000      -0.06680961       0.04187963       0.00410802       0.04095039
H        7.21787942      -4.38525049      -1.42243116       0.00000000       0.00000000      -0.04278753      -0.01296989      -0.06800111       0.04540178
H        5.60971616      -4.47347838      -2.13506116       0.00000000       0.00000000       0.00588538       0.01029251       0.05991574       0.03828404
H        6.91566876      -6.50881231      -0.26709413       0.00000000       0.00000000      -0.04749562       0.04970443      -0.03032418       0.04795435
H        6.34558864      -6.73208361      -1.90964930       0.00000000       0.00000000       0.02150974       0.03167551       0.01857344       0.05177041
H        5.18604890      -6.51825465      -0.60461236       0.00000000       0.00000000       0.02021355       0.01905052      -0.01233509       0.03350504
H        7.49684865      -3.18823627       0.82349949       0.00000000       0.00000000       0.00534432       0.03122708       0.02696316       0.03849947
H        7.16709283      -4.88430722       1.08273067       0.00000000       0.00000000      -0.00459297       0.02979748      -0.03250472       0.07076203
H        5.28639808      -2.99164613       2.44351048       0.00000000       0.00000000      -0.01283905       0.01041089      -0.00862922       0.01147041
H        6.93935703      -3.08214203       3.04342414       0.00000000       0.00000000       0.00101877      -0.00958458       0.00847081       0.04137639
H        5.74312006      -4.64775572       4.32249041       0.00000000       0.00000000      -0.03088952      -0.00951097      -0.00648761       0.03792966
H        6.68878894      -5.58857555       3.18337906       0.00000000       0.00000000       0.01772995      -0.01245417       0.04173267       0.04882152
H        3.72771032      -4.93566789       2.82078177       0.00000000       0.00000000       0.01232916      -0.00738545      -0.01996573       0.01085163
H        4.36420192      -6.44584382       3.47061061       0.00000000       0.00000000       0.00424492       0.00595177      -0.01328681       0.04465192
H        4.69533232      -6.01582624       1.79966193       0.00000000       0.00000000       0.01202592       0.02367800       0.01891495       0.03805966
H        5.12876078      -2.26274344      -2.88277566       0.00000000       0.00000000       0.00058398      -0.01073138       0.00460200       0.07331264
H        4.12636405      -0.80457011      -2.77137079       0.00000000       0.00000000      -0.00659582      -0.01199463       0.03102995       0.07032851
H        2.09662763      -2.15440306      -3.03126250       0.00000000       0.00000000      -0.00996342       0.02031948       0.01655403       0.03789261
H        2.44655521      -2.56597220      -5.41475003       0.00000000       0.00000000      -0.01826040       0.02131657       0.01221535       0.04412936
H        4.18053444      -2.69832967      -5.19308210       0.00000000       0.00000000       0.00924057      -0.03932485      -0.01867296       0.04843872
H        2.69109533      -0.07006237      -4.75321988       0.00000000       0.00000000       0.01112885      -0.04208015       0.11123968       0.03610505
H        3.41940245      -0.58257007      -6.26530792       0.00000000       0.00000000       0.05527804      -0.00050405      -0.00085900       0.05601927
H        4.43684697      -0.32955753      -4.86308806       0.00000000       0.00000000       0.02183369       0.03870336      -0.00771655       0.04064283
H        4.00585260      -4.45145224      -3.66467163       0.00000000       0.00000000       0.01244531      -0.04567162      -0.01188648       0.04582459
H        2.29946073      -4.39586124      -4.04765173       0.00000000       0.00000000       0.03851713      -0.01008968      -0.02669661       0.04677913
H        2.16102864      -4.00443351      -1.35732280       0.00000000       0.00000000      -0.04766835       0.00905141       0.03773316       0.00269853
H        3.60725086      -4.98879884      -1.43563411       0.00000000       0.00000000      -0.09263392       0.01933102       0.00154521       0.05671304
H        1.17713722      -5.91643916      -2.97048101       0.00000000       0.00000000       0.03120839       0.00691267      -0.01444939       0.02356331
H        1.24481251      -6.18099320      -1.23919883       0.00000000       0.00000000       0.05872956       0.01299660       0.04747977       0.01548060
H        3.51005218      -7.07426709      -3.06912699       0.00000000       0.00000000      -0.00776026       0.03129494      -0.05069890       0.05001828
H        2.10928728      -8.07845424      -2.72698608       0.00000000       0.00000000      -0.00376071      -0.02086618       0.02550593       0.04943645
H        3.18012870      -7.59822442      -1.41857246       0.00000000       0.00000000      -0.01480648       0.06392359      -0.05353855       0.04143215
C       -5.97858042       0.65414710       3.87696201       0.00000000       0.00000000      -0.02687851       0.00879326       0.02016576      -0.10966485
C       -4.63875734       0.61488706       3.15093665       0.00000000       0.00000000      -0.04148824       0.03802961       0.01898884      -0.04997249
C       -3.96572769      -0.75812693       3.21980381       0.00000000       0.00000000       0.00596230       0.00195120      -0.01587425      -0.06477614
C       -3.18555099      -0.94587480       4.52331004       0.00000000       0.00000000       0.03866144      -0.01717703       0.00607542      -0.07259373
C       -2.94668944      -2.41207501       4.88686834       0.00000000       0.00000000       0.00946206       0.00304305       0.05395643      -0.02305673
C       -2.42996024      -2.60786997       6.32363671       0.00000000       0.00000000       0.02255585      -0.00865621       0.00711575      -0.06431051
C       -1.19688026      -1.81109645       6.72990544       0.00000000       0.00000000      -0.03415397       0.00302239      -0.03197099      -0.10979555
C       -2.29638156      -3.29193420       3.79509652       0.00000000       0.00000000      -0.02416953      -0.00932077       0.00454669      -0.01642304
N       -0.94201280      -3.25686839       3.17992542       0.00000000       0.00000000       0.08925260       0.00806371      -0.06158008      -0.06863293
C       -0.17252644      -4.47285390       3.43095449       0.00000000       0.00000000      -0.00155456      -0.08859265      -0.00926045      -0.02468583
C        0.54885342      -4.50010868       4.78714838       0.00000000       0.00000000       0.01741248      -0.04516049      -0.01312492      -0.02987367
C        1.03102689      -5.94070316       5.01856494       0.00000000       0.00000000      -0.00401880      -0.02152655       0.01180212      -0.07004669
C       -0.11610523      -6.91027900       5.28669354       0.00000000       0.00000000       0.01953470      -0.00782132       0.01264040      -0.11345962
C        1.68633184      -3.46976710       4.78796585       0.00000000       0.00000000       0.06163521       0.01395321       0.02786101      -0.05776281
C        2.62915426      -3.61316893       5.98587413       0.00000000       0.00000000       0.01958744      -0.02759311       0.04809609      -0.06525944
C        3.43117423      -2.35290581       6.31736647       0.00000000       0.00000000      -0.02910972      -0.02875755      -0.00759023      -0.05759053
C        4.19395957      -1.79429263       5.12279173       0.00000000       0.00000000      -0.01751793       0.02833643       0.00547310      -0.10472012
C       -0.67280833      -2.54285832       2.07854850       0.00000000       0.00000000      -0.03861312       0.00426312       0.06954596       0.25983970
O       -1.02309880      -1.36653569       1.88507090       0.00000000       0.00000000       0.06324486      -0.02215563       0.04727167      -0.34006085
C        0.01988753      -3.27190656       0.88720472       0.00000000       0.00000000      -0.07254870       0.00438618       0.01451857       0.04628425
O       -0.09072995      -2.42795168      -0.25119448       0.00000000       0.00000000      -0.04292901      -0.04734462      -0.00421206      -0.22281752
C       -0.51124894      -3.10041097      -1.43625532       0.00000000       0.00000000       0.01431430       0.01285014      -0.04337400       0.04337679
C       -0.66862812      -2.03769083      -2.52812291       0.00000000       0.00000000       0.03321067       0.04529251       0.00432622       0.25889216
O       -0.61657447      -0.83711301      -2.19209004       0.00000000       0.00000000       0.01713042      -0.02274346       0.00281361      -0.35956667
N       -0.92258930      -2.42134640      -3.77764174       0.00000000       0.00000000      -0.04751462      -0.00656493       0.03231850      -0.05798407
C       -0.87849758      -3.84014130      -4.15960128       0.00000000       0.00000000      -0.02861484      -0.02784628       0.04651654      -0.02533311
C       -0.84251233      -4.20493717      -5.65736074       0.00000000       0.00000000       0.01580553      -0.04421762       0.01649821      -0.02762343
C       -0.15364284      -5.58153654      -5.84942638       0.00000000       0.00000000       0.00414532      -0.05247875      -0.03783745      -0.06961926
C        1.22538994      -5.53760824      -6.52131537       0.00000000       0.00000000      -0.00430263      -0.00391261      -0.01301605      -0.11316418
C       -2.20307015      -4.24319622      -6.38133213       0.00000000       0.00000000       0.02317722      -0.00352533       0.00590506      -0.07411310
C       -3.23678792      -5.27173014      -5.89180966       0.00000000       0.00000000       0.03669738       0.04007338      -0.02549479      -0.06377456
C       -4.13266655      -5.72740766      -7.04890590       0.00000000       0.00000000      -0.01960690      -0.01431776       0.01129946      -0.05790261
C       -5.29601892      -6.60115085      -6.59176379       0.00000000       0.00000000       0.02576748       0.01830924       0.03339294      -0.10825839
C       -1.35905481      -1.36170933      -4.68769003       0.00000000       0.00000000      -0.01502990      -0.00338588      -0.00777430      -0.01519776
C       -0.22873160      -0.41411777      -5.13559370       0.00000000       0.00000000      -0.02985512       0.04594673       0.00556946      -0.02519842
C        0.22794006      -0.64346289      -6.58654287       0.00000000       0.00000000      -0.01587555       0.01287931      -0.00071322      -0.06358657
C       -0.76159214      -0.29683630      -7.69254127       0.00000000       0.00000000       0.01929565      -0.00336934      -0.00276978      -0.11276601
C       -0.55424401       1.05552392      -4.79589047       0.00000000       0.00000000       0.01257685       0.01239521       0.01649790      -0.06835124
C       -1.89444739       1.63519905      -5.26254738       0.00000000       0.00000000       0.03455385      -0.02732318       0.00430145      -0.06445276
C       -2.06422180       3.06988649      -4.75521704       0.00000000       0.00000000       0.03992355      -0.00957384       0.00395480      -0.06005943
C       -3.50549093       3.55909407      -4.83882515       0.00000000       0.00000000       0.01475112      -0.00195964      -0.01153305      -0.10788294
H       -6.39752068       1.65835005       3.85843871       0.00000000       0.00000000       0.01627461      -0.03417259      -0.00703061       0.04107304
H       -5.86895197       0.35656073       4.91673415       0.00000000       0.00000000       0.00339192       0.00354567      -0.02314453       0.04775224
H       -6.69237586      -0.01917480       3.40488637       0.00000000       0.00000000       0.02825550       0.01807060       0.02718842       0.03672468
H       -3.96680669       1.35284626       3.59085600       0.00000000       0.00000000      -0.00251416       0.04028842      -0.00459201       0.02964249
H       -4.79629686       0.89389978       2.10552975       0.00000000       0.00000000       0.02130025      -0.00170214      -0.01915546       0.01340572
H       -3.27792272      -0.85378786       2.37610341       0.00000000       0.00000000       0.02231131      -0.00619246      -0.02611432       0.03762757
H       -4.73576132      -1.52840177       3.13289242       0.00000000       0.00000000      -0.00844055      -0.01676325      -0.00120100       0.03189305
H       -3.75604814      -0.50439217       5.34303276       0.00000000       0.00000000       0.03349681      -0.01453402      -0.00308273       0.05452214
H       -2.24584912      -0.41020504       4.43975291       0.00000000       0.00000000       0.02788419      -0.01067347       0.00769507       0.05019268
H       -3.94753240      -2.86991518       4.90689296       0.00000000       0.00000000      -0.02049583      -0.00104014      -0.00042497       0.05352102
H       -2.25057528      -3.67396016       6.48431036       0.00000000       0.00000000       0.03992214       0.00876726      -0.03774108       0.03748301
H       -3.24430143      -2.33297870       7.00004223       0.00000000       0.00000000       0.05154047       0.01431284      -0.04648852       0.05080188
H       -0.36646307      -1.98001924       6.05110282       0.00000000       0.00000000      -0.03784133       0.01624623       0.01468328       0.03718800
H       -0.88850084      -2.10786634       7.72967204       0.00000000       0.00000000       0.00792946      -0.00281039      -0.03030129       0.04920178
H       -1.42382681      -0.74957185       6.75648710       0.00000000       0.00000000       0.02519513       0.02199496      -0.02388857       0.04069034
H       -2.97505866      -3.21052792       2.94837873       0.00000000       0.00000000      -0.06136374       0.01615330      -0.08917038       0.05915386
H       -2.36602634      -4.30657909       4.18822430       0.00000000       0.00000000      -0.04995749      -0.00692323      -0.00083041       0.08010023
H        0.60185148      -4.60437900       2.67839701       0.00000000       0.00000000      -0.05613492       0.03319928      -0.00748978       0.04279859
H       -0.83876811      -5.33511805       3.36754655       0.00000000       0.00000000      -0.02680042      -0.00624800      -0.02803796       0.06823348
H       -0.14567210      -4.24554179       5.58749504       0.00000000       0.00000000      -0.05577761       0.00453644       0.01828421       0.06488800
H        1.68964983      -5.96486663       5.88423515       0.00000000       0.00000000      -0.02297750       0.02922676      -0.01022691       0.06449217
H        1.60836550      -6.27919442       4.15516465       0.00000000       0.00000000       0.00127289       0.00424968       0.00791146       0.03525617
H       -0.73224345      -6.54793742       6.10578060       0.00000000       0.00000000      -0.00440992      -0.02900993       0.01585247       0.04587359
H        0.28222011      -7.88059714       5.56716365       0.00000000       0.00000000      -0.00578375      -0.00395961       0.00788450       0.05978520
H       -0.74992652      -7.05614761       4.41458592       0.00000000       0.00000000       0.00552163      -0.04391246       0.02385766       0.02883571
H        1.25175079      -2.46801306       4.78219418       0.00000000       0.00000000      -0.03933861       0.02463042       0.00221749       0.02961819
H        2.26435102      -3.56841965       3.86686200       0.00000000       0.00000000       0.04471873      -0.04832167      -0.04019307       0.01362522
H        3.32738169      -4.42662861       5.78551245       0.00000000       0.00000000       0.01005870       0.00391752       0.02642572       0.04478774
H        2.04441108      -3.87939757       6.86723251       0.00000000       0.00000000       0.01090165       0.00856472       0.02360450       0.04617993
H        4.14395549      -2.60389791       7.10456504       0.00000000       0.00000000      -0.02802617       0.02001966      -0.00590516       0.04865628
H        2.76116155      -1.58999112       6.72037600       0.00000000       0.00000000      -0.00025604      -0.00591921      -0.01894316       0.03240360
H        4.85064559      -2.55376706       4.70786036       0.00000000       0.00000000      -0.02296669       0.03787579       0.02819668       0.04465263
H        4.80190287      -0.94693089       5.42880855       0.00000000       0.00000000       0.02666995       0.01051680       0.00742871       0.03654746
H        3.50447910      -1.45998409       4.34828029       0.00000000       0.00000000       0.01207467       0.00810866      -0.03253862       0.01152627
H       -0.52126635      -4.20929323       0.71414966       0.00000000       0.00000000      -0.04804467      -0.02620471       0.05013125       0.07887380
H        1.07662411      -3.51116816       1.05318131       0.00000000       0.00000000       0.00316397       0.02845010       0.00460041       0.07005088
H       -1.48940081      -3.58289995      -1.28767836       0.00000000       0.00000000       0.01525800       0.04967548       0.04919239       0.07903839
H        0.21043430      -3.87365967      -1.72071652       0.00000000       0.00000000       0.02647504       0.06482397       0.01650979       0.08799905
H        0.04802971      -4.22804020      -3.73100571       0.00000000       0.00000000      -0.03410976      -0.03818130      -0.00185496       0.06208505
H       -1.71921962      -4.35689439      -3.68680904       0.00000000       0.00000000      -0.00634662      -0.02192852      -0.04309106       0.06018948
H       -0.22715175      -3.45285554      -6.15911331       0.00000000       0.00000000      -0.04618892      -0.02049124      -0.01151901       0.05424870
H       -0.80341565      -6.19657169      -6.47132946       0.00000000       0.00000000       0.04749679       0.05532643      -0.01436550       0.06584205
H       -0.07087133      -6.10645436      -4.89687258       0.00000000       0.00000000      -0.01941177       0.00051125       0.02738928       0.02884722
H        2.04498601      -5.59138389      -5.80644765       0.00000000       0.00000000      -0.09201764       0.07355265      -0.00955524       0.03608497
H        1.35388150      -4.64227236      -7.12465878       0.00000000       0.00000000      -0.04253324       0.00825902       0.01112579       0.04067600
H        1.32883150      -6.38671643      -7.18990545       0.00000000       0.00000000       0.05176724      -0.03752107       0.02755679       0.05707529
H       -1.96605838      -4.47009270      -7.42394568       0.00000000       0.00000000      -0.05591692       0.01605723       0.02024438       0.05776395
H       -2.66661442      -3.25693639      -6.37845764       0.00000000       0.00000000      -0.06142932      -0.02866450      -0.03159356       0.03289263
H       -3.87381516      -4.84398272      -5.11474397       0.00000000       0.00000000       0.05177858       0.02193437       0.00147243       0.02493831
H       -2.74568353      -6.14405300      -5.45895995       0.00000000       0.00000000       0.01545903      -0.00364678      -0.02608757       0.03593864
H       -3.52922039      -6.28455209      -7.76689590       0.00000000       0.00000000       0.01291969      -0.00625888      -0.00969024       0.03882120
H       -4.53335373      -4.85303507      -7.56563595       0.00000000       0.00000000       0.02899234       0.03041181       0.02081504       0.03593358
H       -4.93952107      -7.47910870      -6.05669390       0.00000000       0.00000000       0.01134631       0.02579882      -0.01711430       0.03889687
H       -5.86806514      -6.93670620      -7.45299165       0.00000000       0.00000000       0.01870629       0.00329768       0.03083678       0.05013728
H       -5.96564018      -6.04584205      -5.93662512       0.00000000       0.00000000       0.03612190      -0.00615338       0.00430612       0.03246367
H       -2.10348388      -0.78941946      -4.13052958       0.00000000       0.00000000      -0.03498800       0.02073516      -0.00380902       0.06096387
H       -1.84461906      -1.81732767      -5.54270653       0.00000000       0.00000000       0.04575936      -0.01989177      -0.00539728       0.08957036
H        0.63384333      -0.66895322      -4.51004929       0.00000000       0.00000000       0.00687106       0.05217926      -0.02072075       0.04770424
H        0.51785245      -1.69141427      -6.68951307       0.00000000       0.00000000      -0.02810123      -0.00524713       0.01767529       0.03210439
H        1.13363798      -0.05843017      -6.74771923       0.00000000       0.00000000      -0.01894052       0.03808155      -0.00012007       0.04956680
H       -1.75177765      -0.69979988      -7.49913036       0.00000000       0.00000000      -0.00318036       0.00309889       0.00103523       0.03723969
H       -0.41100346      -0.70796196      -8.63690585       0.00000000       0.00000000      -0.00431389       0.00198690       0.04094707       0.05167007
H       -0.83347664       0.77896342      -7.81507239       0.00000000       0.00000000      -0.03402932      -0.01442000      -0.04449149       0.04747643
H        0.25073385       1.67842497      -5.19424908       0.00000000       0.00000000      -0.04876111      -0.02153348      -0.00289120       0.04699703
H       -0.52324205       1.13634058      -3.70032968       0.00000000       0.00000000       0.03661866       0.01664376      -0.02337040       0.04329636
H       -2.72236831       1.02458904      -4.89245774       0.00000000       0.00000000       0.00259592      -0.01008062       0.00518445       0.01700939
H       -1.97063208       1.64133851      -6.34610592       0.00000000       0.00000000       0.02964326      -0.01709281      -0.01522868       0.05698667
H       -1.43087439       3.73201912      -5.34519737       0.00000000       0.00000000       0.01991103       0.01847938      -0.03150832       0.04348458
H       -1.71143273       3.12902120      -3.72335793       0.00000000       0.00000000      -0.02473088       0.00314465       0.04133506       0.01902145
H       -3.87320013       3.49115030      -5.85812532       0.00000000       0.00000000       0.01044920       0.00989245      -0.03592973       0.05346043
H       -3.57043542       4.59790117      -4.52612158       0.00000000       0.00000000      -0.02076100       0.02000185      -0.00528240       0.04081066
H       -4.16488784       2.96808872      -4.20434282       0.00000000       0.00000000       0.00191725      -0.01487739      -0.00428206       0.01785748
