440
Properties=species:S:1:pos:R:3:initial_charges:R:1:initial_magmoms:R:1:forces:R:3:charge:R:1 energy=-13719.16755842623 free_energy=-13719.16755842623 dipole="0.05352683600799715 0.7319490424921329 -1.8427476548144281" pbc="F F F"
Nd       0.14282573       0.34242651      -0.27998716       3.00000000       0.00000000       0.04618222       0.06927689      -0.02518939       0.85250553
C        5.57910347      -1.92149136       8.19509068       0.00000000       0.00000000       0.06201177       0.07265599      -0.10797090      -0.10643739
C        4.50953028      -1.05356371       7.53940092       0.00000000       0.00000000      -0.06772167      -0.04469042      -0.02032538      -0.05163717
C        3.16222968      -1.78840122       7.51506795       0.00000000       0.00000000       0.05434724      -0.00475911       0.04734453      -0.06575571
C        1.95344745      -0.84796963       7.51114734       0.00000000       0.00000000      -0.10363123      -0.03724156       0.09636107      -0.06578800
C        1.42400376      -0.37500013       6.15426021       0.00000000       0.00000000      -0.10020606       0.03622456      -0.09638298      -0.05869224
C        0.53828220      -1.43899732       5.49784899       0.00000000       0.00000000       0.02380835       0.04174241       0.07174424      -0.06891365
C       -0.08121804      -1.10601746       4.12347373       0.00000000       0.00000000      -0.06362990       0.04686733       0.06404247      -0.06765235
C       -0.62261953      -2.41564545       3.53181956       0.00000000       0.00000000       0.05497144       0.01945212      -0.06642122      -0.01163229
N       -1.80688657      -2.36146443       2.65964945       0.00000000       0.00000000       0.04481238      -0.01975539      -0.05571749      -0.07066188
C       -2.70994230      -3.48859397       2.86640129       0.00000000       0.00000000       0.03886785       0.05009688       0.02088043      -0.02095814
C       -2.09671921      -4.81929695       2.37716658       0.00000000       0.00000000      -0.03913105       0.03820836       0.01664550      -0.06759574
C       -1.12399256      -5.51971592       3.34335558       0.00000000       0.00000000      -0.01913986      -0.05099364       0.02142041      -0.06491922
C       -1.37980431      -7.02791188       3.48566520       0.00000000       0.00000000      -0.02691866      -0.06214402       0.03444720      -0.06462422
C       -0.68050658      -7.88995247       2.43315309       0.00000000       0.00000000       0.06216877       0.00803808       0.03173610      -0.06764548
C        0.80917132      -8.13010308       2.73728915       0.00000000       0.00000000       0.04908004       0.05127806      -0.00598932      -0.06810448
C        1.73213732      -7.65275714       1.61696769       0.00000000       0.00000000       0.03252443       0.00550053       0.03572678      -0.04926527
C        3.19512877      -7.99029045       1.88649935       0.00000000       0.00000000      -0.02178129       0.00251061      -0.02625575      -0.10612521
C       -1.76086219      -1.62703806       1.53619022       0.00000000       0.00000000      -0.04135973       0.05046807       0.05568320       0.27463800
O       -0.72084051      -1.02594886       1.23390936       0.00000000       0.00000000      -0.06741661       0.04453404      -0.03917368      -0.35194101
C       -3.01750539      -1.57693970       0.63451866       0.00000000       0.00000000       0.00263442      -0.09567589       0.03319339      -0.11889655
C       -3.25975129      -0.26883169      -0.12286975       0.00000000       0.00000000      -0.01962111      -0.02570231      -0.00848186       0.27345611
O       -2.36821924       0.58673867      -0.22073081       0.00000000       0.00000000       0.03698122      -0.02562166      -0.01103528      -0.37158906
N       -4.49923497      -0.02462988      -0.62019132       0.00000000       0.00000000       0.05238902       0.06529092      -0.02493765      -0.08473031
C       -4.90197421       1.38805466      -0.63723845       0.00000000       0.00000000      -0.00511457       0.11323914      -0.00602394      -0.00983130
C       -5.50130624       2.02706366      -1.89018252       0.00000000       0.00000000       0.04109587       0.03684381      -0.05667714      -0.07533215
C       -4.51586309       2.33750100      -3.01833041       0.00000000       0.00000000       0.02378749       0.07554465      -0.00083309      -0.06959514
C       -3.95802488       1.14271983      -3.79099279       0.00000000       0.00000000      -0.11432054       0.10798235       0.06414996      -0.07557096
C       -3.25883744       1.56101103      -5.09280302       0.00000000       0.00000000      -0.09018154      -0.07649347      -0.01487808      -0.06495412
C       -3.76648425       0.70864478      -6.25947242       0.00000000       0.00000000       0.04097851      -0.07884764      -0.06283854      -0.06792408
C       -2.79965950       0.66429513      -7.43619108       0.00000000       0.00000000       0.01695704      -0.00556819      -0.03673705      -0.05367037
C       -3.37627168      -0.11783350      -8.60810902       0.00000000       0.00000000       0.00602069       0.01638239      -0.02485423      -0.11048126
C       -5.57238707      -0.98665634      -0.89196436       0.00000000       0.00000000       0.04592051       0.02789121       0.07795125      -0.01555427
C       -5.80888847      -1.21228561      -2.39644127       0.00000000       0.00000000      -0.06773315      -0.01571304       0.02196352      -0.07256329
C       -6.90321324      -2.23953109      -2.74786577       0.00000000       0.00000000       0.00866380      -0.01894083       0.01113746      -0.06779935
C       -6.46520565      -3.07936046      -3.95309007       0.00000000       0.00000000       0.02943979       0.05208544       0.06908854      -0.06324134
C       -7.41943467      -4.21216451      -4.32647430       0.00000000       0.00000000       0.02266823       0.06470474      -0.00607842      -0.06499969
C       -6.77110938      -5.20125201      -5.30121268       0.00000000       0.00000000       0.01889469      -0.00461923      -0.03522792      -0.06467649
C       -5.76964154      -6.14550555      -4.63641263       0.00000000       0.00000000       0.00021544      -0.01518963       0.00159614      -0.05231381
C       -5.05102547      -7.05461981      -5.62756217       0.00000000       0.00000000      -0.02491652      -0.00656844      -0.01985023      -0.10768012
H        6.53180249      -1.39919126       8.24663604       0.00000000       0.00000000      -0.01808047       0.01303912      -0.03168869       0.04131913
H        5.72969813      -2.84653149       7.64103017       0.00000000       0.00000000      -0.03003400       0.00035439       0.03496716       0.03061257
H        5.27177325      -2.16256750       9.21042443       0.00000000       0.00000000       0.06479612      -0.05390986      -0.04609485       0.04444753
H        4.80218366      -0.77085046       6.52149782       0.00000000       0.00000000       0.03110431      -0.02659891       0.10390980       0.01440771
H        4.41439729      -0.13453463       8.12384376       0.00000000       0.00000000      -0.01466737      -0.03455544      -0.04618238       0.03264894
H        3.10280365      -2.40191708       8.41758051       0.00000000       0.00000000      -0.02015280       0.09264870       0.00962436       0.04590657
H        3.14259312      -2.48355725       6.67667168       0.00000000       0.00000000      -0.09256944       0.04349248      -0.11152495       0.03238881
H        2.22212685       0.02833693       8.09891791       0.00000000       0.00000000      -0.01820484       0.08159930       0.05345788       0.04332450
H        1.12698104      -1.33190768       8.03251819       0.00000000       0.00000000      -0.04363629      -0.03679303       0.04789257       0.03706725
H        2.25357071      -0.09278756       5.50902148       0.00000000       0.00000000       0.07436670      -0.04676673      -0.11687348       0.03025197
H        0.82781530       0.52323358       6.32980400       0.00000000       0.00000000      -0.00738278      -0.08173870       0.01684365       0.02863297
H       -0.26918634      -1.65625669       6.20080747       0.00000000       0.00000000      -0.06985039      -0.02711666      -0.05780728       0.04151096
H        1.13460265      -2.34822435       5.41592776       0.00000000       0.00000000      -0.05601614      -0.07865119      -0.03321491       0.04226018
H        0.64795893      -0.64958518       3.44886240       0.00000000       0.00000000      -0.05110575      -0.03009297       0.02702505       0.06300323
H       -0.89696659      -0.39485337       4.24941996       0.00000000       0.00000000      -0.03713871       0.00879392       0.03687857       0.04452149
H       -0.91181611      -3.03949824       4.37162493       0.00000000       0.00000000      -0.08625112      -0.03314649       0.06499711       0.07715525
H        0.18517184      -2.92807000       3.00557690       0.00000000       0.00000000       0.05843276       0.02716648      -0.11484979       0.06152005
H       -3.64449493      -3.30971479       2.33815390       0.00000000       0.00000000       0.00769592      -0.07156807      -0.01429969       0.06153069
H       -2.95171737      -3.54639264       3.92938408       0.00000000       0.00000000       0.02664927      -0.04179361       0.02640750       0.07509114
H       -1.60466244      -4.62779464       1.42113426       0.00000000       0.00000000       0.01933055      -0.04594874      -0.01005953       0.03179320
H       -2.92763886      -5.49820744       2.18365898       0.00000000       0.00000000      -0.02046571      -0.02436799       0.00696381       0.06152197
H       -1.21401966      -5.08182645       4.33656438       0.00000000       0.00000000      -0.07284752      -0.00286747       0.02796222       0.03626171
H       -0.09771690      -5.36862346       3.00911948       0.00000000       0.00000000       0.02810890       0.00051715       0.06380139       0.04128768
H       -2.45343156      -7.21778393       3.45092054       0.00000000       0.00000000      -0.05280125       0.04393641      -0.00712979       0.03522452
H       -1.04079215      -7.35461480       4.46895634       0.00000000       0.00000000       0.01335750       0.01241223       0.03741064       0.04680457
H       -0.78237460      -7.41561658       1.45983996       0.00000000       0.00000000      -0.00826088       0.03456582      -0.02831908       0.03808517
H       -1.19291394      -8.84923969       2.37692552       0.00000000       0.00000000      -0.01597919      -0.00516553       0.01575310       0.04376882
H        0.98612558      -9.19274945       2.90129367       0.00000000       0.00000000       0.00353586       0.00618334       0.02011193       0.04298474
H        1.08664206      -7.60733403       3.65542966       0.00000000       0.00000000       0.00562733      -0.05034169      -0.01165662       0.03915591
H        1.62012331      -6.56958706       1.50681400       0.00000000       0.00000000       0.01113789       0.04261839       0.00165430       0.00630483
H        1.43261683      -8.11455340       0.67534049       0.00000000       0.00000000       0.00929182      -0.01656158       0.01228169       0.03341302
H        3.48532805      -7.69574117       2.89222147       0.00000000       0.00000000      -0.02248665       0.00872564      -0.01045727       0.04039493
H        3.84506484      -7.47968801       1.17769121       0.00000000       0.00000000       0.01458639      -0.01477403      -0.01230353       0.02161930
H        3.36059536      -9.05876731       1.78030635       0.00000000       0.00000000      -0.00356519       0.00012206       0.06551779       0.04579567
H       -3.91262826      -1.76602730       1.22983695       0.00000000       0.00000000       0.05870140      -0.08415890      -0.06967214       0.08529579
H       -2.87114485      -2.37216632      -0.09795489       0.00000000       0.00000000      -0.13115639      -0.05546468      -0.00616221       0.12035524
H       -4.01520070       1.96454168      -0.36410881       0.00000000       0.00000000       0.00354544      -0.01415713       0.04862551       0.06752389
H       -5.63881667       1.50166238       0.16791229       0.00000000       0.00000000      -0.02591316      -0.03812967      -0.01545641       0.05650180
H       -5.89823600       2.99125943      -1.56072433       0.00000000       0.00000000       0.00011726      -0.04043853       0.05883321       0.06348125
H       -6.35565774       1.47170762      -2.27000357       0.00000000       0.00000000       0.03577051      -0.03439896       0.04747356       0.06156283
H       -3.70400159       2.94041472      -2.60533998       0.00000000       0.00000000       0.00294277       0.02445613      -0.00377076       0.02703746
H       -5.05228394       2.96378948      -3.73525809       0.00000000       0.00000000       0.02620071       0.01307446       0.01778912       0.05552334
H       -4.79770021       0.51856534      -4.07706213       0.00000000       0.00000000      -0.09080364      -0.00256852      -0.03834525       0.05716001
H       -3.30293259       0.52823205      -3.16576407       0.00000000       0.00000000       0.01190854       0.03314815       0.03268933       0.01869349
H       -2.17563715       1.45196954      -5.00670062       0.00000000       0.00000000       0.00075581       0.03458656       0.04448339       0.01200592
H       -3.45672261       2.61139815      -5.30747792       0.00000000       0.00000000       0.01897871       0.01707751      -0.01457805       0.04230791
H       -4.73023413       1.09114232      -6.59719206       0.00000000       0.00000000       0.01899927       0.02719649       0.01063667       0.04974698
H       -3.92968573      -0.31513324      -5.91539357       0.00000000       0.00000000       0.00297072      -0.03232266      -0.00080143       0.02753929
H       -1.87034912       0.18377436      -7.11519096       0.00000000       0.00000000       0.05200795       0.01995958      -0.01533353       0.01052280
H       -2.56170388       1.68040014      -7.75066428       0.00000000       0.00000000       0.00116219       0.00442461      -0.05647535       0.04301083
H       -3.64644703      -1.12672633      -8.29852504       0.00000000       0.00000000       0.00959011       0.04291571      -0.03807528       0.03553711
H       -2.64910834      -0.18521569      -9.41320725       0.00000000       0.00000000      -0.02556799      -0.01550297       0.00396882       0.04636720
H       -4.26334521       0.37573912      -8.99576860       0.00000000       0.00000000       0.00304045      -0.02697416       0.01115938       0.04964818
H       -6.49677290      -0.61099414      -0.44556869       0.00000000       0.00000000       0.02370392       0.02424636       0.05463726       0.06704000
H       -5.34222693      -1.95108898      -0.44293498       0.00000000       0.00000000       0.07359415       0.01077087       0.09017348       0.06086070
H       -4.86892942      -1.53160584      -2.84519032       0.00000000       0.00000000       0.04020929       0.02027613       0.01066379       0.03433002
H       -6.09039453      -0.28088126      -2.86947468       0.00000000       0.00000000      -0.00335674       0.02077528       0.02610337       0.05685059
H       -7.83259034      -1.72106421      -2.98486338       0.00000000       0.00000000      -0.00343177      -0.02762739       0.04618431       0.04718332
H       -7.11152548      -2.89674413      -1.90304600       0.00000000       0.00000000       0.01548121       0.00426024      -0.00573493       0.04228220
H       -5.50002463      -3.51743821      -3.71431218       0.00000000       0.00000000       0.04230652      -0.03253935      -0.01879094       0.03334354
H       -6.32215134      -2.42485934      -4.81643464       0.00000000       0.00000000      -0.06097885       0.00933481      -0.01399515       0.02789448
H       -8.30911010      -3.78886583      -4.78857109       0.00000000       0.00000000      -0.08173937       0.01112663      -0.00856057       0.04270332
H       -7.73324583      -4.74260649      -3.42768389       0.00000000       0.00000000       0.00628177      -0.03031720       0.04933769       0.03897045
H       -6.27054967      -4.64218002      -6.09476458       0.00000000       0.00000000       0.00534405       0.00850193      -0.03746116       0.03024846
H       -7.55401159      -5.79720297      -5.76727759       0.00000000       0.00000000      -0.01948394      -0.04609682      -0.01929360       0.04801358
H       -6.29597127      -6.76290212      -3.90620779       0.00000000       0.00000000      -0.00857628      -0.00164495       0.01424435       0.03486100
H       -5.01820543      -5.56402762      -4.09851198       0.00000000       0.00000000      -0.00352008      -0.00021362       0.00447318       0.01535807
H       -4.31369378      -7.66685812      -5.11065893       0.00000000       0.00000000      -0.02410087       0.00751578      -0.02157100       0.03432015
H       -4.54073424      -6.47549027      -6.39482415       0.00000000       0.00000000      -0.00505695       0.03099971       0.02028177       0.03170131
H       -5.75286776      -7.71966453      -6.12130019       0.00000000       0.00000000      -0.03942739       0.01044652      -0.00323601       0.04784723
C        9.52845853       3.37057700       1.34159280       0.00000000       0.00000000      -0.01958197       0.00566573      -0.00703230      -0.10804927
C        8.34493466       3.59396666       0.40606082       0.00000000       0.00000000      -0.00951089      -0.00898868      -0.00813146      -0.05821274
C        7.43990347       2.36150331       0.33959847       0.00000000       0.00000000       0.03070086       0.01709227       0.00797119      -0.06060890
C        6.35285531       2.43323292      -0.74132897       0.00000000       0.00000000       0.02353189       0.00186069       0.02384574      -0.06105271
C        4.98540364       2.89639007      -0.24705488       0.00000000       0.00000000      -0.00716645       0.03218918       0.01554536      -0.05533671
C        5.00338110       4.34108461       0.25351612       0.00000000       0.00000000       0.00809051       0.02379490      -0.00412011      -0.06603152
C        3.63749601       5.01172149       0.13864789       0.00000000       0.00000000       0.01801886      -0.00088911       0.00542634      -0.06813779
C        2.60614682       4.37211933       1.06035558       0.00000000       0.00000000       0.01939663      -0.02551122      -0.01140190      -0.00902031
N        1.22381162       4.69853472       0.73193453       0.00000000       0.00000000      -0.01496590      -0.04222683      -0.03165782      -0.06483406
C        0.80430550       6.05202726       1.06765771       0.00000000       0.00000000       0.00835206       0.03069785       0.00138059      -0.02000443
C        0.92256083       7.09626183      -0.05526440       0.00000000       0.00000000      -0.01739767      -0.02003873      -0.03756538      -0.07567180
C       -0.26136906       7.15402983      -1.02367475       0.00000000       0.00000000       0.00621358      -0.04027829      -0.05057904      -0.06657872
C       -0.15526969       6.16185373      -2.18309056       0.00000000       0.00000000      -0.01276226      -0.00368159      -0.02622029      -0.05971855
C       -1.33697213       6.23683768      -3.15820235       0.00000000       0.00000000       0.01103778      -0.01347505       0.04030254      -0.06894100
C       -2.63123675       5.58766969      -2.64361236       0.00000000       0.00000000       0.02716073       0.02323276      -0.01766099      -0.06187339
C       -3.59939125       6.56577948      -1.97574287       0.00000000       0.00000000       0.05784771      -0.00280965      -0.03127644      -0.05922323
C       -4.88791620       5.88041198      -1.53756663       0.00000000       0.00000000       0.03389731       0.01601096       0.00478381      -0.10802024
C        0.46735848       3.72968525       0.21294364       0.00000000       0.00000000       0.01625731       0.02201866       0.04131978       0.27287751
O        0.95789385       2.67770443      -0.24827296       0.00000000       0.00000000      -0.02033578       0.00775102       0.01708956      -0.38717131
C       -1.04501016       3.80168891       0.38729276       0.00000000       0.00000000      -0.00134644      -0.01168550      -0.02534442      -0.11981904
C       -1.17192615       3.01877946       1.70095951       0.00000000       0.00000000       0.03342561       0.09059761       0.03129802       0.26526462
O       -0.77600969       1.84201666       1.68686169       0.00000000       0.00000000      -0.09664043       0.05299179      -0.04580076      -0.37936137
N       -1.56766905       3.63773704       2.81406080       0.00000000       0.00000000      -0.04184562      -0.04329392      -0.02360709      -0.06817511
C       -2.31761806       4.88432755       2.90891750       0.00000000       0.00000000       0.02849539       0.06132223       0.01567392      -0.01174246
C       -1.58617185       5.95212761       3.74076286       0.00000000       0.00000000       0.01944658       0.01730725      -0.03076463      -0.07352612
C       -1.92999900       7.40124592       3.34643595       0.00000000       0.00000000      -0.02207111       0.01930883       0.02955509      -0.06429284
C       -2.66012196       8.22002347       4.42722026       0.00000000       0.00000000      -0.00244913       0.00836914      -0.02159482      -0.06635004
C       -4.15971156       8.39908731       4.17111530       0.00000000       0.00000000       0.04322699       0.01010660       0.00259134      -0.06357546
C       -5.04881053       7.18606301       4.46056010       0.00000000       0.00000000       0.02955600       0.01648185      -0.01451741      -0.06058569
C       -5.21278848       6.87091643       5.95495234       0.00000000       0.00000000       0.00539410       0.01552736      -0.02248052      -0.06042696
C       -4.30747702       5.75861899       6.47144771       0.00000000       0.00000000       0.00701160      -0.00003771       0.01730937      -0.09907112
C       -1.40991338       2.91301870       4.07367118       0.00000000       0.00000000      -0.04856553      -0.04223433       0.00481272      -0.00720887
C        0.03744744       2.51201658       4.35091318       0.00000000       0.00000000      -0.04329494      -0.00394774      -0.00076468      -0.07548079
C        1.00501370       3.65970634       4.62572749       0.00000000       0.00000000      -0.01924106      -0.02820482       0.01076809      -0.06126511
C        2.42837836       3.12994696       4.81772398       0.00000000       0.00000000      -0.03377971       0.00191608      -0.03445135      -0.06156638
C        3.40809921       4.19315268       5.33275228       0.00000000       0.00000000      -0.00875933      -0.00447007      -0.01286946      -0.05971216
C        3.68557039       4.11771802       6.83538644       0.00000000       0.00000000      -0.01104606       0.00538438       0.03245964      -0.06410874
C        2.52196760       4.55882183       7.73116117       0.00000000       0.00000000      -0.02543826       0.01939144       0.03039670      -0.05657491
C        1.60935089       3.42193715       8.17959621       0.00000000       0.00000000      -0.00281132      -0.01146536       0.01352304      -0.10474839
H       10.16698523       4.24921937       1.35802802       0.00000000       0.00000000      -0.00600679      -0.00139445      -0.00270701       0.04731830
H       10.12666626       2.52342246       1.01344691       0.00000000       0.00000000      -0.01128092       0.00004661      -0.00792350       0.03833791
H        9.19042578       3.17991416       2.35775266       0.00000000       0.00000000      -0.01006044      -0.00552868       0.00810996       0.03528328
H        8.72016006       3.81322976      -0.59568249       0.00000000       0.00000000       0.00745296       0.00305381       0.02855080       0.03790421
H        7.77874974       4.46077243       0.75142072       0.00000000       0.00000000       0.01511612      -0.02686037      -0.03038564       0.03259141
H        6.97599079       2.20966949       1.31750907       0.00000000       0.00000000       0.02065534      -0.01472805      -0.01512749       0.02468546
H        8.07657117       1.49797837       0.13175104       0.00000000       0.00000000       0.01038461       0.01374754       0.03500561       0.03419902
H        6.22808368       1.44837637      -1.19776914       0.00000000       0.00000000       0.02253125      -0.01340632       0.00271259       0.01837507
H        6.68531454       3.10816431      -1.53003727       0.00000000       0.00000000      -0.01736190       0.00940429      -0.01950986       0.04483492
H        4.27681450       2.82689492      -1.07857772       0.00000000       0.00000000       0.00528841      -0.02693776      -0.01359873       0.02279145
H        4.63044071       2.22170651       0.53729093       0.00000000       0.00000000       0.02217292       0.00895811       0.00560135       0.01498822
H        5.70120128       4.91386430      -0.35863758       0.00000000       0.00000000       0.00573054      -0.00744259       0.01020793       0.05694666
H        5.35243655       4.38391781       1.28658633       0.00000000       0.00000000      -0.01574824      -0.00747416      -0.04088635       0.04483191
H        3.29358322       4.91832734      -0.89172609       0.00000000       0.00000000      -0.00762676       0.00548271       0.00248252       0.04712449
H        3.74582194       6.07073716       0.37399280       0.00000000       0.00000000      -0.03118462       0.01340260      -0.00791864       0.05137387
H        2.78405365       4.68834045       2.09270769       0.00000000       0.00000000       0.02273081      -0.02009224      -0.01852131       0.06328631
H        2.68230559       3.28453648       1.01063886       0.00000000       0.00000000       0.04530140      -0.03286860      -0.02907176       0.07584698
H        1.45768510       6.37467530       1.87952357       0.00000000       0.00000000       0.00593393      -0.00733199       0.05512405       0.06932603
H       -0.21663375       6.06830761       1.44259098       0.00000000       0.00000000       0.00226407      -0.06708976      -0.01950287       0.06773593
H        1.84047319       6.95838523      -0.62440055       0.00000000       0.00000000       0.02254881      -0.04360221       0.04447035       0.05889765
H        0.99846012       8.06389587       0.44305458       0.00000000       0.00000000      -0.01776179      -0.00255148       0.00308916       0.06298966
H       -0.29765257       8.15928656      -1.44654179       0.00000000       0.00000000      -0.04722425      -0.02175338      -0.02049039       0.05595321
H       -1.19224798       7.00300654      -0.47399245       0.00000000       0.00000000       0.06123006       0.00915639      -0.00476648       0.03332744
H       -0.05366541       5.13923667      -1.80244261       0.00000000       0.00000000       0.00477697       0.03837465      -0.00786949       0.00801473
H        0.75639202       6.39064142      -2.73984412       0.00000000       0.00000000      -0.01691966       0.01698171       0.01839452       0.04233449
H       -1.04304067       5.74586072      -4.09052232       0.00000000       0.00000000       0.00937372      -0.00262506       0.04935934       0.02854126
H       -1.53160651       7.28300598      -3.39787810       0.00000000       0.00000000       0.01778134      -0.03337990      -0.01478219       0.05478452
H       -2.37718195       4.78496331      -1.94253256       0.00000000       0.00000000      -0.04892057       0.03113787      -0.02525764       0.01002205
H       -3.15917265       5.13528529      -3.48697540       0.00000000       0.00000000       0.02345345       0.02627472       0.00248852       0.03313090
H       -3.83389298       7.35885825      -2.68716342       0.00000000       0.00000000      -0.03156120      -0.01422550       0.03586290       0.04797658
H       -3.13215779       7.03372699      -1.10792570       0.00000000       0.00000000      -0.02333487       0.00959177      -0.03116358       0.03031398
H       -5.39624677       5.43630890      -2.38936919       0.00000000       0.00000000      -0.00210715       0.00611476      -0.01643353       0.03872328
H       -5.55772411       6.60272467      -1.08239684       0.00000000       0.00000000      -0.03242215       0.00831933       0.01547041       0.05115329
H       -4.68139453       5.09744614      -0.80860461       0.00000000       0.00000000      -0.00031060      -0.01566731       0.01498710       0.01890442
H       -1.52128960       3.17881251      -0.37082531       0.00000000       0.00000000       0.02092710      -0.04770399      -0.09068364       0.11279702
H       -1.45831974       4.80100443       0.36835492       0.00000000       0.00000000       0.03764517       0.00465856       0.07551815       0.08241831
H       -3.28793742       4.66206010       3.36619650       0.00000000       0.00000000       0.03691024      -0.05152788      -0.00089422       0.06784320
H       -2.52221392       5.27522197       1.91365346       0.00000000       0.00000000      -0.00565107      -0.04858730      -0.03271281       0.05161905
H       -0.51715414       5.79225291       3.61271630       0.00000000       0.00000000       0.02376676       0.01907469       0.05265432       0.04298027
H       -1.80157784       5.81746062       4.79950356       0.00000000       0.00000000      -0.00078046      -0.05928920      -0.05340932       0.06153132
H       -2.54200935       7.40895284       2.44328945       0.00000000       0.00000000      -0.01881545      -0.00757974      -0.02808807       0.03533833
H       -1.00057235       7.91825578       3.09813897       0.00000000       0.00000000      -0.02512253      -0.01726649       0.02975805       0.03620340
H       -2.21452583       9.21684673       4.45083805       0.00000000       0.00000000      -0.03437074      -0.02934823       0.00513204       0.04361445
H       -2.50501668       7.78297434       5.41401432       0.00000000       0.00000000       0.02014626       0.05002688      -0.07317706       0.04819116
H       -4.29583532       8.69476631       3.12670078       0.00000000       0.00000000      -0.01897230       0.01131870       0.03013339       0.02971450
H       -4.50608913       9.23057297       4.78716158       0.00000000       0.00000000      -0.04172101      -0.02123441      -0.01722973       0.04707805
H       -4.66802151       6.30912277       3.93196077       0.00000000       0.00000000      -0.01133251       0.01209009       0.01194300       0.02102033
H       -6.03481513       7.41003077       4.04708237       0.00000000       0.00000000       0.03110039      -0.01472031      -0.00466218       0.03565156
H       -6.24558452       6.57532030       6.14645681       0.00000000       0.00000000       0.00528662       0.01101939      -0.00400011       0.03794417
H       -5.02345870       7.77943008       6.52738828       0.00000000       0.00000000      -0.02686597      -0.01240781       0.03819584       0.04579091
H       -4.49768007       4.82314042       5.94581456       0.00000000       0.00000000      -0.00283666       0.01817075      -0.01192683       0.01868129
H       -4.49560696       5.59655316       7.52923255       0.00000000       0.00000000      -0.01297782      -0.03144146       0.01600413       0.04247904
H       -3.25775990       6.01715238       6.36026517       0.00000000       0.00000000       0.00628424      -0.01889702       0.01736733       0.02593037
H       -2.01521101       2.00033660       4.02985673       0.00000000       0.00000000      -0.01174758       0.02049120      -0.01135578       0.05572810
H       -1.79057954       3.54699419       4.87412984       0.00000000       0.00000000       0.03027399      -0.03921455      -0.03048901       0.07504500
H        0.39872083       1.91615788       3.51205882       0.00000000       0.00000000       0.08596416      -0.02965566       0.02748885       0.06043043
H        0.00186877       1.86386710       5.22451794       0.00000000       0.00000000       0.05748579       0.01160486       0.02944611       0.05666741
H        0.68779222       4.19244460       5.52094181       0.00000000       0.00000000      -0.00380724       0.04061778      -0.00115584       0.05436675
H        1.00562760       4.36797115       3.79218739       0.00000000       0.00000000      -0.02366293      -0.05491218       0.00901503       0.01343874
H        2.77585683       2.74067471       3.85597608       0.00000000       0.00000000      -0.00685140      -0.03213481      -0.00347557       0.01292268
H        2.41299601       2.29559916       5.51918205       0.00000000       0.00000000       0.01325249       0.02759490      -0.03889868       0.04892860
H        3.02983237       5.18934614       5.09403469       0.00000000       0.00000000       0.01300621       0.01931961      -0.02296096       0.03054088
H        4.36282799       4.07818107       4.81589043       0.00000000       0.00000000       0.02237332      -0.02053753      -0.01237471       0.02875281
H        4.54132463       4.76272321       7.04021417       0.00000000       0.00000000       0.00342398       0.01896871      -0.00728728       0.04010946
H        3.98075755       3.09990197       7.09711155       0.00000000       0.00000000       0.01007581      -0.00181077       0.00658044       0.03895194
H        1.93506345       5.32156646       7.21550067       0.00000000       0.00000000      -0.00373297       0.02027811      -0.00799171       0.02871384
H        2.93107203       5.02940264       8.62564432       0.00000000       0.00000000       0.00766141      -0.01417086       0.02677760       0.04206848
H        1.14521736       2.91630448       7.33801565       0.00000000       0.00000000      -0.00341568      -0.00310759       0.00096800       0.02822129
H        0.81996107       3.80773862       8.82063792       0.00000000       0.00000000       0.01063774       0.00255824       0.00536577       0.03732582
H        2.17310622       2.68729041       8.74919169       0.00000000       0.00000000       0.02174339       0.00244627       0.01229015       0.03585253
C       -3.95697243      -9.26429040       0.29544897       0.00000000       0.00000000      -0.00552142       0.00930055      -0.02550339      -0.10569181
C       -2.69598313      -9.43309845      -0.54589210       0.00000000       0.00000000       0.08748241       0.00289809      -0.02961540      -0.05796827
C       -2.14022267      -8.07431863      -0.97645874       0.00000000       0.00000000       0.01566999       0.00044422       0.01738073      -0.06004437
C       -0.68982954      -8.07347047      -1.47608961       0.00000000       0.00000000       0.01018169       0.04045451       0.02001252      -0.06473744
C       -0.09293415      -6.65880165      -1.39774263       0.00000000       0.00000000       0.02186628       0.02323001      -0.01060483      -0.06543451
C        1.20176086      -6.48741421      -2.19435871       0.00000000       0.00000000       0.02062915       0.04227605       0.03014194      -0.06566528
C        1.79238003      -5.06467296      -2.22127894       0.00000000       0.00000000       0.01783108       0.03889506       0.02519778      -0.06508653
C        2.21952269      -4.50001105      -0.85824777       0.00000000       0.00000000       0.00417380      -0.04093346       0.01833827      -0.00670053
N        3.12223020      -3.34555484      -0.93671315       0.00000000       0.00000000      -0.02854001       0.04597649      -0.04558527      -0.07040947
C        4.56089129      -3.59177607      -0.86365734       0.00000000       0.00000000      -0.00629483      -0.01781236       0.02386117      -0.02387093
C        5.30503335      -3.63839842      -2.21551519       0.00000000       0.00000000       0.01692006       0.03432669       0.00171504      -0.07883902
C        6.28998501      -2.48753123      -2.53996603       0.00000000       0.00000000      -0.01681604       0.02290060      -0.05959203      -0.06619526
C        5.86280487      -1.69297772      -3.78356164       0.00000000       0.00000000      -0.02315054       0.00585356      -0.02681269      -0.06179291
C        6.97906078      -0.91792249      -4.50058343       0.00000000       0.00000000      -0.00280620      -0.01623417       0.03731232      -0.07076781
C        7.18893804       0.54291934      -4.06452610       0.00000000       0.00000000       0.00456325      -0.04095261      -0.00510101      -0.06243179
C        8.52673691       0.76963178      -3.35306834       0.00000000       0.00000000      -0.04626098      -0.03951146      -0.01133255      -0.05584045
C        8.97001935       2.22406367      -3.42275011       0.00000000       0.00000000       0.00016917      -0.00199168       0.02173622      -0.10738743
C        2.58747407      -2.12118744      -0.89598156       0.00000000       0.00000000       0.12051253      -0.02430865      -0.02945412       0.27208970
O        1.36673618      -1.92705747      -0.83242135       0.00000000       0.00000000      -0.00315789       0.00847952       0.08799422      -0.38458007
C        3.51800137      -0.89815390      -0.82955496       0.00000000       0.00000000       0.01159627      -0.03606154      -0.01799352      -0.12393745
C        3.38585257      -0.51482494       0.63397055       0.00000000       0.00000000       0.05024087      -0.00452906       0.02830986       0.26986846
O        2.28305353      -0.08346866       1.02493761       0.00000000       0.00000000       0.01170634       0.03241065      -0.07194310      -0.37605274
N        4.38579944      -0.81275071       1.47639674       0.00000000       0.00000000      -0.08491229       0.05605450       0.00193344      -0.08174924
C        5.80839266      -0.66629187       1.17914876       0.00000000       0.00000000      -0.04131473       0.03941633       0.03928128      -0.01445212
C        6.70011898      -1.89284285       1.42744212       0.00000000       0.00000000      -0.00075899      -0.02669358      -0.00685764      -0.07362644
C        8.03406638      -1.47638619       2.06695454       0.00000000       0.00000000       0.01049742       0.02824311       0.08085864      -0.06995786
C        8.03696057      -1.62851022       3.59536115       0.00000000       0.00000000       0.04299308       0.01581265       0.01857479      -0.06198111
C        8.84280648      -0.53775334       4.30754290       0.00000000       0.00000000      -0.01380746      -0.00828267       0.04871991      -0.06696780
C        8.07922958       0.78024934       4.46729789       0.00000000       0.00000000      -0.01574861      -0.05293698      -0.02911294      -0.05378458
C        8.72995518       1.71924093       5.48589304       0.00000000       0.00000000       0.00508788       0.00228016      -0.01572760      -0.05614802
C        8.56893342       1.26693951       6.93261291       0.00000000       0.00000000      -0.01121285      -0.00565687       0.00915867      -0.10545287
C        4.03821404      -0.85523243       2.89520015       0.00000000       0.00000000       0.02982120      -0.07674859      -0.04429290      -0.00582554
C        3.16427206      -2.08230881       3.19958683       0.00000000       0.00000000       0.01653154       0.06586008      -0.02660562      -0.07266712
C        3.92448207      -3.34649053       3.60248194       0.00000000       0.00000000      -0.00917109       0.08503219       0.06510313      -0.06418125
C        2.97964139      -4.46464136       4.06672623       0.00000000       0.00000000      -0.06486836       0.06402923      -0.12155453      -0.05810836
C        3.60717871      -5.37974118       5.12003763       0.00000000       0.00000000      -0.10671740      -0.01368480       0.01858676      -0.06348015
C        2.56822253      -6.16390078       5.94554675       0.00000000       0.00000000      -0.05703022      -0.01097179       0.11876964      -0.06278278
C        2.64292565      -5.85642555       7.45578224       0.00000000       0.00000000       0.09590863       0.06519574       0.05609481      -0.06041642
C        1.32654974      -5.37817284       8.06010925       0.00000000       0.00000000       0.01238317      -0.04322289      -0.07872243      -0.10380704
H       -4.41708904     -10.22546244       0.49321160       0.00000000       0.00000000      -0.00756975      -0.08866300      -0.00362680       0.04750496
H       -4.68489689      -8.63971831      -0.21513965       0.00000000       0.00000000      -0.02445981       0.00700983      -0.08505497       0.03173728
H       -3.72823122      -8.80074343       1.25142271       0.00000000       0.00000000       0.05947261       0.04580977       0.03122898       0.03023917
H       -2.92188868     -10.03683249      -1.42531403       0.00000000       0.00000000       0.02352846       0.00292454      -0.01359646       0.03928916
H       -1.94862374      -9.96999750       0.03847716       0.00000000       0.00000000       0.03805498      -0.00610738       0.01737734       0.03851923
H       -2.20544104      -7.40110585      -0.11819171       0.00000000       0.00000000      -0.01716870      -0.02211619       0.03604097       0.03042300
H       -2.78769755      -7.67897767      -1.76235109       0.00000000       0.00000000      -0.00491843      -0.00081643      -0.01979452       0.02644191
H       -0.65109785      -8.44281250      -2.50066088       0.00000000       0.00000000      -0.00206994       0.01307978      -0.03963526       0.03687296
H       -0.09415720      -8.75226668      -0.86626699       0.00000000       0.00000000       0.01591904      -0.02814079       0.01608033       0.04076396
H        0.09985934      -6.41847814      -0.35261410       0.00000000       0.00000000      -0.02652454       0.03884170       0.03952382       0.02982232
H       -0.83986839      -5.95419944      -1.75860696       0.00000000       0.00000000       0.02963520       0.00642764      -0.05488373       0.02476044
H        1.01002120      -6.76890651      -3.23396652       0.00000000       0.00000000       0.02835224      -0.03467942       0.06044173       0.04477930
H        1.94896506      -7.17821486      -1.80075963       0.00000000       0.00000000       0.02856755       0.01337761      -0.00593701       0.04640922
H        1.07599554      -4.37241016      -2.66880310       0.00000000       0.00000000       0.01442069      -0.02791105       0.01973541       0.03347390
H        2.67223859      -5.10159031      -2.86477561       0.00000000       0.00000000       0.00979722       0.00933872      -0.00502722       0.05437295
H        2.73262989      -5.27853797      -0.29195145       0.00000000       0.00000000      -0.02473458      -0.02560720       0.01457044       0.06749583
H        1.33971708      -4.16700308      -0.30002255       0.00000000       0.00000000      -0.00786861      -0.05967176      -0.01224161       0.06238804
H        4.68486480      -4.55491171      -0.36579701       0.00000000       0.00000000      -0.03262474      -0.00615263      -0.01938108       0.07064117
H        5.00288180      -2.84444282      -0.21086693       0.00000000       0.00000000       0.01516220      -0.03336041       0.03965910       0.06804800
H        4.56130561      -3.69294444      -3.00724219       0.00000000       0.00000000      -0.03970518      -0.01395455      -0.01917499       0.05615707
H        5.86777294      -4.57041700      -2.24935169       0.00000000       0.00000000      -0.03721378      -0.01546810      -0.00673419       0.06001244
H        7.26850910      -2.92269405      -2.74229424       0.00000000       0.00000000       0.00209490      -0.01932389      -0.02346797       0.05453171
H        6.43437812      -1.81801443      -1.68856927       0.00000000       0.00000000      -0.05190635      -0.02581341      -0.03464036       0.02493866
H        5.05199891      -1.00377303      -3.52629650       0.00000000       0.00000000      -0.04209751      -0.04399204      -0.04343368       0.01455167
H        5.47599771      -2.41191219      -4.50785542       0.00000000       0.00000000       0.00230312       0.00309820       0.03586724       0.04106870
H        6.75238043      -0.93413745      -5.56866899       0.00000000       0.00000000      -0.00354805       0.02453285       0.05215651       0.03912860
H        7.91481963      -1.46016671      -4.37388168       0.00000000       0.00000000       0.01522853      -0.05981127      -0.03498437       0.04948062
H        6.36524582       0.86992235      -3.42214989       0.00000000       0.00000000       0.04902117      -0.00796045      -0.02354689       0.01712963
H        7.16958670       1.18164955      -4.94973099       0.00000000       0.00000000       0.01302415      -0.02426894       0.00168590       0.03744120
H        9.29217303       0.15716161      -3.83173224       0.00000000       0.00000000       0.00225645       0.00816336       0.01388804       0.04115820
H        8.44847546       0.44972474      -2.31135802       0.00000000       0.00000000       0.03712128       0.00094982      -0.00231495       0.02380754
H        9.14374603       2.51704726      -4.45439807       0.00000000       0.00000000       0.00376028       0.00054046      -0.02028584       0.04215001
H        9.89238085       2.36738551      -2.86985226       0.00000000       0.00000000       0.05560484      -0.00228774       0.02608455       0.04496896
H        8.21479647       2.88148254      -3.00386014       0.00000000       0.00000000      -0.03907213       0.04846172      -0.00130343       0.02905090
H        3.04859404      -0.11135683      -1.42328304       0.00000000       0.00000000      -0.04873732       0.02073620      -0.05830994       0.11919257
H        4.52244820      -1.08685876      -1.18251914       0.00000000       0.00000000      -0.01451837      -0.02326304       0.03780536       0.08874484
H        6.16298890       0.12443728       1.84540920       0.00000000       0.00000000      -0.01508324       0.08748390      -0.01232644       0.07862288
H        5.93087361      -0.30154193       0.15808580       0.00000000       0.00000000      -0.01839019      -0.04178728       0.07470956       0.05300095
H        6.90536606      -2.40675189       0.49036667       0.00000000       0.00000000       0.02212997      -0.01937132      -0.04929713       0.04193479
H        6.19850648      -2.60206785       2.08637278       0.00000000       0.00000000       0.00888579       0.04769099      -0.03698366       0.05741100
H        8.25085740      -0.43962211       1.80850955       0.00000000       0.00000000      -0.00733828       0.01098545      -0.03712976       0.04559213
H        8.84303479      -2.07339168       1.64784263       0.00000000       0.00000000      -0.01581297      -0.04392536       0.02595468       0.04922214
H        8.45054280      -2.60680154       3.85370245       0.00000000       0.00000000      -0.03074879       0.07439284      -0.02219078       0.04092279
H        7.01401919      -1.60748703       3.98421617       0.00000000       0.00000000       0.03815294       0.02483540      -0.03789129       0.02582477
H        9.77332075      -0.35213969       3.76726129       0.00000000       0.00000000      -0.02137763      -0.04066798       0.03925717       0.04047994
H        9.10564846      -0.90533160       5.29781902       0.00000000       0.00000000       0.00588833      -0.01226162       0.03345622       0.04896960
H        7.04979446       0.57622240       4.78033641       0.00000000       0.00000000       0.02762617      -0.01498364       0.04661795       0.01942457
H        8.03327417       1.29595038       3.50415189       0.00000000       0.00000000      -0.01208402      -0.02486365      -0.03096943       0.01654825
H        8.28289370       2.71017708       5.38102731       0.00000000       0.00000000      -0.01595908       0.02821812      -0.00324319       0.02788414
H        9.79123890       1.81180422       5.25508017       0.00000000       0.00000000       0.04158116       0.01095167      -0.01724287       0.03952195
H        7.51795519       1.14758928       7.18933667       0.00000000       0.00000000      -0.01690257      -0.00404022      -0.03010650       0.03151411
H        8.99732494       2.00958918       7.60013113       0.00000000       0.00000000       0.00670675       0.00148257       0.00087639       0.04345141
H        9.07786272       0.32454568       7.11637601       0.00000000       0.00000000      -0.00595936      -0.00164503      -0.01852757       0.03857816
H        3.49419330       0.06572483       3.14319323       0.00000000       0.00000000       0.01764399      -0.11682648       0.02396514       0.05914139
H        4.96334682      -0.89009444       3.47523017       0.00000000       0.00000000      -0.11880954       0.01213627      -0.04526692       0.07369120
H        2.52363455      -2.28010615       2.33409902       0.00000000       0.00000000      -0.01138044       0.01049773       0.08174313       0.03094963
H        2.53425843      -1.81309263       4.03786539       0.00000000       0.00000000      -0.06549090       0.00132235       0.00784298       0.07246768
H        4.57502392      -3.08423807       4.43575240       0.00000000       0.00000000       0.13082269       0.00226490       0.04624161       0.04555735
H        4.54718200      -3.70191134       2.78542381       0.00000000       0.00000000       0.07465992      -0.08120859      -0.07935843       0.02708634
H        2.08188988      -4.00377628       4.48736886       0.00000000       0.00000000       0.04303397      -0.04716990       0.06700036       0.02842171
H        2.66443381      -5.06095194       3.20888126       0.00000000       0.00000000      -0.05098416       0.00535035      -0.01229127       0.02677801
H        4.19041943      -4.76886975       5.80245845       0.00000000       0.00000000       0.09212055       0.14669231       0.09207793       0.04099049
H        4.31634888      -6.05420171       4.64502598       0.00000000       0.00000000      -0.00969377      -0.10032756      -0.08989149       0.03364290
H        2.70711158      -7.23469078       5.80612546       0.00000000       0.00000000       0.05753701      -0.02568258      -0.07312108       0.03668489
H        1.55833671      -5.93899440       5.59124502       0.00000000       0.00000000       0.06948476       0.08819573      -0.02572780       0.03055524
H        3.38596312      -5.08047352       7.63503046       0.00000000       0.00000000       0.06542276       0.08093027       0.00801066       0.03623429
H        2.99562494      -6.73361697       7.99872305       0.00000000       0.00000000      -0.12020196      -0.05861686      -0.02455474       0.03972642
H        1.02429242      -4.42674672       7.62604942       0.00000000       0.00000000       0.01495142       0.02193182      -0.03096701       0.02546431
H        1.43859873      -5.24134757       9.13282398       0.00000000       0.00000000      -0.02194401      -0.01475950      -0.02568134       0.04258523
H        0.53409252      -6.09937517       7.88564464       0.00000000       0.00000000      -0.04077392      -0.07550461       0.03075674       0.03454273
C       -1.06574302       3.21210154     -12.81734508       0.00000000       0.00000000       0.02678903      -0.01332228      -0.01577202      -0.10694298
C       -2.01928654       3.54976215     -11.67883947       0.00000000       0.00000000      -0.02679661      -0.00299615      -0.04558675      -0.05681426
C       -1.53464460       3.11008708     -10.29873596       0.00000000       0.00000000      -0.01035255      -0.00537397      -0.01953199      -0.05697365
C       -0.28872543       3.86638634      -9.84681725       0.00000000       0.00000000       0.01161624       0.02037905      -0.00720752      -0.06536526
C       -0.00662459       3.70467117      -8.35554829       0.00000000       0.00000000       0.01449442      -0.00481442       0.05356203      -0.06032439
C        0.64799191       2.37521879      -7.97644059       0.00000000       0.00000000       0.01124941      -0.05561302       0.02736312      -0.06537426
C        0.54833236       2.15537117      -6.46531014       0.00000000       0.00000000      -0.00634649       0.01945821      -0.03684096      -0.07492043
C        1.46856030       1.03485196      -5.97005276       0.00000000       0.00000000      -0.01796696       0.05602159      -0.02907817      -0.01904175
N        1.63962603       1.03754791      -4.52638392       0.00000000       0.00000000       0.01231484      -0.02195926      -0.01766757      -0.06528136
C        2.65345537       1.95228734      -4.00791706       0.00000000       0.00000000      -0.02272478      -0.01366955       0.02275856      -0.01369631
C        2.12693264       3.38504416      -3.79833638       0.00000000       0.00000000      -0.00746517      -0.01963068       0.02484159      -0.06201422
C        2.77955789       4.39081189      -4.75039302       0.00000000       0.00000000      -0.00461374      -0.02406882      -0.00355213      -0.06791423
C        4.08657460       4.95170641      -4.18802163       0.00000000       0.00000000       0.04295456      -0.00538343      -0.01363097      -0.06657842
C        3.85804030       6.20600047      -3.34572066       0.00000000       0.00000000       0.02302146       0.01646633      -0.02945123      -0.05890563
C        3.58691997       7.42896272      -4.21742575       0.00000000       0.00000000       0.00952937       0.05596960      -0.01382603      -0.06407391
C        3.43105836       8.71847944      -3.41539450       0.00000000       0.00000000       0.01790008       0.01407752       0.00228486      -0.05352610
C        3.16953596       9.90515440      -4.33654140       0.00000000       0.00000000       0.00914068      -0.01626855       0.02313191      -0.10874458
C        0.92749493       0.33064332      -3.64312117       0.00000000       0.00000000      -0.00588631      -0.04627832       0.00546425       0.27234583
O        1.17861494       0.41506915      -2.42951439       0.00000000       0.00000000      -0.02399920      -0.00054907       0.01845471      -0.37662818
C       -0.17961960      -0.56905427      -4.20041363       0.00000000       0.00000000       0.04791799       0.06364082      -0.04416504      -0.11869636
C       -0.87673439      -1.43667421      -3.15484242       0.00000000       0.00000000      -0.05844369       0.02404241      -0.02680290       0.27495718
O       -0.88292479      -1.14758713      -1.95357269       0.00000000       0.00000000      -0.07609558      -0.00986484       0.00354305      -0.35520262
N       -1.45332437      -2.56733506      -3.62520811       0.00000000       0.00000000      -0.00268313      -0.01589244       0.02352261      -0.09916454
C       -1.72211064      -3.63890538      -2.66547501       0.00000000       0.00000000      -0.02323790       0.03547789      -0.00247037      -0.00562327
C       -3.20341802      -3.83191928      -2.34895303       0.00000000       0.00000000      -0.03294339      -0.02737827       0.02908693      -0.07112695
C       -3.51347986      -4.75003873      -1.16145552       0.00000000       0.00000000      -0.04241557      -0.02910898       0.01179037      -0.07054101
C       -5.02904722      -4.96490654      -1.02388552       0.00000000       0.00000000      -0.00565380       0.03509946      -0.08604765      -0.07396278
C       -5.55432640      -5.39243309       0.35783527       0.00000000       0.00000000       0.07096899       0.03948493      -0.01701038      -0.06492697
C       -6.69552101      -4.48681160       0.82517893       0.00000000       0.00000000      -0.02262254       0.01084416       0.02448871      -0.05776153
C       -7.29841361      -4.91518391       2.16276055       0.00000000       0.00000000       0.02591519      -0.02329532       0.10480115      -0.06250284
C       -6.53760755      -4.41820444       3.38851540       0.00000000       0.00000000       0.03676277       0.00684753       0.00073122      -0.10469751
C       -2.22445172      -2.56230602      -4.87786363       0.00000000       0.00000000       0.05533590       0.05097121       0.08630571      -0.00847562
C       -2.35182762      -3.86207493      -5.68362389       0.00000000       0.00000000      -0.02227512       0.07814205       0.05691053      -0.07014801
C       -1.23362448      -4.09023006      -6.70268046       0.00000000       0.00000000       0.01525177       0.00420325      -0.00217291      -0.06622117
C       -0.06693860      -4.87434704      -6.11265196       0.00000000       0.00000000       0.04540089       0.00869273      -0.01371709      -0.06087925
C        1.17195360      -4.84951736      -7.00830328       0.00000000       0.00000000       0.03910845      -0.01246518      -0.02800919      -0.06480584
C        2.43560710      -5.30366657      -6.26747865       0.00000000       0.00000000      -0.00187629      -0.00903442      -0.00359777      -0.06377966
C        3.33637199      -4.14708790      -5.82556961       0.00000000       0.00000000       0.03495112       0.04471527       0.01609633      -0.05536272
C        2.59624116      -2.99369577      -5.13945454       0.00000000       0.00000000       0.00868176      -0.01263452       0.01590308      -0.10112671
H       -1.54033388       3.43360899     -13.76948513       0.00000000       0.00000000       0.01748846       0.01292629      -0.00525890       0.04435314
H       -0.80264576       2.15695174     -12.81071494       0.00000000       0.00000000      -0.01744804      -0.02755549       0.03546271       0.03403855
H       -0.15159193       3.79571390     -12.75465057       0.00000000       0.00000000       0.01477271       0.00508184       0.02573824       0.03717241
H       -2.98149610       3.07521926     -11.87270939       0.00000000       0.00000000      -0.05174060      -0.06465017      -0.01530941       0.03447544
H       -2.18825185       4.62727215     -11.66454449       0.00000000       0.00000000      -0.01213675       0.04659363      -0.00491677       0.03567804
H       -1.34824974       2.03429780     -10.29908251       0.00000000       0.00000000       0.01073422      -0.00348627      -0.03555446       0.02696689
H       -2.33987951       3.30956604      -9.58532126       0.00000000       0.00000000      -0.00269941      -0.01997867       0.00495162       0.02261101
H       -0.44791802       4.92616573     -10.04632588       0.00000000       0.00000000       0.00645795       0.05658284      -0.01995870       0.04455099
H        0.57906804       3.54933253     -10.42288594       0.00000000       0.00000000       0.02384367      -0.03280499      -0.01170805       0.04374845
H       -0.94978894       3.80809265      -7.81305238       0.00000000       0.00000000      -0.01188464       0.01897157       0.03023443       0.02724996
H        0.65262731       4.51059367      -8.02987765       0.00000000       0.00000000       0.00053795       0.05212109       0.03933301       0.03311362
H        1.69945791       2.39934838      -8.27021932       0.00000000       0.00000000      -0.03944894      -0.01352333      -0.03532840       0.04018693
H        0.17383701       1.55146020      -8.50756128       0.00000000       0.00000000      -0.04532709      -0.01669395      -0.00937249       0.04464015
H       -0.48764826       1.94096132      -6.19809454       0.00000000       0.00000000       0.03820520       0.01422557      -0.03208431       0.03378913
H        0.82832933       3.08690933      -5.97953319       0.00000000       0.00000000       0.01431756      -0.00611951      -0.05341575       0.05678510
H        2.45749011       1.18714190      -6.40582346       0.00000000       0.00000000       0.03334457      -0.03746176      -0.03769784       0.07554313
H        1.10408919       0.06658773      -6.31473042       0.00000000       0.00000000       0.00797872       0.02917030       0.01126099       0.05502218
H        3.49185165       1.96245720      -4.70578734       0.00000000       0.00000000       0.00721781      -0.02374776       0.03113459       0.07573985
H        2.99703926       1.55045264      -3.05595365       0.00000000       0.00000000       0.04184156      -0.05947375       0.03498380       0.06709932
H        1.04455320       3.38886585      -3.93975575       0.00000000       0.00000000       0.00259806      -0.02907335       0.07494705       0.03030789
H        2.31807793       3.68788549      -2.76821480       0.00000000       0.00000000      -0.05100013       0.00557065       0.00731117       0.04976156
H        2.09270928       5.21550690      -4.93676969       0.00000000       0.00000000      -0.01596724       0.02294586      -0.01244296       0.04712456
H        2.97385733       3.91072011      -5.70818515       0.00000000       0.00000000      -0.01397803      -0.00691490      -0.06192184       0.04308029
H        4.75522499       5.20764103      -5.00945842       0.00000000       0.00000000       0.03130799       0.00494044       0.00094831       0.04869023
H        4.58303128       4.18665438      -3.58730827       0.00000000       0.00000000       0.00534882      -0.02680562      -0.01719891       0.03071392
H        4.74275647       6.38781566      -2.73368480       0.00000000       0.00000000      -0.00255495       0.06632718       0.00087434       0.03612899
H        3.01152817       6.04576817      -2.67315678       0.00000000       0.00000000       0.01024999       0.01803432       0.00738873       0.01745623
H        2.68204933       7.27428903      -4.81106557       0.00000000       0.00000000       0.01957617       0.00430412       0.01041345       0.02873864
H        4.41672215       7.55054521      -4.91498210       0.00000000       0.00000000       0.00728861       0.01708843      -0.01553357       0.04277481
H        4.34405993       8.90132348      -2.84491849       0.00000000       0.00000000      -0.00840091      -0.01623068       0.00832330       0.03410006
H        2.60743248       8.61500535      -2.70119004       0.00000000       0.00000000       0.02141839       0.01826968      -0.03542224       0.01950296
H        3.96087915       9.99355720      -5.07701228       0.00000000       0.00000000       0.00703946      -0.01297692       0.02208062       0.04444818
H        3.13656183      10.83111463      -3.76939848       0.00000000       0.00000000      -0.05059792      -0.00533295       0.00540358       0.04435643
H        2.22581710       9.78125228      -4.86368541       0.00000000       0.00000000      -0.00185322       0.02618867       0.01791740       0.03529089
H        0.23756225      -1.23605211      -4.95840421       0.00000000       0.00000000       0.03531851       0.05523633       0.03639403       0.09673249
H       -0.91568055       0.08275409      -4.67946990       0.00000000       0.00000000       0.05026612      -0.04138547      -0.00364860       0.10108225
H       -1.15731262      -3.39779815      -1.76144624       0.00000000       0.00000000      -0.00666568       0.03286720       0.02015347       0.06437391
H       -1.30936520      -4.55528252      -3.09546611       0.00000000       0.00000000      -0.05811503       0.00768489      -0.04618532       0.06752620
H       -3.67968938      -4.26053774      -3.22945800       0.00000000       0.00000000      -0.05513482       0.02738138       0.00510689       0.05332997
H       -3.63781131      -2.84790109      -2.16398250       0.00000000       0.00000000       0.00726330      -0.05184935       0.01759966       0.03186771
H       -3.11311028      -4.32060998      -0.24247038       0.00000000       0.00000000      -0.00015199      -0.02000716       0.02361273       0.02030407
H       -3.03063304      -5.71234760      -1.30957796       0.00000000       0.00000000       0.01293816       0.05737094       0.01656260       0.05491879
H       -5.34677043      -5.70569635      -1.75602550       0.00000000       0.00000000       0.05584434       0.01609030      -0.04407920       0.04860582
H       -5.52541911      -4.03613131      -1.29522104       0.00000000       0.00000000       0.02472166       0.05142246       0.00822047       0.03964493
H       -4.76413446      -5.38962087       1.10727960       0.00000000       0.00000000       0.10240299       0.04849321      -0.03544441       0.02765957
H       -5.93154025      -6.41218866       0.29831436       0.00000000       0.00000000       0.01407335      -0.02911635       0.05339621       0.04644032
H       -7.48510617      -4.51713729       0.07332721       0.00000000       0.00000000      -0.00951460       0.00266814      -0.05814049       0.03471494
H       -6.35094349      -3.44943580       0.90081229       0.00000000       0.00000000       0.00348639      -0.04099579       0.00456061       0.01081841
H       -7.34124523      -6.00261823       2.18718515       0.00000000       0.00000000      -0.06735723      -0.07533923       0.04410234       0.04576422
H       -8.32034443      -4.54576691       2.22897408       0.00000000       0.00000000      -0.05930916       0.04690195      -0.03611637       0.04324531
H       -5.55148484      -4.87664887       3.45829959       0.00000000       0.00000000      -0.03396177       0.05695330      -0.02081344       0.02696579
H       -7.09433196      -4.67921943       4.28622289       0.00000000       0.00000000       0.07221172       0.00573201      -0.03194410       0.04907910
H       -6.42764337      -3.33136050       3.36795068       0.00000000       0.00000000       0.00784678      -0.11559721      -0.01948325       0.02278295
H       -1.80766907      -1.80276590      -5.53880659       0.00000000       0.00000000      -0.03875967      -0.04634470       0.03721122       0.06347382
H       -3.23754630      -2.23268756      -4.60449732       0.00000000       0.00000000       0.04888947      -0.05164686      -0.03022628       0.04830120
H       -3.29958169      -3.77640177      -6.21261761       0.00000000       0.00000000      -0.05915474       0.00557940      -0.10584059       0.05775811
H       -2.43753870      -4.73513612      -5.04211289       0.00000000       0.00000000       0.04412972      -0.02363350       0.05338490       0.06113246
H       -0.87758165      -3.12939381      -7.08073295       0.00000000       0.00000000       0.00225328       0.02886747       0.00794317       0.03143510
H       -1.63142058      -4.63042293      -7.56023817       0.00000000       0.00000000      -0.01517400      -0.06803088      -0.00593235       0.05233198
H       -0.36711735      -5.91100188      -5.95761477       0.00000000       0.00000000      -0.03426659      -0.03449969       0.01793174       0.03755482
H        0.17546547      -4.45999661      -5.13432652       0.00000000       0.00000000       0.01432279       0.05667125       0.03756613       0.02530155
H        1.33229607      -3.84184134      -7.39330804       0.00000000       0.00000000      -0.03757445       0.00084015      -0.04449515       0.03588614
H        0.99783314      -5.49639531      -7.86730400       0.00000000       0.00000000      -0.04271405       0.00405594      -0.00935447       0.04413934
H        3.02636349      -5.95502696      -6.91056580       0.00000000       0.00000000       0.02008518       0.00066263      -0.01756001       0.04593741
H        2.14919253      -5.89902631      -5.39806143       0.00000000       0.00000000      -0.01713888       0.02813336       0.02567397       0.03183086
H        3.87215992      -3.75505472      -6.69072999       0.00000000       0.00000000      -0.02505060       0.01394928      -0.04565790       0.03897363
H        4.09129360      -4.55557137      -5.15438758       0.00000000       0.00000000       0.06052468      -0.03682200       0.08529359       0.02740579
H        1.73933794      -3.36332052      -4.58514700       0.00000000       0.00000000       0.02562405       0.04227285       0.01160833       0.03326072
H        3.24032597      -2.47529590      -4.43200034       0.00000000       0.00000000      -0.00506514       0.05804824      -0.10301658       0.02201715
H        2.25777965      -2.26924251      -5.87833799       0.00000000       0.00000000      -0.02966449      -0.04119724       0.05385678       0.02166603
O       -1.01295263       1.91810742      -2.28180503       0.00000000       0.00000000       0.07387808       0.06533223       0.05574314      -0.52208625
H       -0.64505983       2.75987030      -2.58533782       0.00000000       0.00000000      -0.08453476      -0.05433589      -0.00884285       0.32435212
H       -1.94047250       1.87770506      -2.55143254       0.00000000       0.00000000      -0.02105455       0.05185487       0.00243962       0.33870128
