430
Properties=species:S:1:pos:R:3:initial_charges:R:1:initial_magmoms:R:1:forces:R:3:charge:R:1 energy=-13358.521932639907 free_energy=-13358.521932639907 dipole="-1.4849939730000532 -1.4111139534344765 -0.08968843338490942" pbc="F F F"
Pr       0.28728912      -0.23604422       0.10638476       3.00000000       0.00000000       0.01170539       0.01503231       0.07654964       0.84666643
C        7.29035152       0.27931521      -1.93052079       0.00000000       0.00000000      -0.01805868      -0.00306194      -0.01544328      -0.10731843
C        6.15643002       0.67047160      -2.87284399       0.00000000       0.00000000      -0.01099830       0.01754949      -0.00123759      -0.05543959
C        6.42562610       2.03453000      -3.50614180       0.00000000       0.00000000      -0.03490240      -0.00591406      -0.01668557      -0.06507104
C        5.23819454       2.64439123      -4.25717429       0.00000000       0.00000000      -0.01104906       0.01774441      -0.00291050      -0.06142838
C        4.92953516       2.03799556      -5.63027081       0.00000000       0.00000000      -0.02002219      -0.02107298       0.04985883      -0.06562843
C        3.97798415       0.83864435      -5.63390307       0.00000000       0.00000000      -0.00367031       0.01562405      -0.00715004      -0.06164888
C        2.59212248       1.10561022      -5.02404461       0.00000000       0.00000000       0.02861161      -0.00335892      -0.01780261      -0.06052155
C        1.56429332       0.15457603      -5.64884857       0.00000000       0.00000000       0.00169195       0.01402716       0.02793844      -0.06877741
C        0.33732345      -0.15558248      -4.79018571       0.00000000       0.00000000       0.00589145      -0.05007253      -0.00883143      -0.06311590
C       -0.51319615       1.05869889      -4.40794438       0.00000000       0.00000000       0.04980988      -0.01486519      -0.01058055      -0.01166748
N       -1.72461232       0.59489285      -3.71876131       0.00000000       0.00000000       0.04191509       0.02835421       0.07140193      -0.06045080
C       -2.99481432       0.71500267      -4.41571149       0.00000000       0.00000000       0.05400691       0.00102466       0.00396766      -0.02323702
C       -3.72008902       2.02694739      -4.04672312       0.00000000       0.00000000       0.00066763       0.04651003      -0.00548264      -0.07053377
C       -3.45627479       3.16990213      -5.02849201       0.00000000       0.00000000      -0.03241789       0.05499763      -0.01052879      -0.06556456
C       -4.05850852       4.50402918      -4.56576119       0.00000000       0.00000000      -0.01497048       0.02860258       0.00671335      -0.06878011
C       -3.32302951       5.10456502      -3.36575513       0.00000000       0.00000000       0.01235071      -0.01651840       0.00607903      -0.05962538
C       -3.62947089       6.57971490      -3.09012912       0.00000000       0.00000000      -0.00312652      -0.01842980       0.04210872      -0.06666492
C       -2.79761151       7.08818751      -1.90798712       0.00000000       0.00000000       0.00228909      -0.00837116       0.03228623      -0.05233734
C       -2.86177309       8.60324217      -1.70710604       0.00000000       0.00000000      -0.02418825      -0.01413107      -0.01827170      -0.06286421
C       -2.18491855       9.07681559      -0.41649855       0.00000000       0.00000000       0.02198616      -0.01168468      -0.02844502      -0.05753642
C       -0.69837398       8.73894148      -0.35960741       0.00000000       0.00000000       0.01365572      -0.00979511       0.00546663      -0.10021716
C       -1.55222397       0.15718772      -2.47298529       0.00000000       0.00000000      -0.05151006       0.04034811      -0.00069527       0.26004218
O       -0.47726685       0.36518614      -1.88106683       0.00000000       0.00000000       0.11824190      -0.00580062      -0.05955782      -0.38019388
C       -2.61758514      -0.67849169      -1.73660477       0.00000000       0.00000000      -0.04603831       0.01668611       0.01433759       0.09639441
C       -3.89459675       0.08674098      -1.39331982       0.00000000       0.00000000      -0.01449711      -0.07131555       0.05055113      -0.13675943
O       -1.99049841      -1.13021373      -0.52384919       0.00000000       0.00000000      -0.02616669      -0.08162192      -0.07704124      -0.23985589
C       -2.49209715      -2.35992720       0.02697513       0.00000000       0.00000000      -0.04520706       0.00971069      -0.01349532       0.09821592
C       -3.37569412      -2.04887082       1.24544395       0.00000000       0.00000000      -0.07986639       0.05058520       0.03786200      -0.12265297
C       -1.29653986      -3.17778701       0.56080628       0.00000000       0.00000000      -0.01118683      -0.01860491      -0.01177943       0.26922175
O       -0.34584630      -2.50908564       1.00981681       0.00000000       0.00000000       0.06338018       0.03115070      -0.00380089      -0.41478899
N       -1.33791809      -4.51534992       0.61170414       0.00000000       0.00000000      -0.00823666       0.06292107       0.06285302      -0.07919110
C       -2.61943390      -5.23912268       0.57128433       0.00000000       0.00000000       0.04374610      -0.00163486      -0.02099918      -0.02886230
C       -3.21282920      -5.42495181       1.97053962       0.00000000       0.00000000      -0.05169885       0.00022309      -0.01506167      -0.07487251
C       -4.22013187      -6.57333236       2.04368893       0.00000000       0.00000000      -0.04591364      -0.01266865       0.00358801      -0.06905184
C       -5.55574604      -6.33600304       1.34651728       0.00000000       0.00000000       0.00498962      -0.00957527      -0.01901997      -0.06812925
C       -6.49239135      -5.36947140       2.08623462       0.00000000       0.00000000       0.03682291      -0.05671684      -0.01609815      -0.05778780
C       -7.92694718      -5.89408012       1.99407993       0.00000000       0.00000000      -0.00738301       0.01824196       0.00510235      -0.06314549
C       -8.98917879      -5.03743934       2.67921836       0.00000000       0.00000000      -0.02475293       0.04368188      -0.01797161      -0.06325705
C       -9.14115347      -3.66749041       2.01568807       0.00000000       0.00000000      -0.04770213       0.01745923      -0.01494577      -0.05414020
C      -10.53997334      -3.06644795       2.15732578       0.00000000       0.00000000      -0.00117947       0.00225687      -0.02567133      -0.05499645
C      -10.93394162      -2.78412142       3.60125635       0.00000000       0.00000000       0.02222795       0.00381372      -0.03907019      -0.10576883
C       -0.27362057      -5.27862403       1.31875442       0.00000000       0.00000000      -0.03320751       0.05326097       0.09038927      -0.01357016
C        1.14523399      -5.56133967       0.76482338       0.00000000       0.00000000       0.01182332       0.04111874      -0.04290239      -0.06822078
C        1.31902744      -6.57663819      -0.37621830       0.00000000       0.00000000      -0.03884440       0.05668711      -0.12164442      -0.08412846
C        2.50998697      -7.54458017      -0.22139156       0.00000000       0.00000000      -0.00814306      -0.08477229      -0.04574545      -0.06414914
C        2.21796010      -8.96914660      -0.72327145       0.00000000       0.00000000       0.02576122      -0.05293864      -0.05687092      -0.06998255
C        2.10346739      -9.18774890      -2.23686151       0.00000000       0.00000000      -0.01239968       0.02041240       0.04328689      -0.05764393
C        1.50731356     -10.57813373      -2.48396792       0.00000000       0.00000000      -0.02902131      -0.05379377      -0.00524632      -0.06238357
C        1.19654988     -10.92356404      -3.94476434       0.00000000       0.00000000       0.01305331      -0.01089485      -0.03751068      -0.06466725
C       -0.18793790     -10.51067735      -4.46054247       0.00000000       0.00000000       0.07177351       0.00131892      -0.00263512      -0.05561692
C       -1.31581992     -11.40538705      -3.95742176       0.00000000       0.00000000       0.01633802       0.01028468       0.01177490      -0.10538454
H        7.15554685      -0.73102158      -1.55002487       0.00000000       0.00000000      -0.00761297      -0.00644314       0.00223396       0.02740393
H        7.34018112       0.96233797      -1.08473741       0.00000000       0.00000000       0.00744933      -0.00616331      -0.01008260       0.03144086
H        8.24328448       0.32119315      -2.45181499       0.00000000       0.00000000      -0.01395418      -0.01851248       0.00727970       0.04934505
H        5.21333222       0.70420209      -2.31732518       0.00000000       0.00000000       0.01651183       0.01052509      -0.01800833       0.01108824
H        6.06115742      -0.08445323      -3.65346312       0.00000000       0.00000000       0.00490477       0.01368418       0.03014134       0.03823647
H        7.27164519       1.95220654      -4.19013022       0.00000000       0.00000000      -0.00976750      -0.00369494       0.03093072       0.04862375
H        6.72029656       2.72639528      -2.71013346       0.00000000       0.00000000      -0.00494476      -0.01736737      -0.03345814       0.02892027
H        5.47002269       3.69999957      -4.41628155       0.00000000       0.00000000      -0.00447695       0.00949774       0.01581039       0.03364155
H        4.34050261       2.58999020      -3.63644342       0.00000000       0.00000000       0.00989697       0.00370519      -0.02247761       0.01966927
H        5.86705318       1.73607291      -6.10202449       0.00000000       0.00000000      -0.06215058       0.05044844      -0.00599113       0.05404520
H        4.48207574       2.81832085      -6.25324535       0.00000000       0.00000000       0.03472813      -0.06801857       0.01167749       0.03686363
H        4.43005199      -0.01156219      -5.11897008       0.00000000       0.00000000       0.00028473       0.05532345      -0.02156410       0.03116428
H        3.84198107       0.55237443      -6.67977722       0.00000000       0.00000000      -0.00391343      -0.01164180       0.02245257       0.04161171
H        2.30192211       2.14120653      -5.21454315       0.00000000       0.00000000       0.00673828      -0.02973584      -0.01238529       0.03398660
H        2.62485245       0.96423989      -3.93923138       0.00000000       0.00000000      -0.01013020      -0.00874395      -0.03424295       0.02118046
H        2.05600143      -0.80223882      -5.84479483       0.00000000       0.00000000      -0.02982165       0.04454054      -0.04342703       0.04786483
H        1.24842169       0.56422915      -6.61016893       0.00000000       0.00000000      -0.01390388      -0.05140158       0.02539368       0.05093651
H        0.65637651      -0.65027149      -3.86771918       0.00000000       0.00000000      -0.01705889       0.01084668       0.01112497       0.04097737
H       -0.29266695      -0.85674976      -5.34064902       0.00000000       0.00000000      -0.03686594      -0.03214529      -0.03178044       0.04172020
H       -0.80101844       1.63036318      -5.28805480       0.00000000       0.00000000      -0.02034494      -0.05878945      -0.01174660       0.07801673
H        0.06618975       1.69775804      -3.74058179       0.00000000       0.00000000      -0.01924167       0.03342184       0.01550909       0.07605309
H       -3.61815151      -0.15395210      -4.20013467       0.00000000       0.00000000       0.02938223      -0.00705037       0.00241888       0.05923348
H       -2.78002021       0.71659655      -5.48342787       0.00000000       0.00000000      -0.05186595      -0.07577536      -0.05978125       0.08888616
H       -3.40105996       2.34048070      -3.05341076       0.00000000       0.00000000       0.01039284      -0.02445930       0.04297057       0.03828864
H       -4.79625991       1.85302811      -4.01138054       0.00000000       0.00000000      -0.00413445      -0.01063644      -0.03691596       0.05723706
H       -3.89914582       2.90566868      -5.98901286       0.00000000       0.00000000       0.03960111       0.01620381      -0.04755045       0.05076959
H       -2.38056199       3.29596179      -5.17151131       0.00000000       0.00000000      -0.03693612       0.03810462       0.00073982       0.03531178
H       -5.11346555       4.36147699      -4.32531063       0.00000000       0.00000000       0.01224951       0.02308161       0.00128609       0.04202497
H       -4.00577212       5.20620616      -5.39730345       0.00000000       0.00000000       0.02657530       0.00297103       0.00722625       0.05922662
H       -2.24850407       5.01539823      -3.54319200       0.00000000       0.00000000       0.00228370      -0.00639204      -0.05823314       0.02784214
H       -3.56892445       4.52874753      -2.46869630       0.00000000       0.00000000       0.01261239       0.02611781      -0.00010023       0.01317297
H       -4.69121803       6.70741257      -2.87961845       0.00000000       0.00000000      -0.01879304       0.00231740       0.01902415       0.03962489
H       -3.39796146       7.17552890      -3.97310402       0.00000000       0.00000000      -0.00069789      -0.03589842       0.01731575       0.04636795
H       -1.75289131       6.81074234      -2.07380035       0.00000000       0.00000000      -0.00671196      -0.01774670      -0.02287289       0.02151389
H       -3.14028238       6.59215779      -0.99415558       0.00000000       0.00000000      -0.00509127       0.00632615       0.03038493       0.01220918
H       -3.90349877       8.92454540      -1.68526392       0.00000000       0.00000000      -0.03784603      -0.03106836      -0.01995341       0.04034060
H       -2.38297246       9.09148348      -2.55827125       0.00000000       0.00000000      -0.02093483       0.00586818       0.00029165       0.03957400
H       -2.69803948       8.65445697       0.45201220       0.00000000       0.00000000       0.02294015      -0.04316930      -0.04674218       0.02910593
H       -2.28854696      10.16074638      -0.35523261       0.00000000       0.00000000      -0.03757750      -0.00358898      -0.01562722       0.04594057
H       -0.53606791       7.66270933      -0.28757545       0.00000000       0.00000000      -0.00692164       0.04003266       0.00798433       0.00926320
H       -0.23353258       9.20680981       0.50590862       0.00000000       0.00000000      -0.03258067      -0.00825786      -0.02414273       0.03801201
H       -0.20022382       9.10770098      -1.25424320       0.00000000       0.00000000       0.00294104      -0.01487051       0.05077304       0.04340317
H       -2.83581953      -1.54021981      -2.38683816       0.00000000       0.00000000      -0.06098151      -0.00074083       0.06364754       0.06486774
H       -3.65424732       0.95770038      -0.78765107       0.00000000       0.00000000       0.01613585      -0.00156161      -0.07500123       0.05947369
H       -4.54780471      -0.55629004      -0.81367025       0.00000000       0.00000000      -0.05465137      -0.03200079       0.00520833       0.08418467
H       -4.44301169       0.38491838      -2.27733584       0.00000000       0.00000000       0.02519575       0.05042625       0.05496712       0.07955918
H       -3.04658036      -2.90024008      -0.74372159       0.00000000       0.00000000       0.02067283       0.03786318      -0.07842940       0.05968706
H       -4.27729526      -2.65168042       1.25215114       0.00000000       0.00000000      -0.01820871      -0.07463192       0.02606404       0.07647550
H       -2.82587430      -2.19684770       2.17116784       0.00000000       0.00000000      -0.01115078      -0.04308406       0.04027102       0.06619943
H       -3.66774810      -1.00461869       1.21515098       0.00000000       0.00000000       0.01909516       0.08626722       0.00544321       0.07529135
H       -2.45190255      -6.22437486       0.14676129       0.00000000       0.00000000       0.04375570      -0.01311804       0.02774353       0.10118613
H       -3.32542667      -4.72158307      -0.07455121       0.00000000       0.00000000       0.04416970      -0.01374594       0.02427045       0.05349599
H       -3.68270250      -4.50057275       2.29387878       0.00000000       0.00000000      -0.06162411       0.01454088       0.05870447       0.04501054
H       -2.41000512      -5.66297573       2.66754569       0.00000000       0.00000000      -0.01219621       0.03582544      -0.00080900       0.05047405
H       -4.41114227      -6.78615527       3.09633655       0.00000000       0.00000000      -0.03961621       0.00730169       0.02760364       0.05470657
H       -3.77548540      -7.47256422       1.61955629       0.00000000       0.00000000       0.00062047       0.01193235      -0.00247497       0.04688952
H       -6.05129238      -7.30637404       1.28982456       0.00000000       0.00000000      -0.00637663       0.00832830      -0.01553368       0.05333624
H       -5.39291749      -6.00744509       0.31775339       0.00000000       0.00000000      -0.00388149       0.02203706       0.01833706       0.02252706
H       -6.41899975      -4.36354224       1.66029000       0.00000000       0.00000000      -0.05324285      -0.07366322       0.05412102       0.01478221
H       -6.19680249      -5.31142836       3.13674477       0.00000000       0.00000000      -0.06373562       0.02908060      -0.01134053       0.03398736
H       -7.94959940      -6.89097579       2.43912526       0.00000000       0.00000000      -0.00221057       0.00566767      -0.00410195       0.03920623
H       -8.19076602      -5.99788621       0.93801036       0.00000000       0.00000000      -0.00749757      -0.01978050       0.01193989       0.03400168
H       -8.75970043      -4.92304400       3.74075907       0.00000000       0.00000000       0.03994623      -0.00866192      -0.05579490       0.03603816
H       -9.93629905      -5.57515074       2.60322251       0.00000000       0.00000000      -0.00062747       0.03229596       0.00840758       0.04615637
H       -8.93871927      -3.78179539       0.94671679       0.00000000       0.00000000       0.00690379       0.04003800       0.02214125       0.02570954
H       -8.40558745      -2.97325803       2.43266579       0.00000000       0.00000000      -0.04596288      -0.03308037      -0.01801382       0.01695982
H      -11.26417616      -3.75105389       1.71115065       0.00000000       0.00000000       0.00902160      -0.01827256       0.03819900       0.03760004
H      -10.58045333      -2.13755875       1.58099608       0.00000000       0.00000000      -0.00334518       0.01220622       0.03768157       0.02481681
H      -10.89473123      -3.69687950       4.18983092       0.00000000       0.00000000      -0.03418571       0.03264229       0.01526529       0.04045865
H      -11.94689900      -2.39165252       3.64058409       0.00000000       0.00000000       0.02043123      -0.01120550       0.02441418       0.04240421
H      -10.26554947      -2.05019607       4.04799930       0.00000000       0.00000000       0.01587744      -0.02094632       0.00737082       0.02977139
H       -0.71296207      -6.24709461       1.54620396       0.00000000       0.00000000       0.00984550      -0.00432515      -0.01157970       0.09016626
H       -0.10870000      -4.75970984       2.26647670       0.00000000       0.00000000       0.02214647       0.07729360       0.09422259       0.05011970
H        1.64894607      -5.98482671       1.63959031       0.00000000       0.00000000       0.05547203       0.11237456       0.01124871       0.05804320
H        1.65213997      -4.63484644       0.51245532       0.00000000       0.00000000      -0.06968292       0.03776738      -0.05627959       0.02493823
H        1.37879858      -6.05459572      -1.32977174       0.00000000       0.00000000       0.06524999      -0.01836553       0.10649824       0.02903337
H        0.42992017      -7.18913339      -0.40349776       0.00000000       0.00000000       0.04137434      -0.00277744      -0.10997881       0.07465107
H        2.75243648      -7.64561050       0.83672501       0.00000000       0.00000000       0.03570214       0.06718422       0.06211018       0.03826463
H        3.40295602      -7.17412187      -0.72521226       0.00000000       0.00000000      -0.01911328       0.13368404      -0.02348640       0.02890407
H        1.29572675      -9.32601490      -0.26328819       0.00000000       0.00000000       0.02690632       0.10652104       0.04185460       0.04673993
H        3.01088155      -9.63173565      -0.36717999       0.00000000       0.00000000       0.01114224       0.11867828       0.04002332       0.04490523
H        3.08938216      -9.12701930      -2.70121767       0.00000000       0.00000000       0.00395260       0.01153248       0.00856127       0.03062387
H        1.48366212      -8.42027052      -2.70093660       0.00000000       0.00000000      -0.05239025       0.03366373      -0.01646179       0.01499958
H        0.60028870     -10.69277270      -1.88861939       0.00000000       0.00000000      -0.07189708       0.02210032      -0.03332915       0.03472812
H        2.22423261     -11.30573623      -2.10267616       0.00000000       0.00000000       0.02907138      -0.04775279       0.00195542       0.03755591
H        1.26683904     -12.00678318      -4.05867885       0.00000000       0.00000000       0.06257649       0.02553644      -0.03000379       0.04630784
H        1.96082776     -10.47476856      -4.58274621       0.00000000       0.00000000       0.02051194      -0.01368335       0.00159987       0.03102294
H       -0.17138971     -10.58942635      -5.54957366       0.00000000       0.00000000       0.02152643       0.04188095      -0.00981682       0.03503286
H       -0.39884631      -9.46845788      -4.21263810       0.00000000       0.00000000       0.06838304      -0.01521388       0.01002696       0.02011559
H       -1.13362514     -12.43468763      -4.24668059       0.00000000       0.00000000       0.05075926      -0.07543793      -0.00489168       0.04525431
H       -2.25970800     -11.10404185      -4.40249742       0.00000000       0.00000000      -0.05952265       0.05579677       0.00892260       0.03279802
H       -1.42258348     -11.37521716      -2.87642016       0.00000000       0.00000000       0.05885532       0.05737950       0.03663779       0.02948337
C        3.04145931      -2.60656028       8.64947649       0.00000000       0.00000000      -0.03416839       0.01562942       0.03125899      -0.10757997
C        2.87424867      -1.09993228       8.46620130       0.00000000       0.00000000       0.02014163      -0.00690543      -0.03719797      -0.05032205
C        1.69621774      -0.50052794       9.23810027       0.00000000       0.00000000       0.04516184      -0.05098136      -0.01655443      -0.06401353
C        0.35045476      -1.08571886       8.82100120       0.00000000       0.00000000      -0.06008464      -0.02583826      -0.02634075      -0.05712006
C       -0.85769257      -0.27000676       9.28539289       0.00000000       0.00000000      -0.05592007      -0.00326181       0.00574480      -0.06383323
C       -0.97878442       1.12657205       8.67185916       0.00000000       0.00000000      -0.06088838      -0.00626309      -0.06697273      -0.06352496
C       -1.11207245       1.17715638       7.14411256       0.00000000       0.00000000       0.02192669       0.00641268      -0.05647819      -0.06036551
C       -2.36040932       0.48225393       6.57722868       0.00000000       0.00000000      -0.00565121      -0.01634747       0.07114109      -0.06560612
C       -3.03551769       1.23266112       5.40664271       0.00000000       0.00000000      -0.00927858      -0.04488842      -0.02169718      -0.07327750
C       -2.87358916       0.60133937       4.00686869       0.00000000       0.00000000      -0.00569708       0.01825972      -0.04734105      -0.00746553
N       -2.88249969       1.61444927       2.93813582       0.00000000       0.00000000      -0.03194123      -0.06126729       0.02679039      -0.05903754
C       -3.99979123       2.55419743       2.97433507       0.00000000       0.00000000       0.11440636      -0.04686872       0.05133878      -0.02967586
C       -5.19535166       2.08029705       2.12670512       0.00000000       0.00000000       0.00894014       0.01270502      -0.00114024      -0.06869298
C       -6.29259532       1.35094270       2.90714844       0.00000000       0.00000000       0.02371231       0.00377317       0.03097022      -0.06532678
C       -7.33529772       0.75479944       1.95295835       0.00000000       0.00000000      -0.01623316       0.03940713       0.06060000      -0.06860811
C       -6.86906044      -0.54252908       1.28409848       0.00000000       0.00000000      -0.03287408       0.01775954       0.03177801      -0.06010678
C       -7.48307568      -0.73766900      -0.10209153       0.00000000       0.00000000       0.03649766      -0.02764528      -0.00989558      -0.06611748
C       -6.96086166      -1.99676785      -0.79525860       0.00000000       0.00000000      -0.05032719      -0.03339713      -0.03562300      -0.05747540
C       -7.45999828      -2.11115937      -2.23755487       0.00000000       0.00000000       0.00267844      -0.00762767      -0.00360015      -0.06465351
C       -6.73160961      -3.18539654      -3.05006500       0.00000000       0.00000000       0.02115711       0.02036218       0.02921325      -0.05144645
C       -6.97784513      -4.59615954      -2.52532033       0.00000000       0.00000000       0.00653504       0.04285390      -0.00692362      -0.10651945
C       -1.99056520       1.53015605       1.95131187       0.00000000       0.00000000       0.01876184      -0.01121602       0.01720031       0.25342569
O       -1.24235302       0.53140063       1.82214373       0.00000000       0.00000000       0.00480671      -0.00348173       0.03082795      -0.39477043
C       -1.68246617       2.75391389       1.04757633       0.00000000       0.00000000       0.00263560      -0.00566468       0.00115342       0.09310972
C       -2.77999335       3.40784671       0.19397511       0.00000000       0.00000000       0.03892383       0.00305610      -0.00418283      -0.13377122
O       -0.61568702       2.30324853       0.20327968       0.00000000       0.00000000       0.00893007       0.03536667       0.05729478      -0.25005284
C        0.16432395       3.34099647      -0.40808797       0.00000000       0.00000000      -0.04908273       0.02823470       0.01054150       0.09564634
C       -0.41854770       3.78827417      -1.75507064       0.00000000       0.00000000      -0.00201970      -0.03108776      -0.00598024      -0.13031472
C        1.56306312       2.73744449      -0.62022895       0.00000000       0.00000000       0.05086513      -0.04093573       0.02071431       0.25622505
O        1.67605583       1.49514350      -0.59628795       0.00000000       0.00000000       0.01773298      -0.01109130      -0.00134178      -0.37789154
N        2.59798470       3.54925201      -0.80067131       0.00000000       0.00000000      -0.02592324      -0.02565362       0.03710467      -0.05278324
C        2.51699934       4.96343527      -1.13830566       0.00000000       0.00000000       0.00750127       0.03430487       0.00215240      -0.02205411
C        2.94817589       5.25102141      -2.58482909       0.00000000       0.00000000       0.01807572       0.01689183      -0.01309362      -0.06686514
C        2.95326835       6.75488545      -2.88504841       0.00000000       0.00000000       0.00040256       0.02741971       0.00308371      -0.06878649
C        1.58960445       7.37025172      -3.20644000       0.00000000       0.00000000       0.01824963       0.01181144       0.00817914      -0.06640540
C        1.02588112       6.96865418      -4.57668048       0.00000000       0.00000000       0.01925961      -0.02512321       0.02966713      -0.05881589
C        0.23622476       8.11847744      -5.20813162       0.00000000       0.00000000       0.01425816      -0.02201688       0.02177445      -0.06195860
C       -0.40590570       7.77448019      -6.55369356       0.00000000       0.00000000      -0.00093025      -0.00334766       0.00849131      -0.06336455
C       -1.64402961       6.89544453      -6.40118456       0.00000000       0.00000000      -0.00004656      -0.01455461       0.03913039      -0.05590911
C       -2.46650052       6.74908353      -7.68037043       0.00000000       0.00000000      -0.01061094       0.01795184       0.02999477      -0.05511760
C       -1.74227986       5.98417449      -8.77733724       0.00000000       0.00000000       0.01560036      -0.01991406      -0.01499000      -0.10524508
C        3.94037981       2.98878632      -0.65096186       0.00000000       0.00000000       0.02628039      -0.00090300      -0.01505432      -0.01803050
C        4.73617159       3.66986529       0.46467527       0.00000000       0.00000000       0.01945261       0.00601601      -0.00158293      -0.06971093
C        4.01670225       3.61656123       1.81084031       0.00000000       0.00000000       0.01186946      -0.01891954       0.02476049      -0.05771850
C        4.92217486       3.99198574       2.98880645       0.00000000       0.00000000      -0.01409274      -0.05329728       0.02261950      -0.06283239
C        5.26123017       5.47852806       3.11552607       0.00000000       0.00000000       0.01115551      -0.06944831      -0.04563790      -0.06376843
C        4.08636284       6.31982297       3.61332327       0.00000000       0.00000000       0.00322118      -0.03337567      -0.01857934      -0.05643957
C        4.47761166       7.77704221       3.90032735       0.00000000       0.00000000      -0.00641468       0.03896763      -0.00881271      -0.06535036
C        3.86660279       8.78857788       2.93004488       0.00000000       0.00000000      -0.02169806       0.02071010      -0.01963473      -0.05970717
C        4.38714888       8.69034713       1.49500862       0.00000000       0.00000000      -0.03033532      -0.01699041      -0.00006462      -0.04882294
C        5.84875013       9.09849593       1.36225948       0.00000000       0.00000000       0.00484882      -0.00429021       0.00203010      -0.10671943
H        4.04588585      -2.91697870       8.37271721       0.00000000       0.00000000      -0.00968551       0.01548448      -0.05528380       0.03766932
H        2.33276913      -3.16489125       8.03876718       0.00000000       0.00000000      -0.01616930       0.02354041       0.07044745       0.02428228
H        2.88728216      -2.87735933       9.68838319       0.00000000       0.00000000       0.00095649      -0.01842440       0.06423103       0.04993150
H        2.75617553      -0.88812051       7.39755870       0.00000000       0.00000000       0.01425943       0.07224790      -0.01064039       0.00413968
H        3.78254895      -0.59325628       8.79611170       0.00000000       0.00000000       0.01466965      -0.03515153       0.01874487       0.03818582
H        1.70003423       0.57742357       9.07317090       0.00000000       0.00000000       0.01452066       0.02301130      -0.00036659       0.03218750
H        1.84155187      -0.67301792      10.30517843       0.00000000       0.00000000       0.01915450       0.03473987      -0.01157891       0.04463603
H        0.26020815      -2.08529065       9.24715858       0.00000000       0.00000000      -0.00970652      -0.05076866      -0.05008349       0.03842303
H        0.32024243      -1.18807022       7.73418337       0.00000000       0.00000000       0.01496904       0.02497232      -0.06102278       0.01517967
H       -0.80272486      -0.15412044      10.36991981       0.00000000       0.00000000      -0.01429800      -0.01334677      -0.04241260       0.04658135
H       -1.76467506      -0.84002881       9.06265287       0.00000000       0.00000000       0.02988290       0.03177185       0.01967673       0.03048051
H       -0.10311855       1.71729956       8.94741035       0.00000000       0.00000000      -0.01401613      -0.01054663      -0.00500751       0.04127037
H       -1.84478303       1.62627245       9.11295375       0.00000000       0.00000000      -0.00440720      -0.06455773      -0.00923836       0.03997617
H       -0.21855653       0.74667413       6.69517545       0.00000000       0.00000000       0.08324044      -0.01014819      -0.02503477       0.02821391
H       -1.13861421       2.23353437       6.87246073       0.00000000       0.00000000       0.00537372       0.02249174      -0.00922839       0.03087408
H       -3.09277715       0.41762030       7.37982416       0.00000000       0.00000000      -0.03000856      -0.04514097       0.05919543       0.05983865
H       -2.10460887      -0.53946908       6.29498639       0.00000000       0.00000000      -0.07277831      -0.00046723      -0.04997184       0.03464545
H       -2.63974484       2.25024669       5.38997852       0.00000000       0.00000000       0.00098803      -0.04405364      -0.05365199       0.05491336
H       -4.10296235       1.29171271       5.63165302       0.00000000       0.00000000       0.06184486       0.04595446      -0.03412546       0.05227440
H       -1.92408721       0.06719010       3.91944744       0.00000000       0.00000000      -0.05624751       0.04885220       0.02100559       0.06754963
H       -3.68782620      -0.11069861       3.82363935       0.00000000       0.00000000       0.10977622       0.03357614       0.04295230       0.06370312
H       -3.65459141       3.53783925       2.65978039       0.00000000       0.00000000       0.01961294      -0.00129531       0.01958343       0.06651374
H       -4.31665707       2.64115052       4.00945680       0.00000000       0.00000000      -0.05541401       0.06032698       0.01256072       0.09377255
H       -4.83889187       1.42956115       1.32672841       0.00000000       0.00000000       0.04450293      -0.00567829      -0.01837162       0.03614039
H       -5.65407054       2.95339576       1.66483051       0.00000000       0.00000000      -0.07991744       0.05056453      -0.05168708       0.05565487
H       -6.78345108       2.06465730       3.57125138       0.00000000       0.00000000       0.02633264      -0.03431841      -0.01066194       0.05064250
H       -5.86512030       0.55971750       3.52667817       0.00000000       0.00000000      -0.03774803      -0.01971106      -0.03555238       0.03828609
H       -7.57858368       1.49778566       1.19054762       0.00000000       0.00000000       0.02814698      -0.00161687       0.00795167       0.04221609
H       -8.25173571       0.55741219       2.50663624       0.00000000       0.00000000      -0.02072306       0.00283660       0.00516803       0.05523536
H       -7.13742707      -1.38664988       1.92058494       0.00000000       0.00000000       0.03809249      -0.01613275      -0.01555924       0.03917431
H       -5.77870695      -0.54306905       1.19900805       0.00000000       0.00000000      -0.06245686       0.05420037      -0.04622318       0.01054321
H       -7.25981015       0.14016554      -0.71593880       0.00000000       0.00000000       0.00921028      -0.03244499      -0.01083518       0.02654860
H       -8.56829513      -0.80895701      -0.01556138       0.00000000       0.00000000       0.05112944       0.02218033       0.02510187       0.05082192
H       -7.29091594      -2.86681296      -0.22792663       0.00000000       0.00000000       0.03500524      -0.01498274      -0.00353630       0.04415222
H       -5.86310220      -1.99999998      -0.79327066       0.00000000       0.00000000      -0.09229919      -0.01433936      -0.00483772       0.00234716
H       -7.33005087      -1.14781321      -2.74080625       0.00000000       0.00000000      -0.01516462      -0.03005875       0.04005402       0.02600635
H       -8.52734383      -2.33793092      -2.22731406       0.00000000       0.00000000       0.03705174       0.04766867      -0.01343542       0.05000555
H       -5.65612816      -2.97047214      -3.04756808       0.00000000       0.00000000       0.00355551      -0.02533442       0.00104505       0.00356404
H       -7.07042424      -3.12745593      -4.08728942       0.00000000       0.00000000      -0.00837098      -0.01572267       0.06680271       0.04086250
H       -6.57312076      -4.71925517      -1.52204661       0.00000000       0.00000000      -0.02485583      -0.00718903      -0.02182350       0.02690417
H       -8.04562847      -4.79339438      -2.49316467       0.00000000       0.00000000       0.01049616      -0.03290456       0.01398513       0.05139702
H       -6.51538330      -5.33604907      -3.17532273       0.00000000       0.00000000      -0.00710156       0.03196473       0.01046727       0.03760114
H       -1.28903940       3.50421704       1.75866687       0.00000000       0.00000000       0.00773881       0.00342198      -0.05647832       0.07051180
H       -3.77233270       3.35704687       0.61914697       0.00000000       0.00000000       0.05375452      -0.05564858      -0.00003998       0.07632516
H       -2.80113864       2.93615176      -0.78461596       0.00000000       0.00000000      -0.03713562      -0.07433445       0.03141345       0.06424986
H       -2.54046106       4.45905058       0.04545968       0.00000000       0.00000000      -0.03203081      -0.01542359       0.03195060       0.07116464
H        0.23552976       4.17932741       0.29739618       0.00000000       0.00000000       0.03264125       0.02615817      -0.00313240       0.05615617
H       -0.95680881       2.95078520      -2.18821955       0.00000000       0.00000000      -0.01604008      -0.01951605      -0.04728001       0.06727377
H        0.37371163       4.06545909      -2.44383516       0.00000000       0.00000000      -0.04649253       0.02130527      -0.01101079       0.06855695
H       -1.09772239       4.62868499      -1.64559336       0.00000000       0.00000000       0.05863729      -0.00803540      -0.01368476       0.07764945
H        3.17708274       5.51758153      -0.46877265       0.00000000       0.00000000      -0.03657403       0.00970991       0.00654206       0.08298544
H        1.50265783       5.32544801      -0.99474215       0.00000000       0.00000000       0.02283382       0.05780216       0.08252209       0.05851776
H        2.29728115       4.73350519      -3.29299725       0.00000000       0.00000000       0.00182575       0.00821373       0.02651793       0.03767956
H        3.95936127       4.87895455      -2.73910419       0.00000000       0.00000000       0.01910477      -0.02854027       0.03894163       0.05566588
H        3.60835435       6.93645710      -3.73889576       0.00000000       0.00000000      -0.00307448      -0.03410540       0.01529414       0.05684259
H        3.38919614       7.28230587      -2.03298357       0.00000000       0.00000000      -0.01849906      -0.02722770      -0.00906157       0.04404149
H        1.72349991       8.45240830      -3.20457850       0.00000000       0.00000000       0.01112643       0.02044754       0.01918159       0.05038124
H        0.87101926       7.13612008      -2.41930686       0.00000000       0.00000000       0.00116268      -0.00637720      -0.00341773       0.02434636
H        0.38932230       6.08611719      -4.47926286       0.00000000       0.00000000      -0.02224656       0.00930528      -0.01361152       0.01522307
H        1.85201815       6.70747160      -5.24059242       0.00000000       0.00000000      -0.01228584       0.00735981      -0.03790281       0.03634888
H        0.92152270       8.95562848      -5.35298260       0.00000000       0.00000000      -0.00584571       0.00334624       0.00440798       0.03957189
H       -0.54432234       8.44679695      -4.51707148       0.00000000       0.00000000       0.01835638      -0.00690863       0.01868945       0.03201613
H        0.32959385       7.28565692      -7.19344398       0.00000000       0.00000000       0.00880446       0.01172192      -0.00323568       0.03690602
H       -0.70642742       8.70501648      -7.03723436       0.00000000       0.00000000       0.01956347       0.00624486      -0.02017717       0.04365814
H       -2.28141694       7.34862508      -5.63950048       0.00000000       0.00000000      -0.01726066       0.00819847      -0.00301646       0.02822870
H       -1.35225218       5.90534324      -6.04304772       0.00000000       0.00000000      -0.00768263      -0.04564821      -0.01757589       0.01660336
H       -2.73862490       7.73925878      -8.04632111       0.00000000       0.00000000       0.01864126       0.03003232      -0.01933942       0.04066391
H       -3.39728020       6.22912075      -7.43780377       0.00000000       0.00000000      -0.01302747      -0.02305007      -0.01091866       0.02247015
H       -0.86994762       6.53085823      -9.11848948       0.00000000       0.00000000       0.04398006       0.02104822      -0.02379532       0.04267861
H       -2.39812366       5.82971097      -9.62767363       0.00000000       0.00000000      -0.04254892       0.02503472      -0.05524536       0.04117189
H       -1.42217385       5.00899394      -8.41927920       0.00000000       0.00000000       0.03796031      -0.06287206       0.04169822       0.02339943
H        4.48564999       3.06945332      -1.59028815       0.00000000       0.00000000       0.00210182       0.03866259      -0.02748234       0.07743149
H        3.80808061       1.93196467      -0.41201195       0.00000000       0.00000000       0.00736754      -0.01327607       0.02106186       0.08142792
H        4.96058311       4.69987502       0.19294891       0.00000000       0.00000000       0.04274730       0.03336066       0.01250051       0.05497761
H        5.69199671       3.15061550       0.54668624       0.00000000       0.00000000      -0.01063909      -0.04327260      -0.01427488       0.06036770
H        3.65446805       2.59632598       1.96581587       0.00000000       0.00000000      -0.02848331      -0.02334049      -0.01302240       0.03215511
H        3.14627830       4.27573543       1.78650467       0.00000000       0.00000000       0.01302467       0.00889297       0.03154982       0.02266055
H        5.84917739       3.41934290       2.90524812       0.00000000       0.00000000      -0.01962084       0.02106095      -0.00049962       0.03661267
H        4.43127854       3.68582499       3.91471967       0.00000000       0.00000000       0.00473481      -0.04303608       0.01923891       0.03281648
H        5.62941992       5.85314571       2.16118271       0.00000000       0.00000000      -0.01099814       0.07974607      -0.01575293       0.03802887
H        6.07350789       5.57385029       3.83908445       0.00000000       0.00000000      -0.00754604      -0.00781822      -0.02940412       0.04296313
H        3.70960137       5.86075816       4.52900926       0.00000000       0.00000000       0.01662752      -0.01625958       0.03270597       0.02530740
H        3.26998116       6.29493076       2.88882687       0.00000000       0.00000000      -0.00460473       0.02424454      -0.03774573       0.02086195
H        5.56223039       7.87049762       3.88664970       0.00000000       0.00000000       0.01648227       0.02816736       0.00038013       0.04693042
H        4.15020383       8.04600390       4.90452157       0.00000000       0.00000000      -0.01515199       0.00515705       0.03388533       0.03585842
H        4.06888326       9.79407397       3.30371724       0.00000000       0.00000000       0.02054931      -0.01431860      -0.01442062       0.04256412
H        2.77950329       8.66094678       2.92696503       0.00000000       0.00000000       0.00913846      -0.01356351      -0.01450039       0.02120061
H        3.78039026       9.34535355       0.86485079       0.00000000       0.00000000       0.00264679       0.01192189       0.00184615       0.02736096
H        4.25428257       7.67027618       1.12485588       0.00000000       0.00000000       0.00651205      -0.02963303      -0.00660946       0.01291528
H        6.00070073      10.08832902       1.78220794       0.00000000       0.00000000       0.00353041       0.02524466      -0.00328821       0.04548906
H        6.14706093       9.12310918       0.31733773       0.00000000       0.00000000      -0.01212789       0.00206464      -0.03552211       0.03317467
H        6.50419620       8.40500457       1.88078656       0.00000000       0.00000000       0.00525023      -0.02540468       0.03465082       0.03686244
C       -8.40358997      -2.72145615       6.87808488       0.00000000       0.00000000      -0.00102850       0.00786210      -0.00647782      -0.10878792
C       -7.16847412      -2.99646214       6.02990598       0.00000000       0.00000000      -0.00723014       0.01685238       0.02623505      -0.05015956
C       -5.89824615      -2.46427055       6.69368057       0.00000000       0.00000000      -0.03204167       0.02272620       0.03239483      -0.06596920
C       -4.64803164      -2.66240180       5.82152445       0.00000000       0.00000000      -0.00299038      -0.03235003       0.05295495      -0.05950481
C       -3.76359338      -3.81454348       6.30975433       0.00000000       0.00000000       0.05130158      -0.02502145       0.01180537      -0.06656321
C       -2.83706560      -4.36663152       5.22477096       0.00000000       0.00000000      -0.03141407      -0.04908283       0.03217352      -0.06932194
C       -1.75211673      -3.40532325       4.71625866       0.00000000       0.00000000      -0.07439807      -0.08152740       0.03220329      -0.05806367
C       -0.52479138      -3.34962949       5.63346157       0.00000000       0.00000000       0.01451158       0.02417656       0.01268510      -0.06989146
C        0.77922201      -2.84860147       4.97549473       0.00000000       0.00000000       0.08398363       0.01266364      -0.02085242      -0.07068505
C        0.50945324      -1.76009656       3.93882738       0.00000000       0.00000000      -0.01643710      -0.01596348      -0.04347186      -0.01019512
N        1.64722416      -0.97506975       3.45688845       0.00000000       0.00000000       0.02407110      -0.02555581       0.07210318      -0.09503505
C        1.98052089       0.19458967       4.27844716       0.00000000       0.00000000      -0.03812577       0.05811137       0.01905818      -0.00539135
C        1.12450582       1.44282653       4.04666313       0.00000000       0.00000000      -0.02023434       0.07031050       0.01345426      -0.06171183
C        1.61092123       2.58422830       4.94724593       0.00000000       0.00000000       0.01274278       0.00140851       0.00207215      -0.06685911
C        1.15526492       3.96771928       4.48296153       0.00000000       0.00000000      -0.00386620      -0.02546547       0.00380975      -0.06231645
C       -0.35241825       4.20646360       4.53795078       0.00000000       0.00000000       0.02428416      -0.03545327       0.00173503      -0.05524115
C       -0.67531119       5.66265904       4.19744356       0.00000000       0.00000000       0.04386210      -0.01755032       0.00092288      -0.06537220
C       -2.14464816       5.89472328       3.85819213       0.00000000       0.00000000       0.03474381       0.00015740      -0.01175857      -0.05370960
C       -2.47614084       7.38437431       3.79921189       0.00000000       0.00000000       0.00178623       0.00436302       0.00354561      -0.06311836
C       -3.90054794       7.65940465       3.31747414       0.00000000       0.00000000       0.00379831       0.01302026       0.00525774      -0.05419107
C       -4.96985931       7.11671378       4.25741896       0.00000000       0.00000000       0.00231815       0.00206161       0.01547388      -0.10756252
C        2.01959565      -0.92579415       2.16330442       0.00000000       0.00000000      -0.02482284       0.02128149      -0.02296566       0.27116034
O        2.25551343       0.15452712       1.60214744       0.00000000       0.00000000       0.00728807      -0.02694488      -0.02509940      -0.36713570
C        2.36130102      -2.19228002       1.34345828       0.00000000       0.00000000       0.03089031      -0.04438732       0.02020075       0.09171085
C        3.85811529      -2.45579237       1.55731820       0.00000000       0.00000000      -0.02941603       0.01889525       0.01332921      -0.12702473
O        2.02021955      -1.80523264      -0.00640403       0.00000000       0.00000000       0.08931404      -0.05537129       0.03364449      -0.24694042
C        2.40397653      -2.58793480      -1.16099177       0.00000000       0.00000000      -0.07744418      -0.09997891       0.03605084       0.09553434
C        3.21947415      -1.64355652      -2.04406404       0.00000000       0.00000000       0.00517159      -0.04059409       0.05747924      -0.12330128
C        1.08084855      -3.00197364      -1.87011619       0.00000000       0.00000000       0.11446114      -0.10548327      -0.02830900       0.25381441
O        0.08752178      -2.31577600      -1.58742257       0.00000000       0.00000000      -0.10060799       0.11478894      -0.00392666      -0.41348271
N        1.00937013      -4.05486372      -2.69851765       0.00000000       0.00000000       0.09483220       0.00938530       0.04214174      -0.07255881
C        2.17556120      -4.56682773      -3.41335362       0.00000000       0.00000000       0.08362968       0.03866720      -0.05496960      -0.01598573
C        2.38073388      -3.87973926      -4.77916020       0.00000000       0.00000000      -0.00643515       0.00442639       0.08236224      -0.06724064
C        3.33755590      -4.65597967      -5.69357729       0.00000000       0.00000000      -0.07220606       0.03119286       0.05797941      -0.06802944
C        4.81874198      -4.58497155      -5.30490931       0.00000000       0.00000000      -0.04865633      -0.03299983       0.02215735      -0.06668200
C        5.52507869      -3.31473037      -5.78125194       0.00000000       0.00000000      -0.00125817      -0.01429113      -0.00979277      -0.05923282
C        7.01776467      -3.35575521      -5.43815821       0.00000000       0.00000000       0.02189310       0.02701263      -0.01814839      -0.06173088
C        7.88210709      -2.40812218      -6.27517798       0.00000000       0.00000000       0.02525047       0.01506730      -0.00114680      -0.06412609
C        7.71448938      -0.93267957      -5.91809463       0.00000000       0.00000000      -0.04923177      -0.02391857       0.02837076      -0.05846402
C        8.60523516      -0.00443796      -6.74831342       0.00000000       0.00000000      -0.01623785      -0.03820004       0.05061047      -0.05460996
C        8.12793195       0.15912571      -8.18517347       0.00000000       0.00000000      -0.00079876      -0.00358604      -0.00912192      -0.10484476
C       -0.32590433      -4.47136144      -3.17753000       0.00000000       0.00000000       0.07010468       0.05131004       0.03199019      -0.00635567
C       -0.59087867      -5.99411392      -3.26916943       0.00000000       0.00000000       0.05533719       0.08401955      -0.11279069      -0.07138071
C       -1.47776629      -6.51460782      -2.12822877       0.00000000       0.00000000       0.09102563      -0.02638585      -0.04313597      -0.07433836
C       -1.42726849      -8.04475571      -2.00293428       0.00000000       0.00000000      -0.06440571      -0.02343713       0.03703941      -0.07516809
C       -2.15948287      -8.69110226      -0.80928541       0.00000000       0.00000000      -0.03954013      -0.01879450       0.04467273      -0.06898722
C       -1.45056680      -8.67044038       0.56468040       0.00000000       0.00000000       0.03074472      -0.06044173      -0.00042667      -0.07209700
C       -1.14860607     -10.06240525       1.12744252       0.00000000       0.00000000       0.00050020       0.00546527       0.04451371      -0.06150031
C       -0.68105401     -10.01898213       2.59022425       0.00000000       0.00000000      -0.05126519      -0.00739318       0.00222029      -0.06517958
C        0.69633670      -9.39127046       2.84450507       0.00000000       0.00000000      -0.04151904      -0.02713102      -0.01650797      -0.05287709
C        1.83417105     -10.38645954       2.62338684       0.00000000       0.00000000      -0.02455782      -0.01215698       0.00061127      -0.10773458
H       -9.29278488      -3.13777518       6.41341659       0.00000000       0.00000000       0.00007867      -0.01567833      -0.02327242       0.04448921
H       -8.55551144      -1.65056941       6.99973943       0.00000000       0.00000000       0.02142935      -0.02066085       0.01580964       0.03504310
H       -8.29467450      -3.16657715       7.86242080       0.00000000       0.00000000      -0.00100537      -0.00701529       0.03673611       0.04302209
H       -7.29524169      -2.51971909       5.05270627       0.00000000       0.00000000       0.01760978      -0.04552449      -0.00004841       0.02006166
H       -7.06680580      -4.07288000       5.87398094       0.00000000       0.00000000      -0.00613669       0.01808336      -0.03361869       0.03118438
H       -5.76402847      -2.97271121       7.64953023       0.00000000       0.00000000       0.02028279       0.03544779      -0.00234117       0.04433666
H       -6.03792855      -1.40369024       6.91597590       0.00000000       0.00000000      -0.00424976      -0.00474035      -0.04845707       0.02944991
H       -4.07545492      -1.73563736       5.80693580       0.00000000       0.00000000       0.07719115       0.01112520      -0.00500476       0.01795859
H       -4.96477368      -2.86953744       4.79537358       0.00000000       0.00000000       0.00218855      -0.00612721      -0.01835151       0.02215509
H       -4.41184406      -4.63408264       6.62957156       0.00000000       0.00000000       0.04530846       0.04135285      -0.01409289       0.04904691
H       -3.17633761      -3.50625032       7.17411703       0.00000000       0.00000000      -0.04423492       0.07307277       0.04792530       0.03878927
H       -3.48033683      -4.65491422       4.39303006       0.00000000       0.00000000       0.05657056       0.01162962       0.02074764       0.03751563
H       -2.35406733      -5.27453509       5.59456192       0.00000000       0.00000000      -0.03943090       0.02930437      -0.00003395       0.03986283
H       -2.19520300      -2.41434012       4.61070914       0.00000000       0.00000000       0.05361536       0.02814434      -0.03400593       0.02294956
H       -1.44383301      -3.73502962       3.72058201       0.00000000       0.00000000       0.01525762      -0.06204193       0.03334549       0.00918952
H       -0.33881593      -4.35490864       6.01601643       0.00000000       0.00000000       0.03300644       0.06746604       0.04589861       0.05774485
H       -0.75411825      -2.71530255       6.49101130       0.00000000       0.00000000      -0.03368117      -0.03998152      -0.01714698       0.05304857
H        1.31004817      -3.68030714       4.50822967       0.00000000       0.00000000      -0.02538766       0.00790422      -0.03313477       0.03834200
H        1.42412471      -2.45107431       5.75984761       0.00000000       0.00000000       0.05004222      -0.05029623      -0.00607479       0.06147253
H       -0.18021211      -1.03691363       4.38299787       0.00000000       0.00000000       0.02282332       0.00847188       0.03131950       0.07026903
H        0.01389441      -2.19549406       3.07358105       0.00000000       0.00000000      -0.00466912      -0.00922644      -0.09373638       0.07146888
H        3.02749376       0.44470847       4.09047154       0.00000000       0.00000000      -0.02673607      -0.02727596      -0.09347149       0.06916612
H        1.89719346      -0.11442512       5.32186614       0.00000000       0.00000000      -0.01851070      -0.06270452       0.00170526       0.07460967
H        0.07786480       1.23387801       4.28061598       0.00000000       0.00000000       0.05397389      -0.01864546      -0.10537098       0.03985283
H        1.20351822       1.73796010       2.99365425       0.00000000       0.00000000      -0.03663120      -0.01270885       0.05888114       0.05331821
H        2.70280142       2.58529307       4.96334427       0.00000000       0.00000000      -0.01408778      -0.02423942      -0.02173478       0.04410418
H        1.27288015       2.40108199       5.96872476       0.00000000       0.00000000       0.01729389       0.07442309      -0.02601908       0.05135751
H        1.49853057       4.12588370       3.45692233       0.00000000       0.00000000       0.02001144      -0.01609463       0.02666310       0.02865578
H        1.64504623       4.71891570       5.10550426       0.00000000       0.00000000      -0.03751561      -0.03921522       0.01129242       0.05408772
H       -0.72680556       3.98058744       5.53865848       0.00000000       0.00000000       0.03136550       0.02902220      -0.02029714       0.03621702
H       -0.86102426       3.53291301       3.83929944       0.00000000       0.00000000       0.02389105       0.00713728       0.00923926       0.00079382
H       -0.06339619       5.98367918       3.35023820       0.00000000       0.00000000       0.01838219       0.00535748      -0.00342063       0.02573793
H       -0.39743734       6.28653402       5.04648765       0.00000000       0.00000000      -0.00755003       0.02258767       0.00720887       0.04994896
H       -2.77406818       5.40609922       4.60428990       0.00000000       0.00000000       0.03263316       0.02231738      -0.00516829       0.03338412
H       -2.35911432       5.44596232       2.88107348       0.00000000       0.00000000      -0.06509078      -0.02524305       0.01830114       0.00220114
H       -1.76919918       7.88036625       3.12854556       0.00000000       0.00000000      -0.02910843      -0.02535809      -0.02407913       0.03316331
H       -2.33807910       7.82094088       4.78905273       0.00000000       0.00000000      -0.03771587      -0.01634649       0.01517770       0.04545075
H       -4.03705295       7.22967573       2.32034256       0.00000000       0.00000000      -0.00998729       0.01604811      -0.00188370       0.01896728
H       -4.02902882       8.73878534       3.23678986       0.00000000       0.00000000      -0.00611737       0.01975758      -0.04868801       0.04558298
H       -4.94238188       6.03091351       4.30792320       0.00000000       0.00000000      -0.00809165      -0.03203534       0.00482265       0.02182988
H       -5.95848099       7.41180017       3.91781719       0.00000000       0.00000000      -0.00659535       0.02190989      -0.02139525       0.04343944
H       -4.82443644       7.51375599       5.25796877       0.00000000       0.00000000      -0.00230868      -0.00249665       0.02204234       0.04692113
H        1.77244705      -3.05600038       1.66800140       0.00000000       0.00000000       0.03136441      -0.00899280       0.02751335       0.08726533
H        4.44170232      -1.59465712       1.23221667       0.00000000       0.00000000      -0.03639225      -0.07431959      -0.00588160       0.08223469
H        4.19135180      -3.34835691       1.02828754       0.00000000       0.00000000      -0.05994800       0.11166562      -0.04849716       0.07539176
H        4.05287160      -2.62738126       2.61452601       0.00000000       0.00000000      -0.06127294       0.07341304      -0.02163358       0.07706845
H        2.96916157      -3.47346057      -0.86009546       0.00000000       0.00000000       0.09554236       0.03363209       0.00782698       0.07051950
H        2.58521205      -0.81004830      -2.36097959       0.00000000       0.00000000      -0.00875889      -0.00926720       0.06545478       0.08284468
H        3.61835884      -2.14549796      -2.91777793       0.00000000       0.00000000       0.02833200      -0.00087929      -0.01776039       0.08045997
H        4.04884864      -1.24700339      -1.46480985       0.00000000       0.00000000       0.06374910       0.02267831       0.00290277       0.08772377
H        2.06308645      -5.64032205      -3.58384452       0.00000000       0.00000000      -0.07548814       0.08675504       0.01687466       0.08119074
H        3.05582321      -4.42411184      -2.78659961       0.00000000       0.00000000       0.01239711      -0.06358577      -0.05044738       0.05536466
H        2.75730885      -2.86589997      -4.63202189       0.00000000       0.00000000      -0.06810566      -0.02198915      -0.04708188       0.03986279
H        1.41452178      -3.80545642      -5.28389227       0.00000000       0.00000000       0.05424738      -0.02454929       0.03891696       0.04435539
H        3.22851800      -4.26348795      -6.70699283       0.00000000       0.00000000       0.01849345      -0.02364998       0.03130065       0.05621407
H        3.01425168      -5.69862531      -5.71651245       0.00000000       0.00000000       0.04025875      -0.00182703       0.00042909       0.04448755
H        5.32592201      -5.43265516      -5.76730928       0.00000000       0.00000000      -0.01395330      -0.01417494      -0.00218996       0.05145622
H        4.93820681      -4.69517057      -4.22498865       0.00000000       0.00000000      -0.02373276       0.01579496       0.02116927       0.02366578
H        5.05820792      -2.42834680      -5.34510291       0.00000000       0.00000000       0.00994980       0.00078154       0.02446577       0.01497274
H        5.40884062      -3.24523966      -6.86381106       0.00000000       0.00000000       0.02699943       0.01583141      -0.02313902       0.04283576
H        7.37971447      -4.37215865      -5.61053568       0.00000000       0.00000000      -0.02329211       0.02328681      -0.00811502       0.03898155
H        7.16003340      -3.13644655      -4.37630784       0.00000000       0.00000000      -0.00500840      -0.00045875      -0.00836689       0.02490577
H        7.65792568      -2.56106435      -7.33166303       0.00000000       0.00000000      -0.01437240      -0.00768257       0.01915083       0.04120823
H        8.92753754      -2.67812175      -6.11833707       0.00000000       0.00000000       0.02804993      -0.01173195      -0.02131582       0.04069598
H        7.96268773      -0.80245708      -4.86158508       0.00000000       0.00000000       0.01982487      -0.02230350      -0.00425258       0.02636212
H        6.67180848      -0.64088455      -6.05644165       0.00000000       0.00000000      -0.03478005       0.02001080      -0.02930304       0.02476017
H        9.62566753      -0.38948079      -6.74698005       0.00000000       0.00000000       0.01095672      -0.01576073       0.00148578       0.03874182
H        8.63043368       0.97865975      -6.26968662       0.00000000       0.00000000      -0.01898571      -0.00092988      -0.01915516       0.02489923
H        8.16011647      -0.78270236      -8.72297639       0.00000000       0.00000000       0.00660407      -0.06225972       0.00556569       0.03921490
H        8.76437707       0.86181335      -8.71329450       0.00000000       0.00000000       0.02725671       0.04790048      -0.01559074       0.04218926
H        7.10724054       0.53396429      -8.21408731       0.00000000       0.00000000      -0.04067005       0.02120289       0.00992411       0.02725813
H       -0.50065199      -4.00509916      -4.15068110       0.00000000       0.00000000       0.06135385      -0.04425100      -0.04679006       0.05605184
H       -1.03659597      -4.02654282      -2.47710449       0.00000000       0.00000000       0.00471096      -0.00567394      -0.01378231       0.06189755
H        0.34134169      -6.56093572      -3.28005804       0.00000000       0.00000000      -0.05121778       0.10982584       0.05680197       0.05839692
H       -1.07430600      -6.20112712      -4.22266421       0.00000000       0.00000000      -0.02996739       0.01567505      -0.04990718       0.05739345
H       -2.51333905      -6.21172361      -2.30283160       0.00000000       0.00000000       0.05918117       0.06691518       0.02930617       0.02988317
H       -1.11365701      -6.03525598      -1.22641432       0.00000000       0.00000000      -0.00463799      -0.05653841       0.02072094       0.04051217
H       -0.38801306      -8.36358908      -1.98426720       0.00000000       0.00000000      -0.07708130      -0.06655361       0.01097169       0.05845072
H       -1.87824411      -8.45677007      -2.90695740       0.00000000       0.00000000       0.00663724       0.00556384       0.00261274       0.04876416
H       -2.30702141      -9.74000186      -1.07385876       0.00000000       0.00000000      -0.01433040       0.03515544      -0.03866207       0.05306342
H       -3.16150981      -8.26091277      -0.71871591       0.00000000       0.00000000       0.04650719       0.02660952      -0.03284780       0.02567697
H       -2.05160640      -8.14654049       1.30981259       0.00000000       0.00000000      -0.04749206      -0.05474608      -0.05777226       0.02003155
H       -0.49954403      -8.15175341       0.50689838       0.00000000       0.00000000      -0.11613582      -0.04707172      -0.03946294       0.04060903
H       -0.39624565     -10.54339405       0.49801289       0.00000000       0.00000000      -0.08101508      -0.09250875       0.08343125       0.03705651
H       -2.06275071     -10.65825305       1.09641534       0.00000000       0.00000000       0.05924802      -0.06345669      -0.05806337       0.03793119
H       -0.65547339     -11.04062603       2.97637150       0.00000000       0.00000000      -0.05172543       0.06790936      -0.02418876       0.05001495
H       -1.43755619      -9.47187229       3.16240428       0.00000000       0.00000000       0.03290792      -0.03282836       0.00184066       0.02475862
H        0.72971506      -9.04024111       3.87962048       0.00000000       0.00000000       0.02690217      -0.03661888      -0.02711266       0.02648914
H        0.83538717      -8.51232314       2.21106844       0.00000000       0.00000000       0.00404207      -0.04472760      -0.04452356       0.01666577
H        1.87237503     -11.10414201       3.44184130       0.00000000       0.00000000      -0.01706638       0.06072593      -0.07280737       0.04474463
H        2.79626080      -9.87717171       2.57142128       0.00000000       0.00000000      -0.06918723      -0.03731829       0.03330216       0.03030268
H        1.68920963     -10.94348186       1.70026148       0.00000000       0.00000000       0.02641457       0.05579630       0.01188303       0.04339642
