87
Properties=species:S:1:pos:R:3:initial_charges:R:1:initial_magmoms:R:1:forces:R:3:charge:R:1 energy=-3874.966800288306 free_energy=-3874.966800288306 dipole="4.434039239622921 0.8072690635094962 -0.4841809718027164" pbc="F F F"
Pr      -0.31295011       0.11761251      -0.10458805       1.00000000       0.00000000       0.02992998      -0.00191267       0.04853048       0.80379929
C       -0.62215282       2.01960115      -5.17749518       0.00000000       0.00000000       0.02879763      -0.03369428       0.01303912      -0.12120323
C        0.84782128       1.58517846      -5.12625829       0.00000000       0.00000000       0.03385979      -0.07431596       0.00140223       0.02401083
C        1.66236301       2.66066804      -4.38325334       0.00000000       0.00000000      -0.02406622      -0.02346978      -0.01408128      -0.11446176
C        1.40326215       1.33843354      -6.53458267       0.00000000       0.00000000      -0.00492694       0.00851325       0.00060625      -0.07621370
C        2.67809121       0.49784783      -6.54189121       0.00000000       0.00000000      -0.04473275       0.00654541      -0.03824074      -0.07139461
C        2.45830629      -0.90887299      -5.96766157       0.00000000       0.00000000      -0.02748770       0.02822199       0.04347711       0.02308071
C        3.79593180      -1.63940207      -5.80402501       0.00000000       0.00000000      -0.00989630       0.01125109      -0.01480256      -0.11951998
C        1.54871235      -1.75602070      -6.87116900       0.00000000       0.00000000      -0.01042846       0.00626989       0.02637504      -0.11112795
C        1.81146899      -0.75988547      -4.62609063       0.00000000       0.00000000      -0.03074915       0.02876650       0.00532362       0.12163766
N        2.08723612      -1.66490858      -3.70508721       0.00000000       0.00000000      -0.03348101       0.10520861       0.02403104      -0.20830059
C        1.56848427      -1.48699814      -2.49860798       0.00000000       0.00000000       0.02026849      -0.03996462       0.00899095       0.17314449
C        2.06446314      -2.28691422      -1.37005780       0.00000000       0.00000000      -0.00440781      -0.01204075       0.02971807       0.09149993
C        2.90498073      -3.38552377      -1.51864693       0.00000000       0.00000000      -0.05170319      -0.00503940      -0.01477832      -0.02062839
C        3.39481145      -3.98064106      -0.36920150       0.00000000       0.00000000      -0.04350207      -0.07706365       0.07136875       0.00128328
C        3.05913704      -3.46542341       0.87509385       0.00000000       0.00000000      -0.05992704       0.02683681      -0.02380465      -0.02566670
C        2.22085372      -2.35007221       0.93177539       0.00000000       0.00000000      -0.00221350      -0.01879388      -0.05945324       0.09737582
C        1.94733186      -1.54476891       2.14273247       0.00000000       0.00000000       0.06985713       0.10026550       0.03065812       0.09777161
C        2.32065446      -1.86868709       3.44675691       0.00000000       0.00000000       0.02372143      -0.06335931      -0.08110541      -0.02512791
C        2.25649884      -0.88152075       4.41785200       0.00000000       0.00000000      -0.02227793      -0.03124265       0.10027429       0.00270550
C        1.89427448       0.41032861       4.07235550       0.00000000       0.00000000      -0.01332982      -0.02768756      -0.00326162      -0.01946960
C        1.51143383       0.64547954       2.75450588       0.00000000       0.00000000       0.08433032       0.01812100       0.03757732       0.09460864
C        1.43075175       1.99462140       2.15854943       0.00000000       0.00000000       0.00656958      -0.13183685       0.06130884       0.17367858
N        1.02698880       2.06083097       0.88615059       0.00000000       0.00000000      -0.00151695      -0.00190677      -0.05350803      -0.08632227
N        1.22044667       3.18041940       0.22794422       0.00000000       0.00000000       0.06039575       0.01775162       0.04410782      -0.10172619
C        1.87534990       4.18591448       0.78970141       0.00000000       0.00000000      -0.01696413      -0.15752051       0.04964918       0.08713239
C        2.29246381       4.08803208       2.14376304       0.00000000       0.00000000      -0.07209026      -0.01084085      -0.09104685       0.12157660
N        2.00991809       2.98623560       2.81943629       0.00000000       0.00000000       0.05033674       0.02360555      -0.06241559      -0.21487782
C        3.19272717       5.07996521       2.81208806       0.00000000       0.00000000      -0.02985112       0.00118112       0.00118378       0.02351615
C        2.71442830       5.37495555       4.23657892       0.00000000       0.00000000      -0.00672841       0.00594722      -0.00634373      -0.11763553
C        4.55452350       4.36146007       2.90530188       0.00000000       0.00000000      -0.00998459       0.02348678       0.00837243      -0.11016861
C        3.30233218       6.36847517       1.99056390       0.00000000       0.00000000       0.00625575      -0.01377429      -0.01251036      -0.07459448
C        3.41070264       6.09979002       0.49156291       0.00000000       0.00000000      -0.02852577       0.01907664       0.03195938      -0.07155354
C        2.17481216       5.37975075      -0.06965979       0.00000000       0.00000000       0.02962967      -0.02689408       0.04052220       0.02333921
C        0.92574209       6.27518445      -0.04929709       0.00000000       0.00000000       0.00712156      -0.03886556       0.01827012      -0.11354446
C        2.42905073       4.90020902      -1.50333901       0.00000000       0.00000000      -0.01593340       0.00214566       0.03293904      -0.12203316
N        1.49045618      -0.32386998       1.84212519       0.00000000       0.00000000      -0.02233535      -0.00255395      -0.12368062      -0.14275228
N        1.74357066      -1.79018478      -0.18026774       0.00000000       0.00000000      -0.10359656       0.10356438       0.03050920      -0.14235087
N        0.69630545      -0.52486256      -2.18750470       0.00000000       0.00000000       0.01165489       0.12016265      -0.04554708      -0.08875305
N        0.42171073       0.39613229      -3.08654445       0.00000000       0.00000000       0.08219134      -0.06137251       0.05004079      -0.08864937
C        0.99583601       0.35384115      -4.27897686       0.00000000       0.00000000       0.00331060      -0.02840642       0.04666455       0.08942291
H       -0.71171032       2.97110993      -5.69304401       0.00000000       0.00000000       0.02881966       0.00424691      -0.02765011       0.06411940
H       -1.01826771       2.13047181      -4.17082340       0.00000000       0.00000000      -0.01267862      -0.00741952      -0.02817769       0.06732802
H       -1.22491757       1.28511443      -5.70629063       0.00000000       0.00000000       0.00946054      -0.00585625       0.02219728       0.05265027
H        1.63464598       3.60003777      -4.92687006       0.00000000       0.00000000      -0.02992388      -0.00053165      -0.03239702       0.06753596
H        2.70128224       2.35608662      -4.27080938       0.00000000       0.00000000      -0.01141839       0.03695396       0.01348200       0.03837779
H        1.23032282       2.80929033      -3.39568162       0.00000000       0.00000000       0.05206475       0.01147950      -0.00003956       0.05542343
H        1.60706399       2.30059802      -7.00235408       0.00000000       0.00000000      -0.00153815       0.04015505      -0.03420447       0.06013683
H        0.64304033       0.83987815      -7.13574674       0.00000000       0.00000000      -0.00786303       0.01789725      -0.02273023       0.05616295
H        3.46181193       0.99267222      -5.96420982       0.00000000       0.00000000      -0.02457680       0.02798589      -0.00784672       0.04213477
H        3.03647520       0.40560124      -7.56616716       0.00000000       0.00000000       0.02043569       0.00122868      -0.04609158       0.06129809
H        4.31489303      -1.67279006      -6.75667593       0.00000000       0.00000000       0.00257401      -0.00059959      -0.03533345       0.06174661
H        3.62794675      -2.65508347      -5.46025957       0.00000000       0.00000000       0.02261392       0.00436185       0.00103775       0.06376983
H        4.42913183      -1.13199464      -5.08013178       0.00000000       0.00000000       0.00369847       0.01399162      -0.01073080       0.04137944
H        1.99917220      -1.83352448      -7.85661176       0.00000000       0.00000000       0.00131880      -0.00998378      -0.01313271       0.06683775
H        0.55956022      -1.31972878      -6.97580469       0.00000000       0.00000000      -0.01265415      -0.01732793       0.03004347       0.04973206
H        1.44609362      -2.75572254      -6.45630115       0.00000000       0.00000000      -0.03676955       0.01628340      -0.00917849       0.05703284
H        3.16427178      -3.73228533      -2.50236895       0.00000000       0.00000000       0.01357955      -0.06272197      -0.07507230       0.09696601
H        4.04418142      -4.83762486      -0.43922654       0.00000000       0.00000000       0.05484374      -0.04356691       0.00657616       0.08699316
H        3.47288945      -3.90518316       1.76572209       0.00000000       0.00000000      -0.03138299      -0.02428636       0.07670875       0.08036017
H        2.68562765      -2.85199205       3.69552504       0.00000000       0.00000000      -0.03933549      -0.01549118      -0.00204476       0.08262761
H        2.55038457      -1.10666392       5.43039446       0.00000000       0.00000000      -0.01392818      -0.01507568       0.05733757       0.08864617
H        1.93973169       1.21796097       4.78057833       0.00000000       0.00000000      -0.05216714       0.06840972       0.04459184       0.09809213
H        2.64331736       4.45074813       4.80165212       0.00000000       0.00000000      -0.04003427       0.00582217       0.01449129       0.06191219
H        1.74130891       5.85938599       4.23286418       0.00000000       0.00000000      -0.00569606      -0.01111216      -0.02251427       0.04939298
H        3.42565396       6.03159044       4.72983430       0.00000000       0.00000000      -0.01083712       0.01950093      -0.00423755       0.06131796
H        4.44868926       3.47221378       3.52271653       0.00000000       0.00000000       0.05764404       0.00544564      -0.04291874       0.05492046
H        5.28151149       5.02550121       3.36378917       0.00000000       0.00000000       0.01633397       0.00108869      -0.00140372       0.06751437
H        4.91966179       4.06638724       1.92343522       0.00000000       0.00000000       0.00303257       0.00488110       0.03946962       0.03878489
H        4.18416648       6.91602327       2.32425074       0.00000000       0.00000000       0.00163791       0.03236282      -0.01295658       0.05802031
H        2.43541571       6.99979367       2.18759661       0.00000000       0.00000000      -0.00197472      -0.00422111       0.00328652       0.05397395
H        4.29791059       5.49383912       0.29480722       0.00000000       0.00000000      -0.02442979      -0.00631026      -0.02429219       0.04187829
H        3.54356218       7.04560751      -0.03256386       0.00000000       0.00000000      -0.03734928       0.02556137      -0.03268887       0.05927085
H        0.67436898       6.58372486       0.96287925       0.00000000       0.00000000      -0.00975251      -0.01195987      -0.04166658       0.04832029
H        0.08233838       5.72484029      -0.46045948       0.00000000       0.00000000      -0.00855308       0.04982059       0.02216816       0.06082030
H        1.09512269       7.16326421      -0.65096254       0.00000000       0.00000000       0.01650168       0.00073620      -0.01991176       0.06475531
H        3.22567326       4.15834963      -1.52583972       0.00000000       0.00000000      -0.00842143       0.03104132       0.00155742       0.03539492
H        2.71117276       5.72805475      -2.14533635       0.00000000       0.00000000      -0.00204930       0.08192509       0.03776060       0.06087135
H        1.52306793       4.44682132      -1.89125541       0.00000000       0.00000000       0.01617164       0.00381570      -0.03953803       0.06325728
N       -1.91979781      -1.48787124       0.66184781       0.00000000       0.00000000       0.04350758       0.08773803       0.00842912       0.79791036
O       -3.04526822      -1.85622260       0.65566032       0.00000000       0.00000000      -0.08084747       0.01537406       0.03220417      -0.37910705
O       -1.07191365      -1.93481027      -0.12380965       0.00000000       0.00000000       0.05505063      -0.02853803      -0.04930282      -0.44798965
O       -1.50886462      -0.64158027       1.48349328       0.00000000       0.00000000      -0.00723329       0.03378387       0.00724552      -0.46983009
N       -2.22692743       1.59199403      -0.94027710       0.00000000       0.00000000      -0.00101591       0.16359057      -0.01338597       0.79412137
O       -2.92336134       2.37144170      -1.50834899       0.00000000       0.00000000       0.08086809      -0.15136592       0.02081464      -0.38786720
O       -2.07113304       0.42450370      -1.33988358       0.00000000       0.00000000       0.07364922      -0.15996206      -0.06047539      -0.44684038
O       -1.59366762       1.90928070       0.08403547       0.00000000       0.00000000       0.08104996      -0.00351710       0.05820083      -0.44166185
