160
Properties=species:S:1:pos:R:3:initial_charges:R:1:initial_magmoms:R:1:forces:R:3:charge:R:1 energy=-5610.168446507841 free_energy=-5610.168446507841 dipole="-0.6064409758971534 0.20758518399936532 0.790457228237604" pbc="F F F"
Pr       0.00664841       0.09322368      -0.01078840       3.00000000       0.00000000      -0.04108669      -0.05591250      -0.02178321       0.85058197
C       -3.42140378      -0.14017526       4.88571216       0.00000000       0.00000000      -0.01518054      -0.02100536       0.00101203      -0.11409663
C       -3.94973279       1.27944987       5.07404451       0.00000000       0.00000000       0.08489720      -0.07631953      -0.00471534      -0.07052655
C       -3.85568102       2.12913468       3.79569514       0.00000000       0.00000000      -0.03134206      -0.12571490       0.04637580      -0.02683095
N       -2.52034600       2.09900145       3.21255681       0.00000000       0.00000000      -0.05653052       0.02098820       0.04987462      -0.03895430
C       -1.51930047       2.98112299       3.82752036       0.00000000       0.00000000      -0.03005543      -0.03765562      -0.11426810      -0.01669695
C       -0.63061258       2.38411128       4.92214499       0.00000000       0.00000000      -0.02537037      -0.01277773      -0.02579053      -0.06748030
C        0.51505222       1.54599765       4.37102242       0.00000000       0.00000000       0.00626588      -0.02180635       0.00868403      -0.10690579
C       -2.16626353       1.31493609       2.20048808       0.00000000       0.00000000       0.00169771       0.06170226       0.03294054       0.25670654
O       -0.98207242       1.16825481       1.84049938       0.00000000       0.00000000      -0.03122094       0.07841986      -0.04082199      -0.36819107
C       -3.22764234       0.58005671       1.34652453       0.00000000       0.00000000       0.05183964       0.09924649       0.02902670       0.03907591
O       -2.60160455       0.26613101       0.10061524       0.00000000       0.00000000      -0.08126084       0.06590603       0.07644527      -0.23509342
C       -3.26447169       0.72359922      -1.07535192       0.00000000       0.00000000      -0.01602708       0.05662775       0.00222013       0.04501296
C       -2.22011334       1.37152028      -2.00806288       0.00000000       0.00000000      -0.09244579       0.12071237       0.05073741       0.26064641
O       -1.01808881       1.09410444      -1.83659116       0.00000000       0.00000000       0.00871737      -0.01071027       0.08777006      -0.37459644
N       -2.62685232       2.28122011      -2.88761863       0.00000000       0.00000000      -0.00197462      -0.00854530      -0.01063227      -0.04489570
C       -4.01526472       2.48795290      -3.26204742       0.00000000       0.00000000      -0.10521184      -0.06820196      -0.06449266      -0.02649737
C       -4.61473673       1.31911000      -4.05276158       0.00000000       0.00000000      -0.01978440      -0.04260529      -0.05373437      -0.07167809
C       -4.11021361       1.19949885      -5.48760729       0.00000000       0.00000000      -0.03969515       0.00340031       0.01954529      -0.12035529
C       -1.66468435       3.22374890      -3.45183616       0.00000000       0.00000000       0.07688731       0.00706125      -0.03094315      -0.00976704
C       -1.26389726       2.98004754      -4.90687774       0.00000000       0.00000000       0.02287439      -0.01961434       0.03631578      -0.07241036
C       -0.42972700       1.71144221      -5.04664406       0.00000000       0.00000000      -0.04550017       0.04058425      -0.00618260      -0.10742078
H       -3.46246241      -0.67134821       5.83254652       0.00000000       0.00000000      -0.02824041       0.00861864      -0.00399092       0.06859485
H       -4.02467605      -0.68943056       4.16581601       0.00000000       0.00000000      -0.04128701       0.01550292       0.01384935       0.02927384
H       -2.38605580      -0.14349061       4.54536577       0.00000000       0.00000000      -0.04467902       0.02987598      -0.00468321       0.03100021
H       -4.99731269       1.23382207       5.38319550       0.00000000       0.00000000       0.12773224       0.07407751      -0.04964405       0.07591797
H       -3.38773839       1.76791729       5.86963348       0.00000000       0.00000000      -0.06641508      -0.00204412       0.03000891       0.06687166
H       -4.57740419       1.75771221       3.07226693       0.00000000       0.00000000      -0.04982072      -0.01719804      -0.03008861       0.05771910
H       -4.12525617       3.16201671       4.03916432       0.00000000       0.00000000       0.11123080      -0.07432004      -0.06608256       0.08417082
H       -0.87384983       3.32736476       3.01973317       0.00000000       0.00000000       0.08170462       0.03677587      -0.09597124       0.07411203
H       -2.05953542       3.83593105       4.23618933       0.00000000       0.00000000      -0.05083274      -0.04178845      -0.01409384       0.07901247
H       -0.20945616       3.21861607       5.48347823       0.00000000       0.00000000      -0.00292040       0.03937372      -0.01304856       0.06950079
H       -1.22679247       1.79859614       5.61772422       0.00000000       0.00000000       0.01185550      -0.05417455       0.02651130       0.06438791
H        1.06178974       2.10496857       3.61470319       0.00000000       0.00000000      -0.00450115       0.00913031      -0.02267713       0.04640052
H        1.20351639       1.28674628       5.16931190       0.00000000       0.00000000       0.00116902      -0.02956689       0.07062196       0.05356852
H        0.14653320       0.63249013       3.90948442       0.00000000       0.00000000      -0.01064245      -0.03644827      -0.01330461       0.03634771
H       -3.52699560      -0.36211357       1.82352046       0.00000000       0.00000000       0.02919374       0.09768943       0.09129143       0.09663591
H       -4.12004788       1.19288749       1.19418706       0.00000000       0.00000000       0.03646737       0.05016164      -0.02122224       0.07908634
H       -3.75988774      -0.13275871      -1.54508604       0.00000000       0.00000000       0.04289365      -0.02463122      -0.13029416       0.09307016
H       -4.03444044       1.45561464      -0.82118928       0.00000000       0.00000000      -0.02867753       0.11367844      -0.00740103       0.07507110
H       -4.61932386       2.65945280      -2.36716803       0.00000000       0.00000000      -0.03764730       0.05758932       0.02292774       0.05213966
H       -4.05765980       3.39152635      -3.87044339       0.00000000       0.00000000      -0.03119429      -0.02427329      -0.00805865       0.09412748
H       -5.69780184       1.45195020      -4.07167978       0.00000000       0.00000000       0.03176387       0.04614485      -0.00034679       0.06831620
H       -4.40208599       0.38797089      -3.53200666       0.00000000       0.00000000      -0.04366973       0.03681953       0.00971184       0.03918486
H       -3.06079493       0.91999508      -5.52560451       0.00000000       0.00000000      -0.07433058      -0.01293927       0.03380804       0.05075374
H       -4.67615844       0.43027203      -6.00667690       0.00000000       0.00000000      -0.00379848       0.02299645      -0.00360356       0.06147787
H       -4.25064884       2.13350640      -6.02541134       0.00000000       0.00000000      -0.03832544      -0.02512312      -0.01435947       0.05645414
H       -2.11399128       4.21754458      -3.35849007       0.00000000       0.00000000       0.03295184      -0.02939850       0.00431265       0.06856805
H       -0.77486367       3.17397864      -2.82205152       0.00000000       0.00000000       0.04370768      -0.04382714       0.04184625       0.06735932
H       -2.15030700       2.93695439      -5.53864970       0.00000000       0.00000000       0.06990034      -0.03350895       0.04557410       0.07060863
H       -0.67869750       3.84083192      -5.23778661       0.00000000       0.00000000      -0.03283645      -0.06043097      -0.00650366       0.06462150
H       -0.95668596       0.85406982      -4.63084918       0.00000000       0.00000000       0.05579554      -0.00065528      -0.01644237       0.03952765
H       -0.21384708       1.51324587      -6.09270641       0.00000000       0.00000000       0.01624257       0.00466986       0.02646391       0.06293024
H        0.51291812       1.82036772      -4.51046873       0.00000000       0.00000000      -0.04661895      -0.04689038      -0.05429395       0.03192235
C        1.68091765       5.04445358      -3.96568790       0.00000000       0.00000000      -0.00464719      -0.00005583       0.02426062      -0.11769098
C        2.29537493       5.82254575      -2.80823092       0.00000000       0.00000000      -0.03852384      -0.02170687      -0.03458354      -0.07041178
C        2.75388575       4.89698776      -1.67688505       0.00000000       0.00000000       0.01486666       0.04130334      -0.05931076      -0.02511423
N        1.67446069       4.22931360      -0.95434645       0.00000000       0.00000000      -0.00557210       0.01656590      -0.01869639      -0.05165328
C        0.84147078       5.07551944      -0.09346327       0.00000000       0.00000000       0.01096706      -0.01922886       0.02835172      -0.01691381
C       -0.55019882       5.42000692      -0.64926558       0.00000000       0.00000000       0.01634957      -0.01627530       0.01511128      -0.06664032
C       -1.63473293       4.47499384      -0.13253655       0.00000000       0.00000000       0.02799202      -0.01176680      -0.01936073      -0.11129588
C        1.52066636       2.91236730      -0.87952573       0.00000000       0.00000000       0.01676560      -0.00126154      -0.02473447       0.25508726
O        0.67513050       2.37689472      -0.14075918       0.00000000       0.00000000       0.02398299      -0.02350427      -0.00110836      -0.37567241
C        2.38387201       1.99195748      -1.76179167       0.00000000       0.00000000      -0.02645793      -0.01523407       0.05076329       0.04216925
O        2.10405326       0.62248778      -1.46843927       0.00000000       0.00000000      -0.03632788      -0.03407234       0.03986084      -0.21907534
C        3.16624247      -0.07560020      -0.82125316       0.00000000       0.00000000       0.01389488      -0.00810307       0.04443235       0.03646705
C        3.12810874       0.15574220       0.70122965       0.00000000       0.00000000       0.03082731       0.00325956       0.03146392       0.25346386
O        2.00532533       0.26359650       1.23737126       0.00000000       0.00000000      -0.00699377       0.06790218      -0.05102327      -0.38694631
N        4.26021219       0.25056244       1.38984119       0.00000000       0.00000000       0.04422166      -0.02026595       0.04370813      -0.04837745
C        5.59074585       0.05410611       0.81812469       0.00000000       0.00000000       0.04756719      -0.04983610      -0.03118887      -0.02731009
C        5.90510830      -1.36220080       0.31421401       0.00000000       0.00000000       0.00458153      -0.04675662       0.02444919      -0.06982202
C        6.08113164      -2.37423566       1.44101467       0.00000000       0.00000000       0.00841427       0.00983975       0.00447455      -0.12032237
C        4.20762193       0.73696311       2.77327631       0.00000000       0.00000000      -0.02387866      -0.00857548       0.04069152      -0.01889822
C        4.47267304      -0.31804321       3.84716825       0.00000000       0.00000000      -0.01308299      -0.02061855      -0.01332688      -0.06939572
C        3.33586823      -1.32706700       3.95937485       0.00000000       0.00000000       0.02450312       0.00905931      -0.01600950      -0.11100313
H        1.35914125       5.72436399      -4.74974831       0.00000000       0.00000000       0.01558709       0.00582990       0.03980337       0.06651860
H        2.40223241       4.35391210      -4.39904270       0.00000000       0.00000000       0.01232855       0.04799879       0.01155070       0.04316839
H        0.81914942       4.47705395      -3.62484511       0.00000000       0.00000000       0.00812728       0.01116551       0.00039800       0.02961998
H        3.17673259       6.35679686      -3.16727017       0.00000000       0.00000000      -0.04097353      -0.00392520       0.04366174       0.07560016
H        1.59012130       6.56537225      -2.43599342       0.00000000       0.00000000      -0.00197214      -0.02860214       0.01000411       0.06380027
H        3.41550662       4.15525644      -2.11598164       0.00000000       0.00000000       0.04483394      -0.02911199       0.03386896       0.05928519
H        3.33399821       5.47824604      -0.95411017       0.00000000       0.00000000      -0.05028752       0.01547018       0.04688677       0.07639223
H        0.70284983       4.54798885       0.85186908       0.00000000       0.00000000       0.07343341      -0.03433390       0.08456129       0.07608322
H        1.40383814       5.98790206       0.09327739       0.00000000       0.00000000       0.02604862       0.04204359      -0.02165907       0.08041223
H       -0.80560266       6.42942617      -0.32623382       0.00000000       0.00000000       0.02980294       0.02719921      -0.01677625       0.06989956
H       -0.52534071       5.42561318      -1.73844453       0.00000000       0.00000000      -0.00659466      -0.04015656       0.01160279       0.05529835
H       -1.72312711       4.57739838       0.94722104       0.00000000       0.00000000      -0.01456850       0.00995058      -0.01564682       0.04354684
H       -2.59893648       4.71846240      -0.57209753       0.00000000       0.00000000       0.02135398       0.03973985      -0.03046650       0.04384198
H       -1.39238413       3.43701734      -0.35575844       0.00000000       0.00000000       0.00412154      -0.03375188       0.00793878       0.04413666
H        2.11768933       2.16611720      -2.81283162       0.00000000       0.00000000      -0.00091262      -0.05584728       0.00442894       0.10468885
H        3.45006118       2.18836964      -1.62578203       0.00000000       0.00000000       0.02838665       0.03702314       0.00870818       0.07590965
H        2.96277569      -1.13434975      -1.02205825       0.00000000       0.00000000       0.01367600      -0.04558595       0.00081019       0.12843644
H        4.13159261       0.19695265      -1.25457067       0.00000000       0.00000000       0.00234174       0.05045574      -0.07824717       0.08163175
H        5.74627306       0.76902276       0.00502292       0.00000000       0.00000000       0.01277640       0.04309081      -0.02114124       0.05564077
H        6.31249834       0.29101248       1.59994763       0.00000000       0.00000000      -0.01767475       0.03159921       0.01478586       0.09779151
H        5.13976315      -1.71446712      -0.37903258       0.00000000       0.00000000      -0.01047667       0.03012861       0.02815588       0.03097288
H        6.83987410      -1.30634934      -0.24634858       0.00000000       0.00000000      -0.00876484       0.04646597       0.03202389       0.07588205
H        5.17595779      -2.46395000       2.03555154       0.00000000       0.00000000       0.01787286      -0.01683600      -0.00192375       0.03822064
H        6.32431465      -3.35096698       1.03134438       0.00000000       0.00000000      -0.00787865       0.02000564      -0.01496999       0.06114131
H        6.89911981      -2.08118389       2.09307397       0.00000000       0.00000000       0.01275499       0.01010671      -0.00033257       0.06204716
H        4.94485464       1.53787346       2.86622509       0.00000000       0.00000000       0.01540342      -0.00671553      -0.04043977       0.07399285
H        3.21414269       1.15724920       2.93061978       0.00000000       0.00000000      -0.06941433       0.01628621      -0.03167538       0.08267304
H        5.41266922      -0.82980292       3.64560312       0.00000000       0.00000000      -0.00564853      -0.00287258       0.00318659       0.06739370
H        4.58165575       0.19612238       4.80331148       0.00000000       0.00000000       0.01096146       0.02822742      -0.05832691       0.07187318
H        3.14725316      -1.80241823       2.99850078       0.00000000       0.00000000       0.00918448       0.00964477      -0.00831071       0.01827930
H        3.58827605      -2.09262701       4.68792190       0.00000000       0.00000000      -0.00230835       0.00715293      -0.00884393       0.05934980
H        2.42209589      -0.83283723       4.28201438       0.00000000       0.00000000       0.03081827       0.00800994       0.00067095       0.03967846
C       -0.06005239      -5.95848488       2.54050907       0.00000000       0.00000000      -0.00171441       0.01607124      -0.00423998      -0.10913199
C        1.43898283      -5.87735032       2.81083624       0.00000000       0.00000000      -0.07332866      -0.03651648      -0.02093712      -0.07226759
C        1.97825360      -4.44414723       2.86632983       0.00000000       0.00000000      -0.06497323      -0.08493476       0.05161032      -0.02323309
N        1.91369545      -3.75033199       1.58582475       0.00000000       0.00000000       0.05971794      -0.01328166      -0.00487864      -0.04920477
C        2.96696194      -4.10081905       0.62914043       0.00000000       0.00000000      -0.00126148      -0.01786369      -0.07954105      -0.01253377
C        2.47664898      -4.56460295      -0.74457796       0.00000000       0.00000000      -0.02044997      -0.02252946      -0.04319492      -0.06456760
C        1.87840238      -5.96537341      -0.75203860       0.00000000       0.00000000      -0.00501223       0.00923262      -0.01155568      -0.11575617
C        1.12656216      -2.72355237       1.30370987       0.00000000       0.00000000       0.01566601      -0.01238535       0.00671218       0.25272836
O        1.20495461      -2.08476213       0.23399152       0.00000000       0.00000000      -0.03120197       0.05002572       0.04786033      -0.40205090
C        0.07289111      -2.23325726       2.30603047       0.00000000       0.00000000       0.01716487       0.00411536      -0.00050287       0.03794678
O       -1.02970059      -1.68222448       1.59365515       0.00000000       0.00000000       0.02379787       0.03860680      -0.00658560      -0.22990535
C       -1.89039703      -2.68509304       1.05257116       0.00000000       0.00000000       0.03898484       0.00355124      -0.00090771       0.03734014
C       -2.01314921      -2.56151981      -0.47871979       0.00000000       0.00000000       0.03123318      -0.06614652       0.02351394       0.25777589
O       -1.27833972      -1.76461971      -1.08571291       0.00000000       0.00000000       0.00674443       0.00425454       0.05328625      -0.37661128
N       -2.87148479      -3.38373200      -1.07506565       0.00000000       0.00000000      -0.01660601      -0.02149489      -0.01494213      -0.05267700
C       -3.73581414      -4.30542828      -0.34539454       0.00000000       0.00000000      -0.09071487       0.01135281       0.04450199      -0.02713406
C       -5.17631324      -3.80278176      -0.17749627       0.00000000       0.00000000      -0.04080773       0.04243367       0.00970991      -0.07532816
C       -5.31497065      -2.46603785       0.54896912       0.00000000       0.00000000       0.00544469      -0.02968212      -0.00169885      -0.11155114
C       -2.85067620      -3.51785250      -2.53541131       0.00000000       0.00000000       0.02574051       0.02667328      -0.01597213      -0.01486154
C       -3.45374773      -2.37373983      -3.35376821       0.00000000       0.00000000       0.01134262       0.00853800      -0.00682579      -0.06231957
C       -4.96299820      -2.20171322      -3.21564627       0.00000000       0.00000000       0.01841314      -0.00936595      -0.02258232      -0.11847658
H       -0.36939622      -6.99964201       2.49436036       0.00000000       0.00000000       0.03133927       0.02883752       0.01325098       0.07079221
H       -0.31209622      -5.49672479       1.58521562       0.00000000       0.00000000       0.01713256       0.00934497       0.01306222       0.01866167
H       -0.63328117      -5.47852548       3.33206716       0.00000000       0.00000000       0.03698050       0.00616386       0.00785325       0.03694618
H        1.97322481      -6.43697572       2.04390852       0.00000000       0.00000000      -0.00741795      -0.01921550       0.02825614       0.07142476
H        1.64813784      -6.34660176       3.77308789       0.00000000       0.00000000       0.02307900       0.02015882      -0.04017057       0.07590896
H        3.02902905      -4.48059411       3.16759608       0.00000000       0.00000000      -0.01380956       0.01176962      -0.01921903       0.07969139
H        1.44580498      -3.87965599       3.62653418       0.00000000       0.00000000      -0.02850037       0.05763461       0.05910719       0.05998003
H        3.57255130      -4.88601599       1.08079073       0.00000000       0.00000000      -0.00702987       0.01195522      -0.03576512       0.08441889
H        3.59077712      -3.21276625       0.49494514       0.00000000       0.00000000      -0.00368185       0.00756781      -0.02093803       0.05536674
H        3.34228549      -4.55511891      -1.40824850       0.00000000       0.00000000       0.02633321      -0.01220458       0.00299326       0.06016732
H        1.75451650      -3.84743918      -1.13804958       0.00000000       0.00000000      -0.01477675      -0.00755456      -0.00739634       0.05184374
H        2.57825760      -6.69065786      -0.34477759       0.00000000       0.00000000       0.00950751       0.01877593       0.00103118       0.05554341
H        1.65982821      -6.26030185      -1.77406816       0.00000000       0.00000000      -0.02036743      -0.00756942      -0.01284306       0.05920118
H        0.95375813      -6.01096734      -0.18407333       0.00000000       0.00000000       0.00296030      -0.00568077       0.00320102       0.03825101
H        0.51234340      -1.39684345       2.86429775       0.00000000       0.00000000       0.01950496       0.03822007       0.03060792       0.11849190
H       -0.26952284      -3.00084927       3.00316378       0.00000000       0.00000000      -0.06847070      -0.04017664      -0.00271386       0.08176808
H       -2.86311815      -2.60565916       1.54575059       0.00000000       0.00000000      -0.00789812       0.06772819      -0.01354204       0.09045073
H       -1.47560221      -3.67594590       1.25977063       0.00000000       0.00000000       0.00167624      -0.07046426       0.01193098       0.07935410
H       -3.31901851      -4.52700383       0.63349397       0.00000000       0.00000000       0.04640527      -0.03715129       0.02290605       0.05571764
H       -3.76571061      -5.24706319      -0.89878793       0.00000000       0.00000000      -0.00581463       0.03030267      -0.00280064       0.08450601
H       -5.72043419      -4.56357146       0.38358375       0.00000000       0.00000000      -0.00146352       0.00273090      -0.06187901       0.07518434
H       -5.63791653      -3.71973159      -1.15866105       0.00000000       0.00000000      -0.03847339      -0.04424534       0.01837875       0.07324120
H       -5.05806330      -2.55635290       1.60336103       0.00000000       0.00000000      -0.00112050      -0.04591196      -0.01110643       0.03262547
H       -6.34949240      -2.13457081       0.49559524       0.00000000       0.00000000       0.02250637      -0.02788925       0.00120001       0.06573018
H       -4.69003642      -1.69771571       0.09445496       0.00000000       0.00000000       0.00721102      -0.06093888      -0.01529229       0.02175267
H       -3.37092803      -4.44308073      -2.78343979       0.00000000       0.00000000       0.00284976       0.03160245      -0.00642760       0.08239601
H       -1.80450515      -3.61607148      -2.83540599       0.00000000       0.00000000       0.06469462       0.00240424       0.01475646       0.07136923
H       -3.23635194      -2.61149965      -4.39601401       0.00000000       0.00000000       0.01075926      -0.01706129      -0.01535023       0.06873909
H       -2.92533715      -1.44568407      -3.12522779       0.00000000       0.00000000       0.02177603      -0.01923277       0.05104941       0.03776716
H       -5.46899260      -3.15596229      -3.33296947       0.00000000       0.00000000       0.02536653      -0.02567128      -0.01889540       0.05988280
H       -5.32948701      -1.55047255      -4.00330568       0.00000000       0.00000000      -0.03608771      -0.00364580      -0.02064657       0.05908905
H       -5.25020795      -1.76886751      -2.25993836       0.00000000       0.00000000       0.01819823      -0.03142737       0.00165943       0.03334486
