361
Properties=species:S:1:pos:R:3:initial_charges:R:1:initial_magmoms:R:1:forces:R:3:charge:R:1 energy=-11600.434896737399 free_energy=-11600.434896737399 dipole="0.5959029749650071 -1.1191101825771725 -1.0906089025796444" pbc="F F F"
Pr      -0.19218802      -0.06420486       0.05787505       3.00000000       0.00000000      -0.05044830      -0.00974402      -0.02083819       0.84389120
C        2.41436957      -4.64084738       6.97565274       0.00000000       0.00000000      -0.00154592      -0.01547019      -0.01162305      -0.10306745
C        2.56143303      -3.51311210       7.99105493       0.00000000       0.00000000      -0.00305174      -0.03357488      -0.01821370      -0.06070148
C        2.90134412      -2.17937519       7.32747895       0.00000000       0.00000000      -0.01644818      -0.03014036      -0.00253054      -0.05413026
C        2.85963232      -1.02921889       8.32846829       0.00000000       0.00000000       0.00639788       0.00095251      -0.00106417      -0.06508093
C        3.35018439       0.30478113       7.76164477       0.00000000       0.00000000       0.00740183       0.03397450      -0.02725896      -0.06764305
C        2.47533538       0.91315134       6.64696610       0.00000000       0.00000000      -0.01580998       0.00989736      -0.07563833      -0.06052552
C        3.14806677       0.80066281       5.26999453       0.00000000       0.00000000       0.01359179       0.03794126      -0.05942534      -0.06723040
C        2.27897170       1.25480939       4.07918812       0.00000000       0.00000000       0.00485643       0.12058590       0.07980817      -0.11469260
P        2.09114581       0.17793150       2.56574491       0.00000000       0.00000000       0.05944832       0.12577538      -0.06706451       0.31875808
O        1.09334795       0.84505622       1.66936446       0.00000000       0.00000000      -0.00744354      -0.00747230      -0.00641734      -0.40934830
C        3.84548595       0.37109159       1.77004420       0.00000000       0.00000000      -0.02264309       0.00499764       0.11682728      -0.09780480
C        4.21368995      -0.06792193       0.34244128       0.00000000       0.00000000       0.00780071       0.08499441       0.07082470      -0.07422901
C        5.71668880      -0.06413120      -0.07717775       0.00000000       0.00000000       0.00647781       0.01889201      -0.01391483      -0.07859515
C        6.68187776      -1.31231030      -0.05298779       0.00000000       0.00000000       0.03900565      -0.02623998      -0.05435915      -0.08057654
C        6.26256857      -2.79305446      -0.30206964       0.00000000       0.00000000       0.11788699       0.06859465      -0.05530372      -0.08624301
C        6.86355467      -3.60231070      -1.47106994       0.00000000       0.00000000       0.06122733      -0.02013409       0.03373297      -0.07231381
C        6.66095525      -5.10039931      -1.18193905       0.00000000       0.00000000       0.02572286       0.01142995      -0.00619963      -0.05786798
C        6.52545836      -5.92089780      -2.45855097       0.00000000       0.00000000      -0.00724222      -0.00125575       0.00139631      -0.10985962
C        1.31835208      -1.29664451       3.54859449       0.00000000       0.00000000       0.05488879      -0.02173539      -0.04689737      -0.09255724
C       -0.14220208      -1.39613195       3.84075380       0.00000000       0.00000000      -0.09871620       0.06849326       0.01726128       0.04044724
C       -0.59203225      -1.44714754       5.15061936       0.00000000       0.00000000       0.02836292       0.01475974       0.10559483      -0.04197299
C       -1.86366747      -1.89447370       5.45905660       0.00000000       0.00000000       0.00742439       0.02069854       0.01093611      -0.02044712
C       -2.69207333      -2.28492907       4.42377874       0.00000000       0.00000000      -0.02665115       0.00726533      -0.02148158      -0.04236501
C       -2.26163879      -2.15830654       3.11512855       0.00000000       0.00000000      -0.01498965      -0.08436107      -0.07388644       0.03602511
C       -3.08710190      -2.55793011       1.94166376       0.00000000       0.00000000      -0.09911255       0.00471420      -0.11640355      -0.09583081
P       -3.80048125      -1.01757221       1.14314144       0.00000000       0.00000000       0.01316875      -0.00391064      -0.07957561       0.31671883
O       -2.77180341      -0.23054532       0.40304647       0.00000000       0.00000000      -0.01491013      -0.03239088       0.01070596      -0.40540032
C       -4.43768827      -0.15807669       2.62184362       0.00000000       0.00000000       0.00269196       0.03406295       0.01630695      -0.09539210
C       -5.14728675       1.15988544       2.32441290       0.00000000       0.00000000      -0.06098140      -0.01283336       0.00936116      -0.05334132
C       -4.59027529       2.30855443       3.16588890       0.00000000       0.00000000      -0.00529721       0.00684336       0.02151582      -0.07101072
C       -4.82569188       2.20524494       4.68061444       0.00000000       0.00000000      -0.00193333       0.01462986       0.03656317      -0.06862232
C       -3.72537011       1.54193804       5.52373421       0.00000000       0.00000000       0.00819813      -0.00869280       0.00342493      -0.06140020
C       -2.58882657       2.46290062       5.98055410       0.00000000       0.00000000       0.01712169       0.00282252      -0.04206621      -0.06516629
C       -1.69131022       2.98219493       4.85543908       0.00000000       0.00000000      -0.00918354       0.00084542       0.02944628      -0.05045973
C       -0.43650630       3.66139732       5.40271964       0.00000000       0.00000000      -0.05066277      -0.04754502      -0.04146477      -0.10761400
C       -5.19406714      -1.23886405      -0.04229742       0.00000000       0.00000000       0.04151232       0.03988720       0.00181934      -0.09212735
C       -6.52176680      -1.91848655       0.28432596       0.00000000       0.00000000       0.04085205       0.03999590       0.02834093      -0.06671102
C       -6.64956988      -3.37392003      -0.17401766       0.00000000       0.00000000      -0.00862997       0.02730105       0.02588203      -0.06792235
C       -5.90669183      -4.35239808       0.73390544       0.00000000       0.00000000      -0.01574127      -0.02238323      -0.00043807      -0.06051227
C       -6.39647362      -5.80428918       0.63941670       0.00000000       0.00000000       0.02241412      -0.01687987       0.00448127      -0.06733422
C       -5.72963064      -6.65926516      -0.44189001       0.00000000       0.00000000      -0.03861800       0.01661486       0.00806097      -0.06308188
C       -4.24578189      -6.96064912      -0.19976358       0.00000000       0.00000000      -0.07528208       0.03010963      -0.02562231      -0.05205222
C       -4.01053980      -7.73054656       1.09553251       0.00000000       0.00000000       0.00493354       0.02322062      -0.03815849      -0.10838564
N       -1.01576721      -1.69215574       2.84813255       0.00000000       0.00000000       0.03355879      -0.02372743      -0.02946786       0.27653141
O       -0.63247944      -1.63203655       1.62067804       0.00000000       0.00000000       0.11448348       0.00076051      -0.02390671      -0.40598218
H        2.23196666      -5.58365337       7.48439317       0.00000000       0.00000000      -0.00824527       0.01876679      -0.01469683       0.04840263
H        3.32028686      -4.74915403       6.38106967       0.00000000       0.00000000       0.00280776       0.01449553       0.02098050       0.02915375
H        1.57865691      -4.44796192       6.30277241       0.00000000       0.00000000       0.01238982      -0.00176819      -0.01452270       0.01797456
H        3.34656983      -3.76898525       8.70312717       0.00000000       0.00000000       0.00681335       0.00859800      -0.00630881       0.04601628
H        1.63181043      -3.41373907       8.55590780       0.00000000       0.00000000       0.00455153       0.00890785      -0.03505919       0.03657344
H        2.19023615      -1.99544986       6.51760359       0.00000000       0.00000000      -0.02003116      -0.02099432      -0.02642814       0.00789885
H        3.90049594      -2.23994927       6.88704631       0.00000000       0.00000000      -0.01488091      -0.00699844       0.00601077       0.02606916
H        3.49867841      -1.29606818       9.17102077       0.00000000       0.00000000       0.04046926       0.04475036       0.01589300       0.04858458
H        1.84810942      -0.92382118       8.72569739       0.00000000       0.00000000      -0.03565778       0.04916967      -0.06175846       0.03443897
H        4.36095330       0.16001324       7.37964824       0.00000000       0.00000000       0.07634510       0.04392025       0.00951171       0.04038895
H        3.41888844       1.00789209       8.59042465       0.00000000       0.00000000      -0.02050130       0.03448781      -0.00035533       0.05012070
H        2.29392712       1.96701822       6.86086334       0.00000000       0.00000000       0.00974856       0.00909544      -0.01316498       0.04085786
H        1.50201325       0.42024110       6.63730819       0.00000000       0.00000000      -0.02372195      -0.03145302      -0.03150310       0.02729072
H        3.48048379      -0.23028310       5.15163822       0.00000000       0.00000000       0.00236232       0.03777485       0.00015583       0.04019796
H        4.04132351       1.42806085       5.30011902       0.00000000       0.00000000       0.02300446      -0.08126606      -0.01375261       0.04789167
H        2.61658479       2.23555138       3.74461801       0.00000000       0.00000000      -0.00543092       0.03261810      -0.11026317       0.05764753
H        1.24708717       1.40707629       4.40792101       0.00000000       0.00000000      -0.07329119      -0.09472835      -0.00880446       0.07357866
H        4.56608683      -0.01476912       2.47161158       0.00000000       0.00000000      -0.05246377      -0.01928443       0.10438789       0.09842748
H        3.92747495       1.46212423       1.82507819       0.00000000       0.00000000      -0.16579118       0.01792891      -0.02681585       0.07882945
H        3.67730590       0.60296902      -0.32947248       0.00000000       0.00000000      -0.01898272       0.05957067      -0.10460719       0.04828153
H        3.83252900      -1.06071927       0.16735580       0.00000000       0.00000000      -0.00217712       0.05468030      -0.09774229       0.09377049
H        6.23000669       0.69595399       0.51711128       0.00000000       0.00000000      -0.01772618      -0.01104047      -0.07346442       0.05808549
H        5.72686161       0.30275650      -1.10456252       0.00000000       0.00000000      -0.01849867       0.00579876       0.01825753       0.03710014
H        7.19866065      -1.31016825       0.90789920       0.00000000       0.00000000      -0.03894370       0.05696072      -0.01202843       0.05118509
H        7.44932926      -1.07150061      -0.79113007       0.00000000       0.00000000       0.01139504       0.06041307       0.00448320       0.05210410
H        5.18583846      -2.88529534      -0.37225355       0.00000000       0.00000000       0.05875234       0.03083702      -0.00329130       0.03688377
H        6.56544928      -3.35948253       0.57817071       0.00000000       0.00000000       0.13803015       0.08064705      -0.01037684       0.04863611
H        7.92057823      -3.37916246      -1.60862871       0.00000000       0.00000000       0.04412767      -0.02795768       0.13543341       0.04934981
H        6.38193892      -3.41693008      -2.43464004       0.00000000       0.00000000       0.10885917       0.04654930       0.07032867       0.03580928
H        5.74705299      -5.23287867      -0.59311676       0.00000000       0.00000000       0.01343488       0.00607608      -0.05487361       0.01773893
H        7.48195748      -5.48538927      -0.57963263       0.00000000       0.00000000       0.06230981       0.02931363      -0.01495403       0.04723535
H        5.61640634      -5.63589081      -2.98752204       0.00000000       0.00000000       0.01926642      -0.04766825      -0.05743764       0.02559350
H        6.47118034      -6.98112629      -2.22284686       0.00000000       0.00000000      -0.01100510       0.04231351      -0.02191485       0.04883925
H        7.37063691      -5.76424409      -3.12287269       0.00000000       0.00000000       0.03277997       0.00803108       0.04693323       0.04944967
H        1.79262422      -1.25034472       4.52480893       0.00000000       0.00000000       0.15298320      -0.04028178      -0.00987666       0.09484407
H        1.58340121      -2.22997360       3.05022159       0.00000000       0.00000000       0.02792365       0.01746968       0.06297051       0.10644050
H        0.07706957      -1.19119235       5.95311315       0.00000000       0.00000000       0.09199481       0.03984942       0.04679458       0.08618680
H       -2.18062952      -1.98933222       6.48344868       0.00000000       0.00000000      -0.01847661       0.06831765       0.02059603       0.09092576
H       -3.66455680      -2.69679400       4.63747668       0.00000000       0.00000000      -0.03252644       0.00977927      -0.06806941       0.08386623
H       -3.89962335      -3.20631269       2.26093899       0.00000000       0.00000000       0.00247909       0.01190194       0.02002190       0.09306475
H       -2.47026771      -3.06211533       1.19113926       0.00000000       0.00000000       0.04078134       0.07982334       0.02674552       0.10951229
H       -3.52703589       0.05686401       3.18234197       0.00000000       0.00000000      -0.02455265       0.00332780       0.08355182       0.08152809
H       -5.06378712      -0.83527734       3.20320687       0.00000000       0.00000000       0.06953506       0.07072835       0.01695871       0.06400141
H       -6.21966379       1.05497546       2.49109236       0.00000000       0.00000000      -0.02966420       0.01805851       0.00183983       0.05074907
H       -5.00016542       1.42433343       1.27034010       0.00000000       0.00000000       0.03649117      -0.02286438       0.03567939       0.03088157
H       -5.07255705       3.22020017       2.81363104       0.00000000       0.00000000      -0.01436692       0.03462922       0.03844261       0.04506683
H       -3.52805459       2.37383361       2.94232785       0.00000000       0.00000000       0.05473702       0.00120730       0.05574407       0.05356482
H       -5.76549331       1.67499025       4.84456226       0.00000000       0.00000000       0.01274015      -0.04084340      -0.00198066       0.04296283
H       -4.97061165       3.21128178       5.07529941       0.00000000       0.00000000      -0.00465152       0.03864453       0.01924691       0.04948143
H       -3.28874449       0.69163139       4.99906271       0.00000000       0.00000000       0.00570049      -0.02404903      -0.01888591       0.01403285
H       -4.19420470       1.14927605       6.42778338       0.00000000       0.00000000      -0.03073262       0.00019176       0.00912636       0.04224056
H       -1.97009545       1.90025706       6.68644150       0.00000000       0.00000000      -0.01687198       0.01603241      -0.02285936       0.03295099
H       -3.00672047       3.31138333       6.52659452       0.00000000       0.00000000       0.01315717      -0.02221977      -0.03660633       0.04737093
H       -2.24927586       3.71082001       4.26341895       0.00000000       0.00000000       0.04137740      -0.02229386       0.04467025       0.02665816
H       -1.40637809       2.15855779       4.18594268       0.00000000       0.00000000       0.00446711       0.06753849       0.09017749       0.01760182
H       -0.69923007       4.53672156       5.99481463       0.00000000       0.00000000       0.00450252      -0.06577709      -0.06413204       0.04989964
H        0.20973541       3.97244558       4.58302167       0.00000000       0.00000000      -0.00690519       0.04511035       0.04756582       0.02548766
H        0.12544941       2.98216817       6.04132449       0.00000000       0.00000000      -0.03960105       0.01047533      -0.00798996       0.03591966
H       -4.75257868      -1.62503924      -0.95920488       0.00000000       0.00000000      -0.03926848      -0.06931587       0.01820358       0.06765920
H       -5.38483518      -0.17504496      -0.22670833       0.00000000       0.00000000      -0.01395850       0.01629667      -0.06340849       0.06983617
H       -7.30100259      -1.33948491      -0.21941159       0.00000000       0.00000000       0.01122356      -0.06851422       0.03094098       0.05627959
H       -6.72242323      -1.85488915       1.35471467       0.00000000       0.00000000      -0.01022955      -0.01212844       0.00371201       0.05125447
H       -6.31612552      -3.46442796      -1.20981166       0.00000000       0.00000000       0.00566100      -0.03588822       0.03855091       0.03411034
H       -7.71030578      -3.62320001      -0.15128248       0.00000000       0.00000000      -0.03728255      -0.03347158      -0.00341315       0.05921333
H       -6.06450388      -4.01523225       1.76184717       0.00000000       0.00000000       0.03381650      -0.03938091       0.01666292       0.02701576
H       -4.83795053      -4.31279015       0.51855929       0.00000000       0.00000000       0.00914418      -0.00325801       0.04397048       0.02270637
H       -7.47512700      -5.80617168       0.47061608       0.00000000       0.00000000       0.03729855       0.01805740      -0.01994256       0.04546945
H       -6.23012760      -6.28836427       1.60098565       0.00000000       0.00000000      -0.02151485      -0.01273483       0.02309349       0.04738895
H       -5.85831790      -6.18046044      -1.41627955       0.00000000       0.00000000       0.02484822       0.01207082       0.02420465       0.02431896
H       -6.25860047      -7.61367026      -0.48225671       0.00000000       0.00000000      -0.00327413       0.03731969      -0.01045471       0.04982799
H       -3.66472186      -6.03249287      -0.18993931       0.00000000       0.00000000      -0.00144663      -0.03321384       0.03116361       0.00828300
H       -3.88234999      -7.56250362      -1.03675276       0.00000000       0.00000000      -0.01619763       0.02969463       0.02140938       0.03378656
H       -4.25695846      -7.12245847       1.96229774       0.00000000       0.00000000       0.01961051      -0.02926118       0.01488404       0.03313160
H       -2.96921212      -8.03137083       1.17878530       0.00000000       0.00000000       0.01465054      -0.00473873      -0.01460185       0.03373301
H       -4.62645704      -8.62575437       1.11358201       0.00000000       0.00000000       0.01835526       0.01124382       0.01665791       0.05142339
C       -3.87037460       8.84438329      -2.35884448       0.00000000       0.00000000      -0.00581140      -0.05750821       0.01711380      -0.10957771
C       -4.23686683       7.49375256      -1.75538634       0.00000000       0.00000000      -0.02761236      -0.05502439       0.03447876      -0.04894822
C       -5.73024725       7.42656967      -1.43075756       0.00000000       0.00000000      -0.00767682      -0.02404147       0.01532366      -0.06767482
C       -6.24366183       6.04554797      -1.00060205       0.00000000       0.00000000      -0.01439411      -0.00432400      -0.00589508      -0.05998401
C       -6.21584984       5.75533859       0.50639162       0.00000000       0.00000000      -0.07187672       0.03825624      -0.07012290      -0.06427250
C       -4.84580090       5.71763235       1.18305512       0.00000000       0.00000000      -0.03506279      -0.03965956      -0.04327427      -0.06169251
C       -3.94871837       4.64477443       0.57529600       0.00000000       0.00000000       0.01364745      -0.07677963      -0.05176383      -0.06256872
C       -2.62720632       4.52137209       1.31645720       0.00000000       0.00000000       0.06065424      -0.07769881      -0.05221040      -0.10463214
P       -1.49735218       3.21258033       0.65360358       0.00000000       0.00000000      -0.05058265       0.01112278      -0.02297257       0.36466531
O       -1.53985955       1.85091740       1.26119741       0.00000000       0.00000000      -0.06559102       0.00840961       0.01663420      -0.39401538
C        0.21190797       3.84395044       0.90900364       0.00000000       0.00000000       0.05022174       0.00123341       0.00967313      -0.10420812
C        0.85388320       4.81720810      -0.07280239       0.00000000       0.00000000      -0.01899100      -0.02889028      -0.00602014      -0.06393573
C        0.42030729       6.27849885       0.10362786       0.00000000       0.00000000      -0.00063546      -0.03875201       0.03147975      -0.06985781
C       -0.39256818       6.82487904      -1.07221305       0.00000000       0.00000000       0.00373335      -0.00928549       0.06296934      -0.06283798
C        0.39087469       6.90409271      -2.38352611       0.00000000       0.00000000       0.01100642       0.01317185       0.00076400      -0.05770797
C        1.52986367       7.92131654      -2.37044855       0.00000000       0.00000000       0.02491320       0.00121947       0.00355206      -0.06439900
C        2.44543857       7.80646120      -3.59201109       0.00000000       0.00000000       0.00267026       0.01264594       0.03573436      -0.05365099
C        1.76178391       8.15561053      -4.90748651       0.00000000       0.00000000       0.01206620      -0.00722843       0.02454708      -0.10802236
C       -1.88383427       3.08060428      -1.18388269       0.00000000       0.00000000       0.07729485      -0.04040426      -0.07610765      -0.11819008
C       -2.79164920       2.01595760      -1.70756222       0.00000000       0.00000000       0.01345551      -0.06899365       0.05028976       0.04596289
C       -4.14621709       2.19514089      -1.93789548       0.00000000       0.00000000       0.04169584       0.08371484      -0.00021934      -0.04342945
C       -4.88977628       1.23628221      -2.60465218       0.00000000       0.00000000       0.07567656       0.01473440       0.04020638      -0.02103048
C       -4.24296233       0.11118775      -3.09119705       0.00000000       0.00000000       0.00763549      -0.02008845      -0.09888584      -0.04277439
C       -2.88762814      -0.05450768      -2.87711113       0.00000000       0.00000000       0.16231598      -0.06862159       0.09196131       0.03774082
C       -2.06801206      -1.14966174      -3.48585792       0.00000000       0.00000000      -0.02782903       0.06388871      -0.07544497      -0.10036770
P       -1.64855645      -2.51187132      -2.27739736       0.00000000       0.00000000      -0.00725423      -0.09026392      -0.03613191       0.36485999
O       -1.31298571      -1.97880360      -0.92743368       0.00000000       0.00000000      -0.01350048       0.06390910       0.01521434      -0.39929522
C       -3.24944971      -3.43135673      -2.22000649       0.00000000       0.00000000       0.02785483      -0.04829976       0.00235051      -0.10405641
C       -3.43599241      -4.72453865      -3.01064775       0.00000000       0.00000000       0.00555706      -0.05629124       0.02822273      -0.06769733
C       -3.57143083      -4.58433260      -4.53059676       0.00000000       0.00000000       0.05741625      -0.02007492      -0.04998292      -0.06964948
C       -2.24235283      -4.63053597      -5.28265820       0.00000000       0.00000000       0.06099615      -0.01578566      -0.02692214      -0.06300011
C       -2.36379439      -4.85829405      -6.79403755       0.00000000       0.00000000      -0.05531804      -0.01767772       0.06261263      -0.06546099
C       -0.97494594      -4.91814164      -7.43475419       0.00000000       0.00000000      -0.04317827       0.03655013       0.06941429      -0.05688902
C       -0.98194051      -5.24083903      -8.92551221       0.00000000       0.00000000      -0.07433700      -0.00328233       0.02444836      -0.05741161
C        0.43058359      -5.28884051      -9.48973181       0.00000000       0.00000000       0.03434221      -0.01693821      -0.01913674      -0.10752114
C       -0.29382809      -3.67245716      -2.76226769       0.00000000       0.00000000       0.03149590      -0.05066208      -0.04213736      -0.09608688
C        0.71919065      -3.34763231      -3.85787228       0.00000000       0.00000000      -0.03578330       0.03506763       0.01510281      -0.06048309
C        1.60601396      -4.57677565      -4.07251422       0.00000000       0.00000000      -0.02818718      -0.00685577       0.00206279      -0.06549751
C        2.91204925      -4.31993904      -4.82554248       0.00000000       0.00000000       0.01148926      -0.00017022       0.00408375      -0.06184557
C        2.75513416      -3.82981091      -6.27253721       0.00000000       0.00000000       0.00207220       0.02073992       0.01265668      -0.07123642
C        2.93099869      -2.31716181      -6.40371098       0.00000000       0.00000000      -0.01031093       0.03155650       0.01718545      -0.05776224
C        2.61663141      -1.78811601      -7.80156617       0.00000000       0.00000000      -0.00185334      -0.03148945       0.00254287      -0.05859444
C        2.84055171      -0.28235364      -7.89347711       0.00000000       0.00000000      -0.01973918      -0.03629306      -0.00552054      -0.10075592
N       -2.21992165       0.85813750      -2.13123761       0.00000000       0.00000000      -0.00631000       0.06020403      -0.06263720       0.27812842
O       -0.95018903       0.67950900      -1.95628238       0.00000000       0.00000000      -0.04530926      -0.04677022       0.02986747      -0.42145194
H       -2.79966353       8.90950585      -2.53514545       0.00000000       0.00000000       0.01963419       0.02083836      -0.00069711       0.03339413
H       -4.16389527       9.64926164      -1.69091524       0.00000000       0.00000000       0.02787513       0.01083279       0.00328777       0.04572355
H       -4.38353489       8.98321414      -3.30586288       0.00000000       0.00000000      -0.01263750       0.03782556      -0.02350782       0.04296624
H       -3.64207937       7.33172124      -0.85459034       0.00000000       0.00000000      -0.00103376       0.01650079      -0.00232379       0.02355200
H       -3.98664900       6.70325685      -2.47288260       0.00000000       0.00000000      -0.01105333       0.01763677       0.02453196       0.00968214
H       -6.26819168       7.72781112      -2.33153039       0.00000000       0.00000000      -0.02364687      -0.02087151      -0.00031964       0.04383993
H       -5.97109549       8.15739971      -0.65838674       0.00000000       0.00000000       0.02900116       0.00255219       0.02125438       0.04631571
H       -5.70334910       5.27040164      -1.55276675       0.00000000       0.00000000      -0.00791861       0.01682149       0.02217919       0.01282040
H       -7.29155072       5.96991046      -1.30219375       0.00000000       0.00000000       0.03946567      -0.00333665       0.00751784       0.04266814
H       -6.70402314       4.78803576       0.66971531       0.00000000       0.00000000       0.00956132       0.05036743      -0.00008179       0.02772730
H       -6.82308848       6.51048131       1.00529350       0.00000000       0.00000000      -0.00752196       0.02531428       0.01602284       0.05261899
H       -4.99938918       5.51033563       2.24318733       0.00000000       0.00000000       0.00973845       0.01915576       0.04370091       0.03701032
H       -4.34952425       6.68397935       1.10761685       0.00000000       0.00000000      -0.05983866       0.05681917      -0.00691006       0.04998226
H       -3.74809887       4.93045744      -0.45659718       0.00000000       0.00000000      -0.05338727      -0.00992355       0.00043529       0.04495459
H       -4.46729033       3.68362262       0.58021128       0.00000000       0.00000000       0.00038462       0.00751981       0.02700906       0.03745584
H       -2.79990524       4.33077583       2.37446061       0.00000000       0.00000000       0.03829044      -0.03990880      -0.01248936       0.08258436
H       -2.09722707       5.46890457       1.23684225       0.00000000       0.00000000       0.05823232       0.01490095       0.00414839       0.07628426
H        0.80013827       2.92306015       0.96231001       0.00000000       0.00000000       0.06027543       0.00065146      -0.03539579       0.11209850
H        0.19587082       4.27376900       1.91783521       0.00000000       0.00000000      -0.00910978      -0.03189831      -0.04560986       0.07814423
H        0.63703912       4.47674026      -1.08349966       0.00000000       0.00000000      -0.00602224       0.04112070      -0.06601229       0.05117312
H        1.93498053       4.73055769       0.04703020       0.00000000       0.00000000      -0.00172538       0.06979107       0.06472958       0.05176437
H        1.29825297       6.90870834       0.24829712       0.00000000       0.00000000      -0.05419059      -0.01722356       0.00092524       0.05432663
H       -0.17588253       6.35654165       1.01437358       0.00000000       0.00000000       0.02781243       0.12585722      -0.01301129       0.03717867
H       -0.75088135       7.82052408      -0.81149500       0.00000000       0.00000000       0.01624639       0.05364906      -0.02131540       0.05114442
H       -1.27363983       6.19208299      -1.21940980       0.00000000       0.00000000       0.02343202      -0.00062526      -0.02514312       0.01928896
H       -0.30383082       7.15712493      -3.18465879       0.00000000       0.00000000      -0.02634908       0.00315048      -0.02417070       0.03818157
H        0.81693971       5.92254390      -2.60704808       0.00000000       0.00000000       0.02246067       0.00534569      -0.01886172       0.01278881
H        2.14239528       7.76225827      -1.48120416       0.00000000       0.00000000      -0.00595594       0.05188142       0.00432345       0.03236638
H        1.11772811       8.93033026      -2.32079634       0.00000000       0.00000000       0.01956912      -0.02430601       0.01068034       0.04607223
H        2.85127918       6.79032657      -3.64907692       0.00000000       0.00000000      -0.01557547       0.02591987       0.01405564       0.01475504
H        3.28796223       8.48480271      -3.44864849       0.00000000       0.00000000       0.00644385      -0.00630840       0.00086380       0.04268335
H        0.96863494       7.44928397      -5.14138856       0.00000000       0.00000000      -0.00624323       0.00681745      -0.02627550       0.02618104
H        2.48791373       8.13805698      -5.71555475       0.00000000       0.00000000      -0.02200772      -0.00724782      -0.03456486       0.04260785
H        1.33559142       9.15359287      -4.85846003       0.00000000       0.00000000      -0.01634599      -0.00022959      -0.00035308       0.04785828
H       -0.87978431       2.87571930      -1.56079822       0.00000000       0.00000000      -0.04668011      -0.00829624      -0.00161680       0.13530011
H       -2.22574943       4.04831095      -1.55386262       0.00000000       0.00000000       0.04548394      -0.03760904       0.08472797       0.09115277
H       -4.59596683       3.12311979      -1.62891056       0.00000000       0.00000000      -0.11594017      -0.01489939       0.01982905       0.09214843
H       -5.93953562       1.39135374      -2.78675864       0.00000000       0.00000000      -0.03421900      -0.02497832       0.00242183       0.09149196
H       -4.77137293      -0.61350679      -3.68811115       0.00000000       0.00000000      -0.07189969      -0.00487349      -0.01876143       0.08318302
H       -1.12477612      -0.74564878      -3.85324130       0.00000000       0.00000000      -0.02431342       0.05190314      -0.03418170       0.09980146
H       -2.60769961      -1.59361590      -4.31950866       0.00000000       0.00000000      -0.04460416      -0.01769032      -0.01381122       0.10152139
H       -4.02185060      -2.71944494      -2.52006409       0.00000000       0.00000000      -0.00402060      -0.04751935       0.00224630       0.06097922
H       -3.39553076      -3.64808189      -1.15869727       0.00000000       0.00000000       0.00877919      -0.00820533       0.00860701       0.06883193
H       -4.35288879      -5.17906093      -2.63322914       0.00000000       0.00000000      -0.04728321       0.00958642      -0.01272960       0.06410278
H       -2.63303310      -5.42139198      -2.77104583       0.00000000       0.00000000      -0.01097491      -0.06976407      -0.02887044       0.04466781
H       -4.10791561      -3.66314631      -4.76189364       0.00000000       0.00000000      -0.04648862      -0.00215941      -0.08466270       0.03140568
H       -4.17747489      -5.41625598      -4.88607999       0.00000000       0.00000000      -0.06329580      -0.02325702      -0.03569213       0.05927342
H       -1.64680376      -5.45464125      -4.88301722       0.00000000       0.00000000      -0.01617130      -0.02059732       0.00243130       0.03298103
H       -1.68796671      -3.70585646      -5.10530204       0.00000000       0.00000000      -0.06123631       0.00380553      -0.01554007       0.02062108
H       -2.96081881      -4.06936837      -7.25517871       0.00000000       0.00000000       0.04073705       0.02235041       0.00513686       0.03631360
H       -2.88303226      -5.79897313      -6.97300363       0.00000000       0.00000000      -0.01445204      -0.06004872       0.00073802       0.04489258
H       -0.38280529      -5.67785294      -6.91856977       0.00000000       0.00000000       0.00679283      -0.02244836       0.00986386       0.02901334
H       -0.48002457      -3.95547614      -7.29065943       0.00000000       0.00000000       0.05575951       0.07137247       0.01523824       0.02117598
H       -1.56153422      -4.49081131      -9.46250086       0.00000000       0.00000000      -0.04693901       0.07300026      -0.01489567       0.03482073
H       -1.46456025      -6.20293467      -9.08707472       0.00000000       0.00000000      -0.04476653      -0.08045826       0.01354294       0.04122944
H        0.92990342      -4.33100636      -9.37995650       0.00000000       0.00000000       0.01308795       0.10334133       0.00436633       0.03076849
H        0.41188235      -5.54428390     -10.54244452       0.00000000       0.00000000      -0.03943716       0.01274460      -0.10228226       0.04875978
H        1.02655074      -6.03903084      -8.98131186       0.00000000       0.00000000       0.03529429      -0.09161067       0.09746263       0.03646281
H       -0.74677393      -4.63150563      -3.01122190       0.00000000       0.00000000      -0.09602273       0.05313137       0.02292828       0.08570472
H        0.21697030      -3.79579610      -1.79890569       0.00000000       0.00000000      -0.04361351       0.00286870      -0.09801079       0.07623436
H        1.33374142      -2.50213072      -3.57029016       0.00000000       0.00000000      -0.04227189       0.02570623      -0.02364894       0.03660077
H        0.21628170      -3.09352223      -4.79011754       0.00000000       0.00000000       0.02996586      -0.00288104      -0.00438168       0.05343971
H        1.02434230      -5.33314997      -4.59742249       0.00000000       0.00000000       0.02992733      -0.05369198      -0.08941802       0.05050841
H        1.86113979      -4.99343811      -3.09451396       0.00000000       0.00000000       0.03157100      -0.02622215       0.00820723       0.02709045
H        3.45861020      -5.26342145      -4.82823380       0.00000000       0.00000000       0.03312801      -0.01096791      -0.02511418       0.04763125
H        3.51006994      -3.59805461      -4.26240002       0.00000000       0.00000000       0.04018209       0.01340957      -0.02313264       0.01836020
H        1.78293909      -4.13202278      -6.66160646       0.00000000       0.00000000      -0.00048792       0.02339705       0.01751984       0.05010023
H        3.51197262      -4.30903852      -6.89366069       0.00000000       0.00000000      -0.02285116      -0.01157581      -0.02426109       0.04912440
H        3.96644083      -2.06410585      -6.16250565       0.00000000       0.00000000       0.01404151      -0.00087744       0.02784881       0.02564206
H        2.29584234      -1.80338482      -5.67805720       0.00000000       0.00000000      -0.07776067      -0.00399682       0.01939280       0.00826259
H        1.58068165      -2.01916352      -8.06020531       0.00000000       0.00000000      -0.00043561      -0.00110729       0.02143897       0.03325450
H        3.25523998      -2.29240667      -8.52653695       0.00000000       0.00000000       0.00859032       0.00474993      -0.01647043       0.04730520
H        2.19199416       0.24537285      -7.19388464       0.00000000       0.00000000      -0.01430866       0.00618621       0.00189068       0.01041089
H        2.62018505       0.07571747      -8.89523425       0.00000000       0.00000000       0.01739634      -0.00411017       0.00712380       0.05087704
H        3.87369351      -0.03448516      -7.66000620       0.00000000       0.00000000      -0.00383789      -0.00146089      -0.02340383       0.03704824
C       -1.83271277      -1.14127343      -7.28306970       0.00000000       0.00000000       0.00032228       0.03058175      -0.00154599      -0.10701476
C       -2.88221164      -0.09414066      -6.93827600       0.00000000       0.00000000      -0.06052442       0.12793985      -0.03484207      -0.05228674
C       -3.01335147       1.00873022      -7.99375376       0.00000000       0.00000000       0.01962506       0.06569268      -0.05464247      -0.06467995
C       -1.74429889       1.79188782      -8.35619281       0.00000000       0.00000000       0.01714070       0.00767329       0.01280659      -0.06621315
C       -1.24865280       2.84115231      -7.35334256       0.00000000       0.00000000       0.00392840      -0.01375220       0.02156487      -0.06407307
C       -0.56841427       2.25393682      -6.11212166       0.00000000       0.00000000       0.00386759       0.03127366       0.02785769      -0.05971277
C        0.23408727       3.30664391      -5.32258380       0.00000000       0.00000000      -0.00191968       0.02679090       0.04524923      -0.07254525
C        0.00658533       3.25436352      -3.80037557       0.00000000       0.00000000       0.04575257       0.01446716      -0.00808589      -0.10591398
P        1.31665440       2.31342471      -2.86256314       0.00000000       0.00000000      -0.03338826       0.13018933      -0.02675121       0.33007400
O        1.15352028       2.01293746      -1.40555324       0.00000000       0.00000000       0.01815672      -0.02567966      -0.10778778      -0.40576626
C        2.85968569       3.27374452      -3.17307102       0.00000000       0.00000000      -0.00209411       0.00711335       0.02193791      -0.09676223
C        3.91929428       3.08400307      -2.08960996       0.00000000       0.00000000      -0.04723584      -0.07961789      -0.01713023      -0.05286839
C        4.87045505       4.28084029      -1.98326642       0.00000000       0.00000000      -0.01612128      -0.05619520      -0.03462943      -0.06366969
C        5.55028365       4.74637530      -3.27656179       0.00000000       0.00000000       0.04303904       0.02561412      -0.06594966      -0.06602279
C        6.71077564       3.88866107      -3.79543805       0.00000000       0.00000000       0.01432006      -0.01050435      -0.02629293      -0.06583465
C        6.35458939       2.64558451      -4.62471523       0.00000000       0.00000000      -0.00042922       0.00927390      -0.01958374      -0.06170245
C        6.18782874       2.86993407      -6.13695880       0.00000000       0.00000000      -0.01074595      -0.00740943       0.01798024      -0.05969760
C        4.82604433       3.39701610      -6.58737241       0.00000000       0.00000000       0.07257402      -0.01457308       0.03048331      -0.09790923
C        1.34607152       0.76018972      -3.86523868       0.00000000       0.00000000      -0.01435748       0.01258453       0.03773924      -0.10634270
C        2.49550874      -0.03606657      -3.42028581       0.00000000       0.00000000      -0.05953412      -0.01122518      -0.01149431       0.04181498
C        3.69646483       0.08891294      -4.09239430       0.00000000       0.00000000      -0.02326042       0.06053059       0.02938067      -0.04111191
C        4.79617818      -0.60516277      -3.64720707       0.00000000       0.00000000      -0.02027372       0.02439524      -0.01094034      -0.02053301
C        4.59534023      -1.48677006      -2.60436595       0.00000000       0.00000000       0.05807029      -0.11553062       0.07728400      -0.06055145
C        3.36455467      -1.67652521      -1.99851274       0.00000000       0.00000000       0.04778109      -0.07987046       0.04869815       0.03921781
C        3.04132709      -2.84516544      -1.11701838       0.00000000       0.00000000      -0.00671750      -0.01864242       0.09016634      -0.10158606
P        2.92247451      -2.72964251       0.79907422       0.00000000       0.00000000       0.01838708      -0.04468165       0.05291176       0.28873999
O        1.90625813      -1.63478681       0.97447462       0.00000000       0.00000000       0.01733943      -0.03908883       0.05585590      -0.38922795
C        2.22344514      -4.41600047       1.11289366       0.00000000       0.00000000      -0.07755988      -0.07101988       0.02933555      -0.09869791
C        2.42142261      -5.01842143       2.51756959       0.00000000       0.00000000      -0.00269764      -0.00992473       0.01727263      -0.06396270
C        3.13286929      -6.38315253       2.53827698       0.00000000       0.00000000      -0.04226187       0.04915860       0.02330490      -0.06823183
C        4.60468042      -6.36275198       2.10309701       0.00000000       0.00000000      -0.05375933      -0.00355788      -0.02325064      -0.06341518
C        5.58389869      -5.98206871       3.21950525       0.00000000       0.00000000      -0.02753978      -0.00248427      -0.01263041      -0.06448704
C        6.96233738      -5.60719014       2.67237834       0.00000000       0.00000000       0.00396394       0.00863142       0.02216819      -0.05793789
C        7.99234444      -5.31553843       3.76701064       0.00000000       0.00000000       0.01178677       0.01345707       0.01271382      -0.05522649
C        8.58199085      -6.57663121       4.38013946       0.00000000       0.00000000      -0.00698817      -0.02686481       0.00754801      -0.10932637
C        4.44297291      -2.64030898       1.94102997       0.00000000       0.00000000      -0.03731169       0.00402966      -0.02564494      -0.12024618
C        4.42429854      -2.29238196       3.43726865       0.00000000       0.00000000       0.01199641      -0.00401554       0.06372223      -0.06400252
C        5.84513222      -1.97754413       3.97850925       0.00000000       0.00000000      -0.00646921       0.02389795      -0.01710988      -0.07090366
C        6.37583176      -0.55283129       3.75815911       0.00000000       0.00000000       0.04688462       0.03532568      -0.00336130      -0.06878892
C        7.76563993      -0.29329552       4.36624801       0.00000000       0.00000000       0.04398557      -0.02229858       0.01485056      -0.06647521
C        8.96339393      -0.66650687       3.47414889       0.00000000       0.00000000       0.01350341      -0.01177521      -0.00051589      -0.06343690
C        9.66477483       0.52056263       2.79310313       0.00000000       0.00000000      -0.02178129      -0.05661869       0.03129469      -0.06004073
C        8.92015507       1.11134249       1.59796678       0.00000000       0.00000000       0.02973045      -0.02651580       0.08577848      -0.10337740
N        2.34267145      -0.85201008      -2.34890309       0.00000000       0.00000000      -0.01246217      -0.06448295      -0.01294304       0.25545079
O        1.19411260      -0.94665181      -1.74150489       0.00000000       0.00000000       0.09527544       0.09766864      -0.02310758      -0.42323616
H       -1.93190844      -2.00378544      -6.63311350       0.00000000       0.00000000       0.01609985      -0.05030029       0.04384558       0.02796137
H       -0.82827424      -0.74709599      -7.17647119       0.00000000       0.00000000       0.09721432       0.04296893       0.00394026       0.02883199
H       -1.95836030      -1.47579613      -8.30733038       0.00000000       0.00000000      -0.02471618      -0.01770911      -0.05625249       0.05328089
H       -2.67144937       0.34561159      -5.96113901       0.00000000       0.00000000       0.00856540      -0.01715922       0.02888154       0.00624415
H       -3.85415052      -0.58850182      -6.86671584       0.00000000       0.00000000      -0.02742508       0.01051645       0.00205203       0.02679482
H       -3.79087997       1.71058951      -7.67850119       0.00000000       0.00000000       0.06130688      -0.01919730       0.01835462       0.03388093
H       -3.36670120       0.53421580      -8.91217574       0.00000000       0.00000000       0.00306707       0.02231102       0.00778632       0.04715842
H       -1.96005470       2.32393104      -9.28498091       0.00000000       0.00000000      -0.00772160      -0.02010471       0.01712227       0.04945962
H       -0.93207489       1.09692032      -8.57160249       0.00000000       0.00000000       0.00115453      -0.01859504      -0.01792891       0.04262352
H       -2.08042431       3.48001755      -7.04700416       0.00000000       0.00000000       0.02133749      -0.02649100      -0.01155212       0.03777404
H       -0.52215579       3.47280840      -7.87189171       0.00000000       0.00000000      -0.03454191      -0.03949170       0.00674793       0.04296089
H        0.08223722       1.43979066      -6.43862044       0.00000000       0.00000000      -0.03199855       0.03316960      -0.00942509       0.03122972
H       -1.33321874       1.82546606      -5.46355743       0.00000000       0.00000000       0.01587115      -0.02562725       0.01678136       0.02449549
H       -0.06614988       4.29588434      -5.67162610       0.00000000       0.00000000      -0.06536399      -0.01326944       0.03039640       0.06495286
H        1.29710120       3.21935551      -5.55011071       0.00000000       0.00000000      -0.00778511       0.02294276      -0.01545148       0.04459806
H       -0.97546380       2.82087446      -3.61108387       0.00000000       0.00000000       0.06185494       0.00417238      -0.04503186       0.05992154
H        0.00019432       4.27473488      -3.40979419       0.00000000       0.00000000      -0.02435930      -0.06651712       0.02889240       0.06970931
H        2.55424386       4.32405694      -3.18606406       0.00000000       0.00000000      -0.00579067      -0.02619452       0.00227549       0.07816475
H        3.26140663       3.03722239      -4.15666445       0.00000000       0.00000000      -0.03240970       0.04092649       0.02447613       0.07331457
H        4.48403089       2.16671184      -2.26646274       0.00000000       0.00000000       0.01444913       0.01511238      -0.05742430       0.02781954
H        3.40853350       2.96521412      -1.12944073       0.00000000       0.00000000       0.00787290       0.00821379       0.01151958       0.04495095
H        5.64085323       4.04007462      -1.24783885       0.00000000       0.00000000      -0.00072194       0.01682475      -0.00500649       0.04412906
H        4.29740837       5.12573731      -1.59223311       0.00000000       0.00000000       0.01068269       0.00386980      -0.00836706       0.03690256
H        5.96476120       5.73005673      -3.05302611       0.00000000       0.00000000       0.01941075       0.05714782      -0.01805619       0.04694086
H        4.81267234       4.89000814      -4.06371125       0.00000000       0.00000000      -0.03456656      -0.02126473      -0.00144815       0.03916937
H        7.31623607       3.58085453      -2.93885277       0.00000000       0.00000000      -0.05480669      -0.02269789       0.00609367       0.03418791
H        7.35106936       4.52225978      -4.41237325       0.00000000       0.00000000      -0.02733939       0.00746344       0.01640461       0.04956674
H        5.45904756       2.17239205      -4.22295622       0.00000000       0.00000000       0.00035500       0.00255896      -0.00553851       0.02056548
H        7.17810266       1.93708979      -4.50567639       0.00000000       0.00000000      -0.00349768      -0.00010787       0.01716683       0.02914854
H        6.35462354       1.91174550      -6.64018694       0.00000000       0.00000000      -0.00023926       0.04530548       0.02393030       0.02969946
H        6.96785329       3.55062090      -6.48581945       0.00000000       0.00000000      -0.07126307      -0.02894986       0.04399431       0.04845666
H        4.02500389       2.71059674      -6.30057339       0.00000000       0.00000000       0.04862921       0.06000981      -0.00564899       0.00606886
H        4.81512148       3.47972365      -7.67268725       0.00000000       0.00000000      -0.02044017       0.01330202       0.05786357       0.04652804
H        4.61792515       4.38165373      -6.17493988       0.00000000       0.00000000       0.01393310      -0.04610159      -0.00446228       0.03817843
H        1.43557647       0.99288907      -4.92258237       0.00000000       0.00000000      -0.04127850      -0.02504740       0.07580226       0.09019820
H        0.40422614       0.26821760      -3.63103651       0.00000000       0.00000000       0.06852345      -0.04599346      -0.01097296       0.11457186
H        3.74471796       0.72814911      -4.95703334       0.00000000       0.00000000       0.01942073      -0.00331765      -0.04402040       0.08447936
H        5.76006668      -0.49617883      -4.11632566       0.00000000       0.00000000      -0.00921701      -0.03351005       0.05043968       0.08672233
H        5.43822568      -2.04645996      -2.27266257       0.00000000       0.00000000      -0.02953208      -0.11068979       0.00885565       0.11695790
H        3.63293599      -3.69903690      -1.44544077       0.00000000       0.00000000       0.01483455      -0.03190705       0.11154622       0.08494997
H        1.97618880      -3.06202871      -1.27912368       0.00000000       0.00000000       0.07215033       0.02360315       0.01706696       0.11406909
H        2.64749111      -5.09380633       0.37117332       0.00000000       0.00000000      -0.00776911      -0.01824016      -0.02259339       0.07243407
H        1.16112666      -4.29916963       0.88941698       0.00000000       0.00000000      -0.10804531      -0.08446767      -0.03293382       0.06989631
H        1.44448819      -5.13962380       2.99203503       0.00000000       0.00000000       0.02685898      -0.04979907      -0.03218380       0.03911783
H        2.98672714      -4.33992681       3.15008960       0.00000000       0.00000000      -0.04249752       0.00212656      -0.03562500       0.05165393
H        2.57214324      -7.08664913       1.91730370       0.00000000       0.00000000       0.05056455       0.07900599      -0.01466794       0.04166310
H        3.09245158      -6.75411270       3.56369829       0.00000000       0.00000000      -0.05102106      -0.05062455      -0.01377604       0.05494929
H        4.72591621      -5.68074151       1.25794675       0.00000000       0.00000000       0.00087647       0.01551919      -0.01992398       0.02001938
H        4.87333093      -7.35523425       1.74217508       0.00000000       0.00000000       0.00662311      -0.02627978      -0.00986572       0.04714711
H        5.68709054      -6.82192749       3.90589457       0.00000000       0.00000000      -0.03053165      -0.01314904      -0.01682878       0.04851365
H        5.19230392      -5.14150664       3.79604428       0.00000000       0.00000000      -0.00534695       0.01319069       0.01140653       0.02420280
H        6.86116970      -4.71456951       2.04777275       0.00000000       0.00000000       0.00654817      -0.02522565      -0.03153031       0.00984561
H        7.33921696      -6.40884682       2.03436959       0.00000000       0.00000000      -0.04392001      -0.00877923       0.02494121       0.04122753
H        7.53131064      -4.71338272       4.55294410       0.00000000       0.00000000      -0.01503929       0.01802553       0.01452304       0.02861790
H        8.80758151      -4.72798991       3.33918769       0.00000000       0.00000000      -0.00284159       0.00365106      -0.03588987       0.03305624
H        7.82096128      -7.15909636       4.88888928       0.00000000       0.00000000      -0.03995848      -0.03675605       0.03834957       0.03880637
H        9.35294557      -6.31944982       5.10039713       0.00000000       0.00000000      -0.00461330       0.00198732       0.02697531       0.04543186
H        9.03107857      -7.19781344       3.61114177       0.00000000       0.00000000       0.03089845      -0.02945536      -0.03278134       0.04243862
H        5.11922056      -1.93511184       1.48446266       0.00000000       0.00000000       0.08088468      -0.00426636       0.09705443       0.11176345
H        4.87898411      -3.63166782       1.85653506       0.00000000       0.00000000      -0.03306930      -0.06580651      -0.02541266       0.09349889
H        4.05382816      -3.13356218       4.02382115       0.00000000       0.00000000       0.00605270      -0.00148043       0.02762211       0.04570357
H        3.76255720      -1.45654092       3.64478134       0.00000000       0.00000000       0.07970492       0.02138012      -0.04843339       0.04843149
H        6.56358961      -2.69337017       3.57987150       0.00000000       0.00000000      -0.04288497      -0.03129092      -0.05457777       0.05653932
H        5.80181395      -2.13958387       5.05805145       0.00000000       0.00000000       0.05566086      -0.00939547      -0.00350442       0.04913912
H        5.68377815       0.14659581       4.23291711       0.00000000       0.00000000       0.00031935      -0.00653321      -0.04279910       0.02744074
H        6.44634422      -0.31678025       2.69731549       0.00000000       0.00000000      -0.00445995      -0.04801835       0.01244610       0.03867694
H        7.83532278      -0.83362152       5.30999347       0.00000000       0.00000000       0.00234412      -0.02091979       0.03327862       0.04004042
H        7.84634031       0.76966356       4.60447776       0.00000000       0.00000000      -0.05583935      -0.03897733      -0.00069630       0.04565996
H        8.65479912      -1.38914359       2.71490327       0.00000000       0.00000000       0.02574438      -0.01186254       0.00149323       0.02834275
H        9.71334830      -1.15619561       4.09729922       0.00000000       0.00000000      -0.03635701      -0.02378274      -0.02244010       0.04341732
H       10.64227103       0.17521197       2.44610870       0.00000000       0.00000000      -0.05545686       0.02584303       0.00897307       0.04230523
H        9.84697532       1.30664995       3.53142952       0.00000000       0.00000000      -0.04957320      -0.08458323      -0.03172218       0.04066669
H        8.80769656       0.36752430       0.81160194       0.00000000       0.00000000       0.01390827       0.02278629       0.03222735       0.02943526
H        9.48745707       1.94481600       1.18949395       0.00000000       0.00000000      -0.03344865      -0.00898796       0.02731035       0.04140628
H        7.93587841       1.47852973       1.88521339       0.00000000       0.00000000       0.03047437       0.01247602       0.03777880       0.02198776
