130
Properties=species:S:1:pos:R:3:initial_charges:R:1:initial_magmoms:R:1:forces:R:3:charge:R:1 energy=-4929.0256819275655 free_energy=-4929.0256819275655 dipole="-0.005736377771101805 -0.20465426038571458 -0.36717150968513795" pbc="F F F"
Pr       0.29184268       0.20307226      -0.37772974       3.00000000       0.00000000       0.04577367      -0.02070435      -0.00499246       0.87307960
O        0.65466317       1.48826025       1.65791406       0.00000000       0.00000000      -0.03087318      -0.08246407       0.06969582      -0.39034029
C       -0.24854569       1.81712972       2.45372529       0.00000000       0.00000000       0.09477785       0.07043667      -0.06827338       0.25941717
C       -1.58423703       1.04832269       2.39619338       0.00000000       0.00000000       0.07952638      -0.06142649       0.04694898       0.04969735
O       -1.38898914      -0.02020210       1.47680924       0.00000000       0.00000000      -0.09732331      -0.02168710       0.10307676      -0.22772778
C       -2.13108793      -1.20402606       1.74549322       0.00000000       0.00000000      -0.02309835      -0.00544674       0.03170478       0.04585847
C       -1.36845409      -2.35042340       1.06500129       0.00000000       0.00000000       0.05509492       0.09517133       0.02283111       0.25183475
O       -0.41027114      -2.04024881       0.32408698       0.00000000       0.00000000      -0.00139144      -0.01681206       0.07846212      -0.41067493
N       -1.68927187      -3.60658103       1.31047439       0.00000000       0.00000000      -0.02866836       0.02384565      -0.04600779      -0.03666317
C       -2.85680959      -4.09206413       2.02481342       0.00000000       0.00000000       0.01731274       0.03074731      -0.03667535      -0.02050454
C       -2.45191555      -4.91158049       3.25307620       0.00000000       0.00000000       0.04203169      -0.05788687       0.02707043      -0.07195169
C       -1.28533789      -5.85914823       2.92920323       0.00000000       0.00000000       0.05076181      -0.01920422      -0.02854528      -0.06893964
C       -1.11089182      -6.00869416       1.42011320       0.00000000       0.00000000       0.01605551      -0.03514183      -0.00283176      -0.07262258
C       -0.81491659      -4.65479482       0.78179762       0.00000000       0.00000000       0.03191677      -0.00329321      -0.00401906      -0.00336677
N       -0.11599524       2.79278226       3.33830098       0.00000000       0.00000000       0.01230972      -0.03432275      -0.03238258      -0.04113640
C        1.18876147       3.39330494       3.59556631       0.00000000       0.00000000      -0.00264736      -0.00880185       0.00626030      -0.01453121
C        1.76033142       2.78479217       4.88122912       0.00000000       0.00000000       0.00533021       0.00769569      -0.04973086      -0.06834369
C        0.79718585       3.01026622       6.04756678       0.00000000       0.00000000       0.06586637      -0.00185193      -0.00549324      -0.07187151
C       -0.59314631       2.48448345       5.69440035       0.00000000       0.00000000       0.02627411       0.02512014       0.03721788      -0.06891208
C       -1.06384828       3.12731408       4.38795730       0.00000000       0.00000000       0.00860591      -0.01300245      -0.02367410      -0.02264040
H       -1.82803721       0.65720538       3.39159073       0.00000000       0.00000000      -0.00787344       0.01656975      -0.00922638       0.08089237
H       -2.38970662       1.71696032       2.05290942       0.00000000       0.00000000       0.00553062      -0.10122467       0.05515469       0.07437754
H       -2.17059348      -1.39076681       2.82494999       0.00000000       0.00000000      -0.08303002      -0.01869058       0.03722058       0.08362275
H       -3.14700358      -1.11422262       1.33671375       0.00000000       0.00000000      -0.04574830      -0.04427736       0.06856344       0.08034945
H       -3.50639574      -3.26554072       2.30086126       0.00000000       0.00000000      -0.00205665       0.03645459       0.05556866       0.05748111
H       -3.41020432      -4.73423576       1.33571014       0.00000000       0.00000000      -0.03207955       0.00088290      -0.03103653       0.08981017
H       -2.17884648      -4.25107525       4.07442454       0.00000000       0.00000000       0.02096478       0.02938716       0.01519937       0.05308085
H       -3.31900652      -5.48492439       3.57298257       0.00000000       0.00000000      -0.06599496       0.01217418       0.00800519       0.07910497
H       -0.35717887      -5.47767061       3.35886562       0.00000000       0.00000000      -0.01312991       0.03997122      -0.03359390       0.04961412
H       -1.45690028      -6.84125838       3.36888166       0.00000000       0.00000000      -0.03012107       0.05944380      -0.00345732       0.07561740
H       -0.27492184      -6.67539767       1.21301045       0.00000000       0.00000000       0.03265412      -0.00799254      -0.00922232       0.06933214
H       -1.99453059      -6.46882348       0.97922446       0.00000000       0.00000000      -0.04680166       0.05179581       0.02135129       0.06772007
H        0.21288738      -4.35529256       1.00721625       0.00000000       0.00000000       0.02278707       0.02497381      -0.01891454       0.06174898
H       -0.91464507      -4.70154982      -0.30757171       0.00000000       0.00000000      -0.03995846       0.00840481       0.00103101       0.06045871
H        1.83458173       3.21643055       2.73329178       0.00000000       0.00000000      -0.02424614      -0.02809579       0.04317670       0.06994025
H        1.04992745       4.46919734       3.73334014       0.00000000       0.00000000       0.00786343      -0.05179437      -0.07649408       0.08197561
H        1.91228267       1.71241077       4.73143636       0.00000000       0.00000000       0.01172834       0.03054531       0.00667464       0.04453308
H        2.72667330       3.24074054       5.09766887       0.00000000       0.00000000      -0.03622946      -0.01595698      -0.00380661       0.07084841
H        1.17139463       2.50298367       6.93500870       0.00000000       0.00000000       0.00370924      -0.05598860       0.01367349       0.07192241
H        0.74864811       4.07284813       6.29020193       0.00000000       0.00000000      -0.05344396       0.00322940      -0.08371916       0.06385202
H       -0.55586561       1.39793856       5.57912221       0.00000000       0.00000000      -0.01795448       0.03448668       0.01491697       0.04212796
H       -1.29936250       2.72041249       6.48741730       0.00000000       0.00000000      -0.01494062       0.00135598       0.03903977       0.07695988
H       -2.07385291       2.82260235       4.12019564       0.00000000       0.00000000      -0.00708492      -0.03034493       0.02656000       0.05255281
H       -1.05337543       4.21506939       4.50615779       0.00000000       0.00000000      -0.04296231      -0.04198914      -0.03128118       0.09077517
O       -0.12681671       0.75101499      -2.56853499       0.00000000       0.00000000       0.03958547       0.01104326      -0.00649354      -0.38087182
C       -0.73933070      -0.05741179      -3.29042374       0.00000000       0.00000000       0.01599764      -0.00659488       0.08914436       0.25280762
C       -1.89771205      -0.82753505      -2.62112618       0.00000000       0.00000000      -0.00194477       0.00455378      -0.03301598       0.04108313
O       -2.15156761      -0.27113272      -1.33502060       0.00000000       0.00000000      -0.00967135       0.01416577       0.00570881      -0.23208810
C       -3.02094415       0.86383825      -1.32146311       0.00000000       0.00000000      -0.03434651       0.00636289       0.00416773       0.04355105
C       -2.28811921       2.11784368      -0.80469392       0.00000000       0.00000000      -0.02981329      -0.00370657      -0.05308490       0.25643598
O       -1.11478293       2.00914951      -0.40732609       0.00000000       0.00000000       0.10257526       0.03332956      -0.01638015      -0.38114113
N       -2.92212452       3.27994816      -0.82287790       0.00000000       0.00000000       0.00574142       0.00000682       0.01933992      -0.04570722
C       -2.22980667       4.48172350      -0.37159807       0.00000000       0.00000000      -0.00121579       0.00785208      -0.01505803      -0.01632944
C       -2.65127475       4.81407324       1.05935701       0.00000000       0.00000000       0.02594250      -0.02011786      -0.02420185      -0.06573829
C       -4.17271572       4.93289216       1.14809363       0.00000000       0.00000000       0.02022396       0.02765728       0.01260511      -0.07295382
C       -4.85008200       3.69747780       0.55753039       0.00000000       0.00000000      -0.00322602       0.01532327      -0.01477428      -0.06639221
C       -4.36044879       3.46868193      -0.87579777       0.00000000       0.00000000       0.05048764      -0.02369746      -0.04151061      -0.02377898
N       -0.39834301      -0.29830590      -4.53932681       0.00000000       0.00000000       0.05241143      -0.03728419      -0.10850634      -0.03839537
C        0.77522391       0.35718211      -5.10731240       0.00000000       0.00000000       0.00705668       0.00233069       0.00177426      -0.01424285
C        0.34844912       1.34573055      -6.18961035       0.00000000       0.00000000      -0.01210060       0.00206418       0.02266699      -0.06889939
C       -0.45795630       0.61618021      -7.26218400       0.00000000       0.00000000       0.00792996       0.01591450      -0.00596295      -0.07111180
C       -1.64002105      -0.10512591      -6.61864331       0.00000000       0.00000000       0.00630730      -0.00236475       0.00675973      -0.06898444
C       -1.13743179      -1.05823282      -5.52922220       0.00000000       0.00000000       0.01556913      -0.00734190       0.05702615      -0.02120833
H       -2.81515797      -0.84656429      -3.21922958       0.00000000       0.00000000       0.00019114       0.05254451      -0.01348659       0.08321084
H       -1.56934784      -1.85738960      -2.42573888       0.00000000       0.00000000       0.00324620       0.01283135      -0.04813987       0.10604373
H       -3.41981512       1.07451503      -2.31905298       0.00000000       0.00000000       0.01049269      -0.04558319      -0.00636940       0.08623621
H       -3.85187712       0.60318310      -0.65359202       0.00000000       0.00000000      -0.06748321       0.09391047       0.02489415       0.08749889
H       -1.15451485       4.30989111      -0.44683691       0.00000000       0.00000000      -0.02235671       0.00471550       0.03953761       0.07965546
H       -2.51340105       5.29390859      -1.04333107       0.00000000       0.00000000       0.01745688       0.02079284      -0.00299952       0.08576435
H       -2.29153197       4.02139281       1.71980589       0.00000000       0.00000000      -0.01265733       0.00680103       0.03835094       0.02770874
H       -2.18079697       5.74742475       1.36799122       0.00000000       0.00000000      -0.02683225      -0.01646760      -0.02150558       0.07010221
H       -4.47304938       5.06057449       2.18729465       0.00000000       0.00000000      -0.01609897      -0.01056950       0.02286648       0.06527600
H       -4.49959452       5.82093857       0.60749318       0.00000000       0.00000000      -0.00101781      -0.00800706      -0.04530225       0.06934825
H       -4.61108222       2.81776253       1.16190080       0.00000000       0.00000000      -0.03113066      -0.01086432       0.00504461       0.03025961
H       -5.93058214       3.82364623       0.55850394       0.00000000       0.00000000      -0.02905393       0.02227165      -0.00755576       0.07955817
H       -4.85049056       2.61548212      -1.33997025       0.00000000       0.00000000      -0.04083030       0.00586189       0.02601399       0.05903738
H       -4.56284361       4.35702567      -1.47812522       0.00000000       0.00000000      -0.03207845      -0.01507739      -0.00957988       0.09398369
H        1.31897574       0.84344637      -4.29468687       0.00000000       0.00000000      -0.01481131       0.02007638      -0.04110287       0.08496288
H        1.39838252      -0.42396909      -5.55183967       0.00000000       0.00000000       0.03907720       0.02360028       0.01112673       0.07049235
H       -0.25922578       2.13105544      -5.73744384       0.00000000       0.00000000      -0.00739520       0.01990741      -0.00467143       0.05346479
H        1.23251304       1.81288048      -6.62246247       0.00000000       0.00000000      -0.01683824      -0.03521267      -0.01106301       0.07137577
H       -0.81272202       1.32724189      -8.00610605       0.00000000       0.00000000      -0.03906334       0.01405756       0.00550029       0.07240070
H        0.17725620      -0.10441091      -7.77915973       0.00000000       0.00000000       0.01007352      -0.01649262       0.02186406       0.05895869
H       -2.31891528       0.62888215      -6.18049415       0.00000000       0.00000000      -0.01497504      -0.01703546       0.01517064       0.04972356
H       -2.19470482      -0.67703335      -7.36043555       0.00000000       0.00000000       0.01655775       0.00174544      -0.03631102       0.07577241
H       -1.95431831      -1.60578166      -5.06424271       0.00000000       0.00000000      -0.03386911      -0.00990232      -0.03238848       0.05298452
H       -0.44604985      -1.77729477      -5.97692668       0.00000000       0.00000000      -0.03266592      -0.05105828      -0.01677735       0.08134195
O        2.22850698       1.13877942      -0.91989596       0.00000000       0.00000000      -0.07676872       0.12326133      -0.02504045      -0.37674446
C        3.19057659       1.27704950      -0.14114375       0.00000000       0.00000000       0.06561319       0.13753713       0.04554084       0.25598027
C        3.40806580       0.18498687       0.92241977       0.00000000       0.00000000       0.02196309       0.01946721       0.01498073       0.04281515
O        2.39307466      -0.80934599       0.80586377       0.00000000       0.00000000      -0.05548265      -0.00506543       0.00094184      -0.22228949
C        2.77214715      -2.06148146       0.24545300       0.00000000       0.00000000       0.02842384      -0.04014446      -0.02638699       0.04587039
C        2.11826560      -2.28670714      -1.13009328       0.00000000       0.00000000       0.03481987       0.04117960       0.02583768       0.25369330
O        1.32573535      -1.43687297      -1.58167288       0.00000000       0.00000000       0.01266506       0.01510917      -0.07238906      -0.38993503
N        2.38279550      -3.38874069      -1.80896822       0.00000000       0.00000000      -0.00928835      -0.12282047      -0.03775667      -0.04351096
C        3.20826485      -4.50954183      -1.39623202       0.00000000       0.00000000      -0.04030900       0.05016929       0.02748776      -0.01912352
C        4.25490089      -4.84651879      -2.46297215       0.00000000       0.00000000      -0.01984983      -0.01019245       0.01667568      -0.07149629
C        3.63848402      -4.87886683      -3.86970770       0.00000000       0.00000000      -0.03231642       0.00971967      -0.03939133      -0.06982146
C        2.11597298      -4.83472132      -3.80114187       0.00000000       0.00000000      -0.05422140       0.04748243       0.00976663      -0.07107327
C        1.68416104      -3.56052485      -3.08679358       0.00000000       0.00000000      -0.01421906       0.02981989       0.01850224      -0.00333765
N        3.96238728       2.34940168      -0.15429306       0.00000000       0.00000000      -0.07065752      -0.06753897      -0.00817244      -0.04028882
C        3.71002444       3.41592942      -1.11694079       0.00000000       0.00000000       0.01441409       0.02127780       0.00721086      -0.01451139
C        4.81227987       3.42964342      -2.17500820       0.00000000       0.00000000      -0.03923474      -0.03057778      -0.00668752      -0.06828748
C        6.17428899       3.58048553      -1.49991557       0.00000000       0.00000000      -0.02319445      -0.00837107      -0.01318710      -0.07097222
C        6.36044328       2.47844352      -0.45840010       0.00000000       0.00000000       0.00319214      -0.00341203       0.01517054      -0.06873645
C        5.21334234       2.53036971       0.55548994       0.00000000       0.00000000      -0.02588840      -0.00792284       0.01159490      -0.02200084
H        4.40754816      -0.25639170       0.86438120       0.00000000       0.00000000       0.00867080      -0.03331181      -0.06910496       0.08627344
H        3.27866707       0.64033476       1.91309937       0.00000000       0.00000000       0.00093484      -0.01558945       0.01941229       0.10536132
H        3.86019746      -2.15001502       0.16626699       0.00000000       0.00000000       0.02873078       0.04431814      -0.00425802       0.08558582
H        2.40460852      -2.82699025       0.94230852       0.00000000       0.00000000       0.01399534      -0.04731317      -0.04400929       0.09349941
H        3.69721710      -4.29522260      -0.44895834       0.00000000       0.00000000       0.00829291      -0.00608022       0.00662793       0.05782564
H        2.54467994      -5.36732293      -1.25037974       0.00000000       0.00000000       0.04262675      -0.02097049       0.02815070       0.07923334
H        5.06708209      -4.12082700      -2.42787214       0.00000000       0.00000000      -0.01900253       0.00854027       0.00456655       0.05730991
H        4.67456458      -5.81688281      -2.20647083       0.00000000       0.00000000       0.04046159      -0.03554940      -0.00285795       0.07689247
H        3.97844956      -4.01894648      -4.44602459       0.00000000       0.00000000       0.04110696       0.03135258      -0.01089775       0.05441456
H        3.95223438      -5.77011077      -4.40698173       0.00000000       0.00000000       0.03342004      -0.04289134       0.01412048       0.07430487
H        1.70148285      -4.82067483      -4.80853905       0.00000000       0.00000000       0.00048212      -0.00094954      -0.01892629       0.06775400
H        1.72122647      -5.72270464      -3.30695052       0.00000000       0.00000000       0.03702830       0.02874376       0.03484651       0.06155462
H        1.91520172      -2.69074278      -3.71164384       0.00000000       0.00000000      -0.00111817       0.00040210       0.04330736       0.07081650
H        0.60530941      -3.54572874      -2.88765606       0.00000000       0.00000000       0.02348392      -0.03274649      -0.03013146       0.05109091
H        2.72372782       3.25498910      -1.55816713       0.00000000       0.00000000       0.04193207       0.01491432      -0.01027128       0.08079559
H        3.71913368       4.35981647      -0.56440865       0.00000000       0.00000000      -0.04466390       0.00513654      -0.03862918       0.07466599
H        4.77497358       2.49539565      -2.73695794       0.00000000       0.00000000       0.02490307      -0.03778496      -0.01698482       0.05136548
H        4.63144987       4.24462196      -2.87571867       0.00000000       0.00000000       0.03546949       0.01642512       0.05874079       0.07041676
H        6.96462979       3.52794867      -2.24685697       0.00000000       0.00000000       0.01581777      -0.01735557       0.00756332       0.07174045
H        6.23827894       4.55719251      -1.01805961       0.00000000       0.00000000       0.01134319      -0.00825263       0.00535922       0.06039109
H        6.36397737       1.50443480      -0.95209213       0.00000000       0.00000000       0.00600656      -0.00509915       0.00535674       0.04827293
H        7.30747445       2.59166881       0.06609214       0.00000000       0.00000000       0.01865248       0.06062296      -0.01269677       0.07570588
H        5.32583388       1.78193053       1.33686847       0.00000000       0.00000000       0.05731874      -0.01758905      -0.00270353       0.05484365
H        5.19018784       3.51946431       1.02190678       0.00000000       0.00000000       0.02978107      -0.01458419       0.02937421       0.08410099
