358
Properties=species:S:1:pos:R:3:initial_charges:R:1:initial_magmoms:R:1:forces:R:3:charge:R:1 energy=-11292.406473365078 free_energy=-11292.406473365078 dipole="-1.1813799500501847 0.6560599676844111 0.8709745061257986" pbc="F F F"
Pr      -0.21152792       0.07809329      -0.19768804       3.00000000       0.00000000       0.08502313       0.02054449       0.01761581       0.84412612
C        2.97497290      -1.05660508      -7.10139988       0.00000000       0.00000000       0.01888176       0.00146486      -0.00386163      -0.10846545
C        1.65314022      -1.03224213      -6.34383827       0.00000000       0.00000000      -0.03513656      -0.00003906      -0.01557337      -0.05298962
C        0.48690636      -1.33785995      -7.28093578       0.00000000       0.00000000      -0.05444392       0.00710076      -0.00396306      -0.06581090
C       -0.88897438      -1.31971022      -6.61125327       0.00000000       0.00000000      -0.03003131      -0.02755786       0.01728221      -0.06285513
C       -1.33896517       0.07809102      -6.16535211       0.00000000       0.00000000       0.02593684       0.03298165      -0.00733836      -0.06191301
C       -2.85367228       0.25044720      -6.28377931       0.00000000       0.00000000       0.00682556      -0.01615436       0.04977628      -0.06672018
C       -3.36492046       1.67044332      -6.02488015       0.00000000       0.00000000       0.01509305      -0.03837294       0.00416973      -0.07312783
C       -3.45949588       2.17500819      -4.57578865       0.00000000       0.00000000       0.03434446       0.01625390       0.04583689      -0.02468666
N       -2.20625156       2.26166543      -3.83531561       0.00000000       0.00000000      -0.01557531       0.00798315      -0.00703936      -0.04606671
C       -1.23049083       3.18762649      -4.40221123       0.00000000       0.00000000       0.03450299      -0.02379373       0.02085542      -0.01389754
C       -1.70717011       4.64855288      -4.39861318       0.00000000       0.00000000       0.02333220      -0.03292382       0.04575026      -0.07211663
C       -1.97598196       5.22224675      -3.00396840       0.00000000       0.00000000       0.00209554       0.01754936      -0.00686773      -0.06478610
C       -3.34784244       4.95940750      -2.37094485       0.00000000       0.00000000       0.00593193      -0.03433273       0.03254682      -0.05802499
C       -4.50451992       5.83653852      -2.88896847       0.00000000       0.00000000       0.04805332      -0.02378387      -0.00131581      -0.06773706
C       -5.51744244       5.13678711      -3.79683368       0.00000000       0.00000000      -0.00230987      -0.03384691      -0.00424023      -0.06377900
C       -6.27093863       4.00193985      -3.10517980       0.00000000       0.00000000      -0.01904852      -0.02905475       0.02628743      -0.05234981
C       -7.15120201       3.21330953      -4.06474520       0.00000000       0.00000000      -0.01831532       0.01630619      -0.03335798      -0.11075939
C       -1.93128987       1.63252617      -2.69680713       0.00000000       0.00000000       0.13442297       0.02614648       0.10261726       0.25112783
O       -0.79057011       1.56626147      -2.19326064       0.00000000       0.00000000      -0.06902186      -0.06812071      -0.02173500      -0.38553890
C       -3.04897308       0.87380652      -1.94603767       0.00000000       0.00000000       0.02779530       0.03641777      -0.07633767       0.09413652
C       -3.21331574      -0.46651169      -2.65620209       0.00000000       0.00000000       0.03174335      -0.03335693       0.00962071      -0.12396187
O       -2.58188500       0.62739892      -0.60561997       0.00000000       0.00000000       0.02661185       0.08280921      -0.08224773      -0.23490499
C       -3.36894058       1.17917969       0.45521669       0.00000000       0.00000000      -0.05855000      -0.01968350       0.07518937       0.09285546
C       -4.55308218       0.25566263       0.77980798       0.00000000       0.00000000      -0.04113538      -0.06400713      -0.02108939      -0.12605804
C       -2.42142667       1.30269718       1.66330905       0.00000000       0.00000000      -0.10026445       0.12500091       0.09729754       0.26678216
O       -1.38391090       0.60908442       1.67171305       0.00000000       0.00000000       0.00926147      -0.05251719      -0.02275868      -0.39640681
N       -2.72413779       2.10854224       2.67926563       0.00000000       0.00000000      -0.05146142       0.06560819       0.03350150      -0.05937223
C       -1.64895511       2.46854686       3.61126670       0.00000000       0.00000000      -0.01720363      -0.00503395       0.08933485      -0.02152099
C       -1.83407173       2.40141201       5.13559484       0.00000000       0.00000000       0.00642508      -0.00704101       0.01757473      -0.07276398
C       -1.70314504       1.07215267       5.88484051       0.00000000       0.00000000       0.01244310       0.09361320       0.00113725      -0.07044701
C       -2.93743549       0.18329670       5.81065002       0.00000000       0.00000000       0.02938536       0.03792448      -0.08070239      -0.06363628
C       -2.84458545      -0.99363962       6.78018941       0.00000000       0.00000000      -0.02818936       0.00471952      -0.02176461      -0.06477062
C       -4.04827167      -1.93066805       6.69174537       0.00000000       0.00000000      -0.02855811      -0.05396402      -0.02407297      -0.06727087
C       -4.11927551      -2.70019955       5.37482031       0.00000000       0.00000000      -0.04125898      -0.09771999      -0.05563027      -0.04799408
C       -5.23204567      -3.74200749       5.37108285       0.00000000       0.00000000      -0.03391793      -0.01927557       0.02203193      -0.11031684
C       -3.89245795       2.97771671       2.70342756       0.00000000       0.00000000       0.01204413       0.00179627       0.06884737      -0.02547964
C       -3.72691933       4.22899029       1.83353735       0.00000000       0.00000000      -0.07461346       0.02949946      -0.06078205      -0.06552051
C       -5.00719691       5.06142427       1.78249701       0.00000000       0.00000000      -0.06940514       0.00978420       0.05314984      -0.06702732
C       -6.12518005       4.43264727       0.95445981       0.00000000       0.00000000      -0.02424402      -0.03807223      -0.02064652      -0.05961269
C       -7.44697231       5.15909614       1.21050590       0.00000000       0.00000000       0.01766569      -0.00669134      -0.00381044      -0.06252462
C       -8.54555701       4.85348922       0.19365477       0.00000000       0.00000000      -0.02618421      -0.01833842      -0.02689460      -0.06234376
C       -8.87821046       3.37367915      -0.00083861       0.00000000       0.00000000      -0.00620275      -0.04128017       0.02426466      -0.05284790
C       -9.42422648       2.70263246       1.25533513       0.00000000       0.00000000       0.00431879       0.00643931      -0.01888389      -0.10541532
H        3.81665931      -0.88021006      -6.43618611       0.00000000       0.00000000       0.01629817       0.00132203       0.02930780       0.02620862
H        2.98805651      -0.29172317      -7.87262574       0.00000000       0.00000000      -0.01714149       0.02027726      -0.01646188       0.04513076
H        3.11970557      -2.01878613      -7.58359106       0.00000000       0.00000000       0.00098148      -0.04002979      -0.00146076       0.04570055
H        1.51507534      -0.05046205      -5.88743158       0.00000000       0.00000000      -0.02301288       0.04349796       0.03409262       0.02109213
H        1.67651329      -1.77402736      -5.54183603       0.00000000       0.00000000      -0.00867198      -0.01992828       0.02193169       0.02035969
H        0.64318426      -2.32560678      -7.71751008       0.00000000       0.00000000       0.01133882      -0.01238589      -0.00362212       0.04389493
H        0.48705539      -0.61742899      -8.10126376       0.00000000       0.00000000       0.01267729      -0.00620879       0.00025651       0.04418729
H       -0.89085746      -1.99977758      -5.75534419       0.00000000       0.00000000       0.01063216      -0.01302677      -0.00673182       0.02047480
H       -1.61217438      -1.70595812      -7.33270642       0.00000000       0.00000000       0.02223729       0.00987490      -0.00198389       0.04325690
H       -0.85947971       0.81861643      -6.80823939       0.00000000       0.00000000      -0.01094940       0.00652010      -0.02696542       0.04155840
H       -1.00982369       0.26342513      -5.14259023       0.00000000       0.00000000       0.03560099       0.02504216       0.06907665       0.01721577
H       -3.36943385      -0.46647234      -5.64089090       0.00000000       0.00000000       0.02826886       0.01784077       0.02351928       0.02608955
H       -3.12833006      -0.00186617      -7.30999459       0.00000000       0.00000000      -0.02501372       0.03108830       0.00125291       0.05810277
H       -4.39088565       1.72039205      -6.39818369       0.00000000       0.00000000       0.02937727       0.04170863      -0.03705814       0.06168713
H       -2.77518060       2.36780666      -6.61602549       0.00000000       0.00000000       0.03175478       0.03281367      -0.06590603       0.05846323
H       -4.16456200       1.55604503      -4.03552558       0.00000000       0.00000000      -0.08513600      -0.06912098       0.05064079       0.05222888
H       -3.88236922       3.18022814      -4.63641320       0.00000000       0.00000000       0.01895234      -0.04818353       0.03940669       0.08976950
H       -1.01352170       2.89139186      -5.43060155       0.00000000       0.00000000       0.00603386      -0.01941779       0.04890632       0.07405245
H       -0.31451060       3.08720315      -3.81395114       0.00000000       0.00000000      -0.05806418       0.03425392       0.00221933       0.07405685
H       -2.57076956       4.78045627      -5.04955680       0.00000000       0.00000000       0.01243080       0.01072540       0.05240599       0.06042179
H       -0.88902971       5.22102539      -4.83567674       0.00000000       0.00000000       0.01022475       0.02798473      -0.07996843       0.06111623
H       -1.82990888       6.30305561      -3.03858630       0.00000000       0.00000000      -0.00515515       0.00915186      -0.01996084       0.05019937
H       -1.21256094       4.81858728      -2.33478512       0.00000000       0.00000000       0.01395580      -0.04709755       0.01304300       0.02724753
H       -3.22785274       5.16369681      -1.30444355       0.00000000       0.00000000      -0.01604639      -0.00011906       0.04650417       0.02132876
H       -3.60149962       3.90191392      -2.46064605       0.00000000       0.00000000       0.02492611       0.07850299      -0.00192580       0.01761955
H       -4.09733140       6.69577352      -3.42325138       0.00000000       0.00000000       0.02673435      -0.01662541       0.00821628       0.04784851
H       -5.05584684       6.22689789      -2.03247946       0.00000000       0.00000000       0.00020005       0.03410756       0.02932129       0.03949320
H       -5.02946715       4.76750808      -4.69963084       0.00000000       0.00000000       0.02430227      -0.01393061      -0.04528405       0.02742787
H       -6.24675313       5.87973874      -4.11915559       0.00000000       0.00000000      -0.01316871       0.02245608      -0.03268701       0.05070468
H       -6.89197227       4.42447928      -2.31661650       0.00000000       0.00000000      -0.04200879       0.02861145       0.02332368       0.04236872
H       -5.56948508       3.31221296      -2.62752223       0.00000000       0.00000000       0.03167424      -0.02385694       0.02678810       0.00120319
H       -7.84274526       3.87584691      -4.57441998       0.00000000       0.00000000      -0.03118962       0.03088446      -0.01271660       0.05302736
H       -7.73328359       2.46605805      -3.53009747       0.00000000       0.00000000       0.01965165       0.00570683       0.00540768       0.03920481
H       -6.54886225       2.70956749      -4.81761459       0.00000000       0.00000000      -0.00404926      -0.01053406      -0.03434978       0.02709764
H       -3.98021234       1.45156881      -1.91651494       0.00000000       0.00000000       0.00619175      -0.06596318       0.05258743       0.06105638
H       -2.22308299      -0.84358662      -2.92674588       0.00000000       0.00000000      -0.02085156       0.02946340       0.09275485       0.08181521
H       -3.79272566      -0.37850900      -3.56980103       0.00000000       0.00000000      -0.02979645       0.08021291       0.05788308       0.07533511
H       -3.70435299      -1.17524449      -1.99693771       0.00000000       0.00000000       0.04109551       0.00416019       0.02125649       0.08791474
H       -3.72476420       2.17422698       0.16739728       0.00000000       0.00000000       0.00490967      -0.03834284      -0.05638218       0.07221716
H       -4.32979679      -0.38126575       1.63218567       0.00000000       0.00000000      -0.02713374       0.05038193       0.02120127       0.06373342
H       -4.74280444      -0.38404604      -0.07862167       0.00000000       0.00000000      -0.00174575       0.01170078       0.01770935       0.08256668
H       -5.46858564       0.80848559       0.97049614       0.00000000       0.00000000       0.04310318       0.01608348       0.08237850       0.07309167
H       -1.42094346       3.51726132       3.39742944       0.00000000       0.00000000      -0.00418585      -0.05099036      -0.07903116       0.06703237
H       -0.79744718       1.85748077       3.33012040       0.00000000       0.00000000      -0.03446076      -0.01814775       0.02250845       0.07445832
H       -2.76889590       2.87155412       5.43602629       0.00000000       0.00000000      -0.00983035      -0.01104527      -0.08103662       0.06649354
H       -1.02544755       3.03452506       5.51272799       0.00000000       0.00000000      -0.09478056       0.03250960       0.04037572       0.05114333
H       -1.53171669       1.32526861       6.93419303       0.00000000       0.00000000      -0.05152149       0.00661867      -0.00482292       0.05456732
H       -0.81816233       0.52894251       5.55465583       0.00000000       0.00000000      -0.00251535       0.01084979      -0.09082382       0.02883556
H       -3.06240496      -0.16784840       4.78501810       0.00000000       0.00000000      -0.06122606      -0.01259474       0.00018781       0.02044105
H       -3.81340185       0.77287914       6.07486821       0.00000000       0.00000000      -0.10405436       0.04859107      -0.01550987       0.04311539
H       -2.77828630      -0.60563159       7.79822751       0.00000000       0.00000000      -0.01444962       0.01987963      -0.03095524       0.04666972
H       -1.92845435      -1.55556199       6.59044098       0.00000000       0.00000000       0.03065791      -0.04077763       0.00840948       0.02590160
H       -4.96746812      -1.35787567       6.81870898       0.00000000       0.00000000      -0.01058150       0.02302582       0.01386969       0.04374756
H       -3.99592852      -2.64746224       7.51032996       0.00000000       0.00000000       0.01967264      -0.03567092       0.03601312       0.04953444
H       -3.16695714      -3.21079701       5.20112002       0.00000000       0.00000000       0.02861082      -0.00194208       0.03534767       0.01479343
H       -4.29013395      -2.00264178       4.55182906       0.00000000       0.00000000      -0.01799092       0.04647669      -0.01558733       0.01394230
H       -5.04415589      -4.49727091       6.13031324       0.00000000       0.00000000      -0.02447212       0.01887382      -0.00275594       0.04697655
H       -5.30239366      -4.23881992       4.40295250       0.00000000       0.00000000       0.01716121       0.04908942       0.06531334       0.03194018
H       -6.19024470      -3.27617518       5.58680049       0.00000000       0.00000000       0.00979519      -0.00792592      -0.00562077       0.04596359
H       -4.05044314       3.28389162       3.74087818       0.00000000       0.00000000       0.03241831      -0.02101515      -0.07782627       0.09499361
H       -4.77136302       2.41184932       2.40147913       0.00000000       0.00000000       0.01268778      -0.03014405      -0.04209011       0.06750993
H       -3.43239089       3.95655595       0.81921652       0.00000000       0.00000000       0.05587135       0.03803855      -0.01019339       0.02990114
H       -2.93492806       4.85286354       2.24458926       0.00000000       0.00000000       0.05448962      -0.06161550       0.02823685       0.04301707
H       -4.78023195       6.04005023       1.35347905       0.00000000       0.00000000       0.02888075      -0.01942635       0.06427758       0.04802725
H       -5.35991124       5.22633566       2.80239784       0.00000000       0.00000000      -0.02068618       0.00190045      -0.00980568       0.04835140
H       -6.24520526       3.37749834       1.21226938       0.00000000       0.00000000       0.00118020       0.04116077      -0.01299500       0.02046588
H       -5.85534910       4.49155131      -0.10299853       0.00000000       0.00000000      -0.07255514       0.00478166       0.00097095       0.03205671
H       -7.26377619       6.23488136       1.18660935       0.00000000       0.00000000      -0.00642633       0.01654441       0.01459033       0.03915835
H       -7.79617691       4.91105212       2.21386991       0.00000000       0.00000000      -0.00383187       0.00297124      -0.00000573       0.04089893
H       -8.25845680       5.27143355      -0.77300842       0.00000000       0.00000000       0.02474877       0.02221697      -0.03709770       0.03047973
H       -9.44770602       5.37606300       0.51162331       0.00000000       0.00000000      -0.03715981      -0.00223986      -0.00160935       0.04903743
H       -7.99199840       2.83642712      -0.35229609       0.00000000       0.00000000      -0.00945378       0.00206307       0.00028304       0.01378723
H       -9.63231792       3.30425748      -0.78740571       0.00000000       0.00000000       0.01426830      -0.01207133       0.00523211       0.03966101
H       -8.67741608       2.67463790       2.04675520       0.00000000       0.00000000      -0.01884081      -0.01223144      -0.00524143       0.02640488
H       -9.73590592       1.68201471       1.03609074       0.00000000       0.00000000       0.03309776       0.04851228       0.01859968       0.03407406
H      -10.29076016       3.24562471       1.62292829       0.00000000       0.00000000       0.01508984      -0.00403405       0.00373555       0.04866441
C       -6.45218840       4.28069090       5.91014456       0.00000000       0.00000000      -0.02716601       0.00932277      -0.01948197      -0.10760816
C       -5.03513356       4.46235352       6.43468485       0.00000000       0.00000000      -0.00049614       0.04683760      -0.00238233      -0.05328606
C       -4.39652307       5.75386889       5.92770536       0.00000000       0.00000000      -0.01671207       0.12161778      -0.06753652      -0.06665187
C       -2.87451762       5.83747338       6.14908689       0.00000000       0.00000000       0.07934284      -0.03148348      -0.00755961      -0.06796848
C       -2.16182874       6.13391993       4.82777056       0.00000000       0.00000000       0.02434928       0.01476763      -0.00399490      -0.06601104
C       -0.63715826       5.98344260       4.82044100       0.00000000       0.00000000       0.04412883      -0.02383471      -0.05940211      -0.06834833
C       -0.05909558       6.23160486       3.40585808       0.00000000       0.00000000       0.03007778      -0.01160118      -0.03105766      -0.07837178
C        0.81451867       5.10429751       2.78923472       0.00000000       0.00000000      -0.05014634      -0.02659366       0.02144554      -0.01468894
N        0.27195970       4.48018424       1.57238909       0.00000000       0.00000000      -0.00798948       0.14350392       0.01165380      -0.07933626
C       -0.41605966       5.33375195       0.59768454       0.00000000       0.00000000       0.05869317       0.00662650       0.06635921      -0.00758360
C        0.45669918       6.50017605       0.10758660       0.00000000       0.00000000      -0.00127004      -0.01596566      -0.02822999      -0.07542461
C        1.38157348       6.18397979      -1.07452682       0.00000000       0.00000000      -0.02792498       0.08297416       0.04082215      -0.06862973
C        2.55987371       5.23500297      -0.81183956       0.00000000       0.00000000       0.00180761       0.02164973      -0.03255930      -0.05471106
C        3.88800552       5.94943600      -0.54587578       0.00000000       0.00000000       0.01861122       0.01528029       0.00734252      -0.06316411
C        3.87247991       6.81396432       0.71104426       0.00000000       0.00000000      -0.00469105      -0.02632323      -0.02745467      -0.05596582
C        5.24527100       7.39771708       1.03138481       0.00000000       0.00000000       0.01274908       0.00784607      -0.02471636      -0.05662747
C        5.20390210       8.28462969       2.26879279       0.00000000       0.00000000      -0.01033897       0.00541283      -0.00646695      -0.10803546
C        0.47827918       3.20747943       1.20799413       0.00000000       0.00000000      -0.05097983       0.03865571      -0.02696952       0.25459779
O       -0.27656929       2.63972370       0.39968577       0.00000000       0.00000000       0.01519624      -0.06972892      -0.04757887      -0.38992037
C        1.74516539       2.42488034       1.63745811       0.00000000       0.00000000       0.04410105      -0.04053685       0.10525242       0.09099601
C        1.62712084       1.66663860       2.96351560       0.00000000       0.00000000      -0.00361180      -0.03147071       0.04621955      -0.13217935
O        1.87914408       1.47352517       0.57499636       0.00000000       0.00000000      -0.06906133      -0.05448119      -0.11265245      -0.23421977
C        3.17028058       1.22557471       0.02813421       0.00000000       0.00000000       0.05949521      -0.02185292      -0.00205654       0.09506266
C        4.04072633       0.48382225       1.05590776       0.00000000       0.00000000      -0.14828223      -0.02904354       0.02978847      -0.13385106
C        2.89449757       0.35571521      -1.22126965       0.00000000       0.00000000       0.07327988       0.03258154      -0.00023605       0.26072118
O        1.73835606      -0.07871425      -1.40993076       0.00000000       0.00000000      -0.06912707      -0.05076631       0.04499771      -0.38291541
N        3.89515780       0.07489881      -2.04429797       0.00000000       0.00000000       0.03631293       0.00342628      -0.05776715      -0.05213001
C        3.66512672      -0.88021651      -3.13499948       0.00000000       0.00000000       0.01849004       0.05890469       0.06907360      -0.01657941
C        4.63506911      -2.06518772      -3.05834156       0.00000000       0.00000000      -0.01452203      -0.02347324      -0.05651860      -0.07114370
C        4.04143263      -3.38372768      -3.56414456       0.00000000       0.00000000      -0.01855813      -0.02842939       0.03666987      -0.06410652
C        4.91083338      -4.55371912      -3.08292733       0.00000000       0.00000000      -0.00463531       0.01405894      -0.05626262      -0.06745775
C        4.20109949      -5.90578890      -3.00480676       0.00000000       0.00000000       0.02981809       0.05336555       0.00773436      -0.05858955
C        5.03879007      -6.94449954      -2.25127771       0.00000000       0.00000000      -0.01987408      -0.00014760       0.00297735      -0.06695237
C        5.36838253      -6.54739244      -0.80726166       0.00000000       0.00000000       0.00473333      -0.00669499       0.01320891      -0.05260531
C        5.68831890      -7.75482224       0.06580181       0.00000000       0.00000000       0.03844051       0.00157911      -0.00551329      -0.10845420
C        5.24134413       0.61715985      -1.93811022       0.00000000       0.00000000       0.05311418      -0.00102791       0.01803348      -0.02979248
C        5.60388332       1.71679053      -2.94052429       0.00000000       0.00000000       0.03003880      -0.00010132      -0.05161726      -0.06708349
C        7.06637128       2.11534493      -2.70658181       0.00000000       0.00000000       0.03007229       0.02950697      -0.01385748      -0.07021624
C        7.25138703       3.03420440      -1.49802764       0.00000000       0.00000000      -0.04100935       0.00663674       0.02952155      -0.06094454
C        8.69087928       3.02840422      -0.98605592       0.00000000       0.00000000       0.01813843       0.04499923      -0.04333103      -0.06509092
C        8.85651413       3.69345072       0.37991592       0.00000000       0.00000000       0.00347431      -0.00318017       0.01666784      -0.06360931
C        8.16094367       2.96886716       1.53554268       0.00000000       0.00000000      -0.01225208       0.02206312      -0.01703353      -0.04967136
C        8.60627088       1.52134822       1.70778010       0.00000000       0.00000000       0.00944479       0.01808855       0.02014534      -0.10487417
H       -6.85063577       3.31525056       6.20611195       0.00000000       0.00000000      -0.02013637      -0.04837843       0.03924590       0.03978972
H       -6.46711487       4.33936024       4.82336579       0.00000000       0.00000000      -0.02445472      -0.01491993      -0.04355668       0.02377512
H       -7.11054515       5.04811202       6.29855922       0.00000000       0.00000000      -0.03443132       0.09816276       0.02986844       0.05035683
H       -4.44123492       3.60235801       6.11953018       0.00000000       0.00000000       0.07072738      -0.04886478      -0.00897151       0.01194679
H       -5.04518741       4.46908032       7.52221201       0.00000000       0.00000000       0.00590013      -0.03126402       0.08650210       0.04458405
H       -4.88689357       6.59865218       6.40799365       0.00000000       0.00000000      -0.02423060       0.00469533       0.05445971       0.04855787
H       -4.60505457       5.85539259       4.85822855       0.00000000       0.00000000      -0.00021776      -0.05267033       0.01664437       0.02742809
H       -2.50074985       4.90467057       6.57163504       0.00000000       0.00000000      -0.01310290      -0.06420690      -0.02059482       0.03295553
H       -2.64817680       6.61506669       6.87098182       0.00000000       0.00000000       0.06522329       0.11482409       0.06745563       0.04748275
H       -2.41382794       7.15160596       4.52934872       0.00000000       0.00000000       0.00641587       0.04734703      -0.04146245       0.04418956
H       -2.57653444       5.45981179       4.08102465       0.00000000       0.00000000      -0.00504284      -0.06930699      -0.08727534       0.02418970
H       -0.35913097       4.98917250       5.16880020       0.00000000       0.00000000      -0.01530456      -0.04418212       0.07315948       0.02744914
H       -0.21309140       6.69960788       5.52324921       0.00000000       0.00000000       0.03048489      -0.03734076      -0.00846442       0.05690088
H        0.54185512       7.13719630       3.43984005       0.00000000       0.00000000       0.04414341       0.03241106      -0.01173412       0.06295909
H       -0.89699999       6.45252456       2.75229597       0.00000000       0.00000000       0.01793000       0.01753878      -0.02874435       0.06068172
H        0.93853722       4.31289686       3.52696212       0.00000000       0.00000000       0.06532596      -0.00324254       0.01261598       0.05322576
H        1.80359974       5.51482840       2.57471796       0.00000000       0.00000000       0.08334535      -0.02858210      -0.02780947       0.06606676
H       -1.33221532       5.73460927       1.03214726       0.00000000       0.00000000      -0.01910385      -0.03655409      -0.04549340       0.05534525
H       -0.69497918       4.68887292      -0.23714344       0.00000000       0.00000000       0.02185811       0.02712608       0.02690684       0.07572655
H        1.02379709       6.91330717       0.94006333       0.00000000       0.00000000      -0.01691341      -0.02284856      -0.06974944       0.06393419
H       -0.22965781       7.27851769      -0.23220149       0.00000000       0.00000000       0.00894638       0.00861737       0.02194565       0.05902634
H        1.78044986       7.13322099      -1.43451312       0.00000000       0.00000000       0.00894290      -0.00045733      -0.03175789       0.05985739
H        0.76735215       5.77982728      -1.87927420       0.00000000       0.00000000      -0.00991088      -0.05418716      -0.01388030       0.03623853
H        2.69190623       4.61142620      -1.69853138       0.00000000       0.00000000       0.01093042      -0.06538153      -0.00912954       0.02438917
H        2.32763346       4.57154050       0.02153576       0.00000000       0.00000000      -0.01467363       0.02637326      -0.00674845       0.01032028
H        4.13501429       6.57563863      -1.40484139       0.00000000       0.00000000      -0.02626120       0.00584517       0.00296753       0.04439993
H        4.68829222       5.20749498      -0.45673741       0.00000000       0.00000000      -0.05777093      -0.02930005       0.02186072       0.02603893
H        3.53426331       6.21225151       1.56065510       0.00000000       0.00000000       0.01808721      -0.02068232       0.04195101       0.00959108
H        3.16662710       7.63228134       0.57541613       0.00000000       0.00000000      -0.02141981       0.05594546       0.02758890       0.03818900
H        5.58933497       7.98644569       0.18044866       0.00000000       0.00000000       0.00989334       0.00638122      -0.01843139       0.04123637
H        5.96001262       6.58569065       1.18010539       0.00000000       0.00000000       0.02459906      -0.01635514       0.03139471       0.02997283
H        4.52253202       9.11761145       2.11295052       0.00000000       0.00000000      -0.00140326       0.00975165       0.01675163       0.04055789
H        6.18962809       8.68826048       2.47772019       0.00000000       0.00000000       0.01004137      -0.00363413       0.01324550       0.05036115
H        4.87008819       7.72487192       3.14095755       0.00000000       0.00000000       0.01531983      -0.00192080      -0.00331488       0.03011749
H        2.60054390       3.11170847       1.64907023       0.00000000       0.00000000       0.00949413       0.01270798       0.05551392       0.06828620
H        0.96533901       0.81218831       2.79460595       0.00000000       0.00000000       0.02237472       0.01688081       0.02695568       0.08838460
H        1.23144765       2.28785061       3.76289952       0.00000000       0.00000000       0.03370658       0.00811679      -0.05002681       0.06074377
H        2.59457383       1.29812392       3.29677209       0.00000000       0.00000000      -0.03649891       0.04072521      -0.10216561       0.09082175
H        3.63451753       2.16866716      -0.29300797       0.00000000       0.00000000      -0.03598944       0.07073726       0.04363261       0.06518232
H        4.83815008      -0.10457974       0.61232190       0.00000000       0.00000000      -0.05982759       0.03850518      -0.01543417       0.06420245
H        3.37304034      -0.18715067       1.59228289       0.00000000       0.00000000       0.04874067      -0.03921384      -0.01609921       0.09053909
H        4.48582105       1.18231770       1.76139712       0.00000000       0.00000000       0.03068560       0.02269820      -0.05892842       0.06735152
H        3.75015719      -0.36321056      -4.09211355       0.00000000       0.00000000       0.00216870       0.01551321       0.02797098       0.07519041
H        2.63881227      -1.23498540      -3.02135577       0.00000000       0.00000000       0.00534457       0.02063739      -0.04505361       0.08121516
H        4.92280596      -2.20937896      -2.01449141       0.00000000       0.00000000      -0.03125618       0.02381901      -0.00256733       0.04273073
H        5.53669404      -1.86191471      -3.63414329       0.00000000       0.00000000       0.05573619       0.04931836       0.02533011       0.05744202
H        3.99158997      -3.37449760      -4.65193350       0.00000000       0.00000000      -0.04443397      -0.01790786      -0.01765326       0.04984395
H        3.01919865      -3.48998954      -3.18984464       0.00000000       0.00000000       0.06431602      -0.02723535       0.03070998       0.02832067
H        5.28274753      -4.31213137      -2.08636776       0.00000000       0.00000000       0.01326770      -0.00286263      -0.00491342       0.03319861
H        5.77426447      -4.64918881      -3.74191025       0.00000000       0.00000000       0.03205686       0.00135310       0.05172879       0.04784604
H        4.00476867      -6.27672402      -4.01091049       0.00000000       0.00000000      -0.03626685       0.00969066      -0.01871087       0.04054461
H        3.23476362      -5.79364891      -2.50159098       0.00000000       0.00000000       0.04078858       0.02832833      -0.01302776       0.01876781
H        5.96638090      -7.11735532      -2.79661508       0.00000000       0.00000000       0.01727749      -0.02315796       0.00580271       0.04444482
H        4.48649292      -7.88626557      -2.24275205       0.00000000       0.00000000      -0.01060694       0.01115837       0.01146877       0.04355389
H        4.52210971      -6.01246107      -0.36711594       0.00000000       0.00000000      -0.00531357      -0.00588595      -0.03248359       0.01832028
H        6.22641429      -5.87339070      -0.79162169       0.00000000       0.00000000       0.02242637       0.01116857      -0.02035926       0.02669669
H        4.84363918      -8.43761624       0.10525540       0.00000000       0.00000000      -0.01734894      -0.01506916      -0.00501280       0.03694505
H        5.92581166      -7.44094495       1.08094876       0.00000000       0.00000000      -0.00520295      -0.01236826      -0.02778239       0.03390624
H        6.54384627      -8.29324355      -0.33080310       0.00000000       0.00000000       0.00339373      -0.01583429      -0.01432130       0.04863340
H        5.94313841      -0.20441104      -2.08715902       0.00000000       0.00000000      -0.01799248      -0.03901980       0.00336996       0.08172730
H        5.40654993       1.01471265      -0.94184402       0.00000000       0.00000000       0.00118910      -0.00274176      -0.02369019       0.06689994
H        4.95847708       2.58717923      -2.82104909       0.00000000       0.00000000      -0.05817001      -0.00417365       0.01943404       0.04148915
H        5.49507454       1.35209385      -3.95909578       0.00000000       0.00000000      -0.05230079      -0.05907058      -0.05800722       0.05316908
H        7.46171839       2.61197897      -3.59220930       0.00000000       0.00000000      -0.04546862       0.01007941      -0.00439542       0.05796611
H        7.65250508       1.20491071      -2.56374950       0.00000000       0.00000000       0.02597294       0.01713010      -0.01998730       0.04294170
H        6.59026403       2.71906938      -0.68820393       0.00000000       0.00000000       0.00123338      -0.04107991      -0.00229464       0.02000344
H        6.96424566       4.04915033      -1.77434004       0.00000000       0.00000000      -0.00712653       0.05623458       0.03308206       0.03702058
H        9.32581788       3.54913097      -1.70306097       0.00000000       0.00000000       0.00420685      -0.00280210      -0.02599376       0.04371274
H        9.04854077       2.00155125      -0.92514766       0.00000000       0.00000000       0.02376186      -0.04554043      -0.01543430       0.04090772
H        8.48181496       4.71822538       0.33181921       0.00000000       0.00000000      -0.01045980       0.00635412      -0.00759207       0.03377600
H        9.92262654       3.74712792       0.60419443       0.00000000       0.00000000       0.00277224      -0.00529053      -0.00529398       0.04750415
H        7.07556673       3.00120497       1.40203736       0.00000000       0.00000000      -0.01070003       0.01412029       0.00211176       0.01097954
H        8.38940348       3.51851142       2.44950211       0.00000000       0.00000000       0.00376175       0.00000996       0.04176497       0.03523571
H        8.30284582       0.91092083       0.86190426       0.00000000       0.00000000      -0.02983197      -0.03351945      -0.02218135       0.02740739
H        8.17095840       1.09539197       2.60919033       0.00000000       0.00000000      -0.00971585      -0.00484065       0.01940991       0.02662412
H        9.68693419       1.46492568       1.79605235       0.00000000       0.00000000       0.02112995       0.02218127       0.00853735       0.04923826
C        5.47220370       4.30714735       4.16372917       0.00000000       0.00000000       0.01765371       0.02041160      -0.02492811      -0.11102468
C        4.69036400       3.00294407       4.25697555       0.00000000       0.00000000       0.05244138      -0.03721571       0.03140957      -0.04873835
C        5.34651422       2.01085902       5.22321125       0.00000000       0.00000000       0.00931539      -0.04709712       0.02432451      -0.06884220
C        4.40788641       0.90500515       5.72966568       0.00000000       0.00000000       0.00651643       0.00934262       0.01635219      -0.06749204
C        4.36974564      -0.37184507       4.88220776       0.00000000       0.00000000      -0.03529775       0.03895052      -0.00851727      -0.06467548
C        3.20741944      -1.27640446       5.30987031       0.00000000       0.00000000      -0.04710596       0.02994335       0.01771274      -0.06672723
C        3.35545558      -2.75236841       4.89704262       0.00000000       0.00000000       0.02839610       0.07271649       0.00336235      -0.07822529
C        2.26169028      -3.30412566       3.97026143       0.00000000       0.00000000       0.03869507      -0.01268610       0.02461016      -0.02283341
N        2.26723645      -2.70302953       2.64327076       0.00000000       0.00000000      -0.14838257       0.08230903      -0.04048987      -0.06040047
C        3.46668552      -2.98286313       1.85170481       0.00000000       0.00000000      -0.08614217       0.01000327       0.03768540      -0.00805651
C        3.28806349      -3.06809449       0.33193909       0.00000000       0.00000000      -0.07019719      -0.00763403      -0.03791884      -0.06701946
C        2.02899977      -3.71379300      -0.28605562       0.00000000       0.00000000      -0.04318803      -0.03381833      -0.05309737      -0.05924840
C        1.19876835      -4.74909514       0.48503360       0.00000000       0.00000000       0.03731699       0.02523305       0.00780566      -0.05794359
C        1.69194513      -6.20273986       0.51215336       0.00000000       0.00000000       0.02757537       0.01461334       0.00473616      -0.06704280
C        2.10992343      -6.69121977       1.89836790       0.00000000       0.00000000      -0.02324077      -0.02523669       0.02654787      -0.06337026
C        0.96774969      -6.76456876       2.91300679       0.00000000       0.00000000      -0.01528331      -0.03819505       0.02816316      -0.05009945
C        1.44563769      -7.32754601       4.24802036       0.00000000       0.00000000      -0.01987028      -0.02511497      -0.04618504      -0.11072201
C        1.22389571      -2.03236681       2.14754080       0.00000000       0.00000000       0.07349486      -0.09437820      -0.00718414       0.25418321
O        1.32105732      -1.22154929       1.20762316       0.00000000       0.00000000      -0.01135369       0.02042759       0.04821019      -0.36097414
C       -0.19531270      -2.38433292       2.65353505       0.00000000       0.00000000       0.07090948       0.11264821      -0.00731020       0.09230127
C       -0.65836304      -1.55603905       3.85133177       0.00000000       0.00000000      -0.01179195      -0.09546982      -0.01361819      -0.13243059
O       -1.04857927      -2.12362938       1.53385460       0.00000000       0.00000000       0.00505944      -0.11666062       0.06347925      -0.25570566
C       -1.85347536      -3.21555440       1.09647367       0.00000000       0.00000000      -0.08822703      -0.02540416      -0.08900225       0.09236882
C       -3.23191182      -3.20534968       1.78188386       0.00000000       0.00000000       0.03146655      -0.06015030      -0.00644498      -0.12979631
C       -1.92136343      -3.07355178      -0.44404898       0.00000000       0.00000000       0.06463745      -0.03936938      -0.02034878       0.24824901
O       -1.38591361      -2.06292368      -0.95231790       0.00000000       0.00000000      -0.00816661       0.01605974      -0.02845703      -0.38981204
N       -2.52743651      -4.01638070      -1.16291506       0.00000000       0.00000000       0.04271252      -0.02840042      -0.01180548      -0.05249047
C       -2.60049730      -3.89820831      -2.62607556       0.00000000       0.00000000      -0.10875617       0.08734335       0.07160517      -0.01659919
C       -3.93631145      -4.29600005      -3.27225027       0.00000000       0.00000000      -0.03981168       0.02775214      -0.01483210      -0.07718275
C       -5.07262794      -3.27631908      -3.20857696       0.00000000       0.00000000      -0.02848195       0.09821396       0.04325195      -0.07234188
C       -5.68964375      -3.02717150      -1.82793047       0.00000000       0.00000000       0.00412756      -0.08474717      -0.05897653      -0.06018403
C       -6.60943869      -1.80228246      -1.86596993       0.00000000       0.00000000       0.02615485       0.03557473      -0.04509085      -0.06209895
C       -7.72295558      -1.77515876      -0.81484322       0.00000000       0.00000000       0.00437842      -0.01713668       0.00347581      -0.06770887
C       -7.30631540      -2.23137824       0.58413065       0.00000000       0.00000000      -0.00491993       0.02072468       0.08144371      -0.05393066
C       -8.27563777      -1.71030376       1.63945879       0.00000000       0.00000000      -0.01953014      -0.01266182       0.01335535      -0.11037656
C       -3.00364463      -5.28505932      -0.62325968       0.00000000       0.00000000       0.03177702      -0.00262793       0.01381047      -0.02144591
C       -2.41563068      -6.51996883      -1.31572868       0.00000000       0.00000000      -0.03683918      -0.02294546      -0.01629338      -0.06967875
C       -3.09312902      -7.78760460      -0.78639190       0.00000000       0.00000000       0.00111276      -0.04850124       0.01195261      -0.06882531
C       -2.63219455      -8.19381004       0.61381686       0.00000000       0.00000000      -0.04996850      -0.00821879      -0.01395391      -0.05983498
C       -3.60777594      -9.17548897       1.26160174       0.00000000       0.00000000      -0.01201302      -0.00240584      -0.01948942      -0.06374978
C       -3.23112340      -9.55404442       2.69383171       0.00000000       0.00000000       0.00231677      -0.00647843      -0.03260846      -0.06315676
C       -3.18450015      -8.37498562       3.66671409       0.00000000       0.00000000      -0.02807488       0.02299866       0.00495360      -0.05270445
C       -4.48511174      -7.58016784       3.71506398       0.00000000       0.00000000      -0.03675522       0.02785401       0.01584104      -0.10351885
H        5.03864017       4.96950710       3.41832948       0.00000000       0.00000000      -0.03141933       0.00590479      -0.02996023       0.03159745
H        6.50382700       4.11854711       3.88583903       0.00000000       0.00000000       0.04647844      -0.02859338       0.00038970       0.04885979
H        5.46646211       4.82548331       5.11760460       0.00000000       0.00000000       0.00925427      -0.01578572       0.03710198       0.04742919
H        4.61766511       2.56436870       3.25734645       0.00000000       0.00000000       0.00938064      -0.01764453       0.01821926       0.00487296
H        3.67733925       3.22500933       4.59911688       0.00000000       0.00000000      -0.03338796       0.01441295       0.03008610       0.02037920
H        5.70181112       2.57117650       6.08963721       0.00000000       0.00000000      -0.04338861       0.01837461      -0.03625300       0.05339560
H        6.22454779       1.56475888       4.75246091       0.00000000       0.00000000      -0.01172847       0.00741900       0.00987561       0.04048387
H        3.39898253       1.31190953       5.82038132       0.00000000       0.00000000      -0.06527310       0.02269650      -0.00183761       0.02684633
H        4.72473334       0.61761617       6.73256617       0.00000000       0.00000000      -0.00733770      -0.00118694       0.01250417       0.04846441
H        5.31056129      -0.90041752       5.01762462       0.00000000       0.00000000       0.08954439      -0.04815021       0.01615510       0.04577333
H        4.27991998      -0.12886352       3.82322071       0.00000000       0.00000000       0.01304535       0.01207131      -0.05030496       0.01829947
H        2.27959326      -0.86707527       4.90455309       0.00000000       0.00000000      -0.04066020       0.02012127      -0.01749569       0.01890946
H        3.13188466      -1.22037471       6.39729034       0.00000000       0.00000000      -0.00733243      -0.02800535      -0.03931557       0.05436242
H        3.32023823      -3.36975623       5.79236264       0.00000000       0.00000000       0.01467265      -0.06871173       0.03940608       0.06856409
H        4.33304265      -2.90732209       4.44975997       0.00000000       0.00000000       0.08688766      -0.02579053      -0.08644900       0.05970836
H        1.29750677      -3.13423811       4.44013439       0.00000000       0.00000000      -0.00008986      -0.05629521       0.02548603       0.06119259
H        2.41747073      -4.38259837       3.88053932       0.00000000       0.00000000      -0.01408235      -0.01647652      -0.04364738       0.07514102
H        3.83995743      -3.94071603       2.21708674       0.00000000       0.00000000      -0.06174476      -0.06720231       0.02017769       0.07917687
H        4.24474146      -2.24080261       2.05011622       0.00000000       0.00000000      -0.00702150       0.01307823       0.07732198       0.06450265
H        4.17100677      -3.59583766      -0.02673748       0.00000000       0.00000000       0.05056215      -0.08906696       0.02659771       0.06069278
H        3.32703527      -2.05980337      -0.07870703       0.00000000       0.00000000       0.02129230       0.03945772      -0.02833028       0.04812882
H        2.33285020      -4.16815591      -1.23089576       0.00000000       0.00000000       0.00042702      -0.00019258       0.03009060       0.05451391
H        1.34201598      -2.89593384      -0.54613769       0.00000000       0.00000000      -0.04642536       0.03719025       0.00019261       0.03955561
H        0.22096634      -4.73883253      -0.00063618       0.00000000       0.00000000      -0.01311453      -0.01681644      -0.01734069       0.01317971
H        1.06069799      -4.41586023       1.50852013       0.00000000       0.00000000       0.01006730      -0.03027906      -0.02519332       0.02441917
H        2.52979699      -6.32630130      -0.16851906       0.00000000       0.00000000       0.05777615      -0.00353805      -0.05106623       0.05379686
H        0.89294909      -6.84933836       0.15017811       0.00000000       0.00000000      -0.01963712      -0.08813362      -0.00819972       0.03476528
H        2.90233004      -6.05116116       2.28822979       0.00000000       0.00000000       0.07007335       0.02951252       0.01875476       0.02448573
H        2.52737692      -7.69206802       1.79299705       0.00000000       0.00000000       0.03423582      -0.02680992       0.00223050       0.05309702
H        0.17806832      -7.40602526       2.52035290       0.00000000       0.00000000      -0.02203869      -0.03466048      -0.03848412       0.03781058
H        0.52744557      -5.77599475       3.08082853       0.00000000       0.00000000       0.02334743       0.02156779      -0.01928077      -0.00050892
H        1.76147592      -8.35855128       4.12635986       0.00000000       0.00000000       0.01403881      -0.03613844       0.00170180       0.05272605
H        0.65400806      -7.30204025       4.99246855       0.00000000       0.00000000      -0.02459954       0.00211382      -0.03542439       0.04308049
H        2.29196444      -6.76267621       4.62913085       0.00000000       0.00000000       0.04105076       0.05053241       0.03277461       0.03086185
H       -0.21812841      -3.45658436       2.90023660       0.00000000       0.00000000      -0.05800814       0.13963700      -0.00833010       0.05226811
H       -1.01874524      -0.59900233       3.48946531       0.00000000       0.00000000       0.01856474       0.02477746      -0.04773959       0.08968911
H        0.13941655      -1.39319799       4.56900437       0.00000000       0.00000000       0.01786807       0.00828872      -0.01173802       0.05770732
H       -1.47250130      -2.06821144       4.35560769       0.00000000       0.00000000      -0.02072742       0.03957567       0.03176656       0.07650334
H       -1.34266369      -4.15904922       1.33307999       0.00000000       0.00000000       0.00573029       0.07989829       0.02112028       0.05854211
H       -3.97875044      -2.68922345       1.19147744       0.00000000       0.00000000      -0.03555211       0.02518878      -0.11163540       0.05726981
H       -3.15392694      -2.69896663       2.73788601       0.00000000       0.00000000       0.06057365       0.04410749       0.02246040       0.07839951
H       -3.58771320      -4.21374133       1.98080380       0.00000000       0.00000000      -0.00250257       0.07684713      -0.03444029       0.06799258
H       -1.82101100      -4.52759308      -3.06017942       0.00000000       0.00000000       0.08660940      -0.02472639       0.06140592       0.06712300
H       -2.37143888      -2.86604798      -2.88216539       0.00000000       0.00000000       0.05256945      -0.06630063       0.01983992       0.07694081
H       -4.29640219      -5.25042756      -2.89981372       0.00000000       0.00000000       0.02080844      -0.03880401       0.05493668       0.06519410
H       -3.71499187      -4.43127041      -4.33127205       0.00000000       0.00000000       0.04752266      -0.07817747      -0.05133741       0.06216532
H       -5.86952427      -3.63393004      -3.86322942       0.00000000       0.00000000       0.02107054      -0.01171930      -0.00214134       0.05736854
H       -4.71867767      -2.33663119      -3.63307537       0.00000000       0.00000000      -0.03933083      -0.02358766       0.00043132       0.03226556
H       -4.91085336      -2.88153642      -1.07384580       0.00000000       0.00000000       0.00771756      -0.03489267      -0.02766449       0.00847525
H       -6.26652197      -3.90343551      -1.53773969       0.00000000       0.00000000      -0.02956219      -0.05198130       0.00289462       0.04607587
H       -7.07941879      -1.74899655      -2.84809853       0.00000000       0.00000000      -0.03510505      -0.01308304      -0.03406955       0.04435031
H       -5.99707150      -0.90264748      -1.76522157       0.00000000       0.00000000      -0.01322890       0.05929774      -0.00410700       0.01013385
H       -8.55113692      -2.39889003      -1.15174943       0.00000000       0.00000000       0.01551020      -0.03196753       0.02130869       0.04803510
H       -8.09974378      -0.75166532      -0.75787841       0.00000000       0.00000000      -0.01783047       0.00312586       0.00176833       0.03997978
H       -6.30284999      -1.87388818       0.82692929       0.00000000       0.00000000      -0.00299424       0.02557108      -0.04526338       0.01083457
H       -7.28385991      -3.32047865       0.61952920       0.00000000       0.00000000       0.00338259      -0.02617514       0.03063928       0.03351695
H       -8.24337470      -0.62322868       1.67532474       0.00000000       0.00000000      -0.03042027       0.00891156       0.00931839       0.03282685
H       -8.02408550      -2.09179743       2.62765329       0.00000000       0.00000000      -0.01323497      -0.01400227      -0.06786096       0.03956848
H       -9.29274397      -2.01133857       1.40072992       0.00000000       0.00000000       0.03976000      -0.01375720       0.03535034       0.05097218
H       -4.09254017      -5.32427103      -0.69915144       0.00000000       0.00000000      -0.03494902       0.09020537      -0.06394606       0.07809713
H       -2.75079934      -5.34933905       0.42828983       0.00000000       0.00000000       0.00056022       0.01391890       0.04422763       0.06063106
H       -1.34116793      -6.56552025      -1.14048274       0.00000000       0.00000000       0.06714620      -0.01718821       0.00557235       0.04220970
H       -2.58152383      -6.47388656      -2.38919385       0.00000000       0.00000000       0.02373054      -0.02417616      -0.00668214       0.05641793
H       -2.89594576      -8.60981421      -1.47622084       0.00000000       0.00000000      -0.01142209       0.02938423       0.03389237       0.05568734
H       -4.17397320      -7.62304876      -0.77771537       0.00000000       0.00000000       0.02527115      -0.04615004      -0.00583176       0.04112146
H       -2.54944153      -7.30887318       1.24408501       0.00000000       0.00000000      -0.01218380       0.05004667       0.03609269       0.02151788
H       -1.64409302      -8.65086292       0.55365280       0.00000000       0.00000000       0.04478275      -0.01242650       0.01131963       0.03586224
H       -3.64722366     -10.08223854       0.65815480       0.00000000       0.00000000       0.01184837      -0.03918573      -0.01157528       0.04182673
H       -4.61053386      -8.74585853       1.26164712       0.00000000       0.00000000      -0.00003638       0.02282866      -0.03428199       0.03824154
H       -2.25551570     -10.04382329       2.69027302       0.00000000       0.00000000       0.00521159      -0.02170125       0.01704133       0.03562572
H       -3.96467460     -10.27682027       3.05718254       0.00000000       0.00000000       0.04219091       0.02058403      -0.01063736       0.04644553
H       -2.36086306      -7.70584331       3.40560965       0.00000000       0.00000000       0.03834240       0.00440698       0.01448147       0.01487866
H       -2.97361968      -8.76845897       4.66101176       0.00000000       0.00000000      -0.00209118      -0.01538403       0.03898531       0.03898756
H       -4.64694472      -7.02757724       2.79063577       0.00000000       0.00000000      -0.00058939      -0.00662242       0.00858333       0.02024174
H       -4.46218859      -6.86617558       4.53646795       0.00000000       0.00000000      -0.00802096      -0.02264941      -0.00751366       0.03087620
H       -5.33306610      -8.24463435       3.86366081       0.00000000       0.00000000       0.04411981       0.01213854       0.02815851       0.04751922
