367
Properties=species:S:1:pos:R:3:initial_charges:R:1:initial_magmoms:R:1:forces:R:3:charge:R:1 energy=-11549.39330339213 free_energy=-11549.39330339213 dipole="1.0954690070125686 -1.2300268769128353 -0.04636521610370437" pbc="F F F"
Sm       0.37918471      -0.53520906      -0.09835449       3.00000000       0.00000000      -0.00938766       0.03077071      -0.03211203       0.80891956
C        3.44086208       5.67666391      -6.75001399       0.00000000       0.00000000      -0.02836391       0.06742096       0.02180716      -0.10288299
C        4.33034098       6.42162311      -5.75561799       0.00000000       0.00000000       0.01609275       0.05192985      -0.06822281      -0.06054500
C        5.22577343       5.51313787      -4.90328561       0.00000000       0.00000000      -0.09617767       0.02017136       0.05295476      -0.06632692
C        4.67128519       5.18317204      -3.51640116       0.00000000       0.00000000       0.01120644      -0.00084008       0.06672368      -0.06088355
C        5.63630060       4.27661737      -2.74306580       0.00000000       0.00000000       0.01416927      -0.01502981      -0.01360411      -0.06661944
C        5.45298302       4.30565081      -1.22174969       0.00000000       0.00000000       0.00803031       0.01242138       0.01403681      -0.07015179
C        4.45271238       3.27592213      -0.67919185       0.00000000       0.00000000       0.02190181       0.00392065       0.07273475      -0.06228571
C        3.87989178       3.75933555       0.66377746       0.00000000       0.00000000      -0.00750951      -0.03662931      -0.05296673      -0.01393213
N        3.72382711       2.75409064       1.72601973       0.00000000       0.00000000      -0.04761245       0.03607206      -0.04255512      -0.06153236
C        4.31722418       3.12267081       3.01988512       0.00000000       0.00000000      -0.03004147      -0.01058957      -0.02928923      -0.02949346
C        5.49467767       2.30431936       3.56095722       0.00000000       0.00000000       0.02454777      -0.01351948      -0.00563467      -0.06908219
C        6.82914810       2.47167425       2.83677572       0.00000000       0.00000000       0.04353182      -0.00797960      -0.01192209      -0.06281574
C        7.97834394       1.98346789       3.73024848       0.00000000       0.00000000       0.02339121       0.00936926       0.00917179      -0.06488330
C        8.34867167       3.02865590       4.78188895       0.00000000       0.00000000       0.01092089       0.02174048       0.01463466      -0.06260525
C        9.47842553       2.60060124       5.71769465       0.00000000       0.00000000       0.02231790      -0.03041108       0.00929750      -0.06373003
C        9.12537825       1.46570420       6.67960983       0.00000000       0.00000000      -0.02345572      -0.01231770       0.01968379      -0.05764000
C        7.99177432       1.81716015       7.63774123       0.00000000       0.00000000      -0.00858418       0.00357426       0.01024501      -0.10186462
C        2.83936906       1.76692495       1.58230814       0.00000000       0.00000000       0.03981102       0.03734065      -0.00507956       0.25039706
O        2.17888994       1.57073714       0.54200250       0.00000000       0.00000000      -0.02751021      -0.10806596      -0.06834993      -0.40971422
C        2.60149925       0.79603763       2.75474465       0.00000000       0.00000000      -0.03427393       0.01249738       0.01716345       0.08795437
C        1.73892615       1.40421772       3.87164176       0.00000000       0.00000000      -0.03073448      -0.02583185       0.03343496      -0.12803468
O        1.95144038      -0.34075712       2.18370952       0.00000000       0.00000000      -0.01716719      -0.01725031       0.04590059      -0.24496188
C        2.35385399      -1.60559593       2.71957399       0.00000000       0.00000000      -0.02771105      -0.05409276       0.02137187       0.08371388
C        1.23633160      -2.26520119       3.54861905       0.00000000       0.00000000      -0.07289189      -0.04761345       0.00417258      -0.06885566
C        0.31324879      -3.17289019       2.74045125       0.00000000       0.00000000       0.00515674      -0.02135213      -0.05012957      -0.11092776
C        2.73306559      -2.42792109       1.48519554       0.00000000       0.00000000       0.10992249       0.02539254       0.13741246       0.25410422
O        2.14898762      -2.16045898       0.40807590       0.00000000       0.00000000      -0.07170084      -0.06773484      -0.03777593      -0.38893596
N        3.73595492      -3.28459131       1.57302184       0.00000000       0.00000000      -0.00842088      -0.02493589      -0.00514930      -0.05203593
C        4.31535447      -3.82003008       0.35037322       0.00000000       0.00000000      -0.02674359      -0.00388754       0.03483907      -0.01347140
C        3.66548606      -5.11560344      -0.13854552       0.00000000       0.00000000       0.04067173       0.03586378      -0.02138640      -0.06415318
C        4.60318495      -5.84227236      -1.10872665       0.00000000       0.00000000      -0.01364713      -0.03342829       0.01432259      -0.06775134
C        5.17094334      -4.94339476      -2.20651280       0.00000000       0.00000000      -0.01467595       0.00369461       0.03750594      -0.05736445
C        6.00632817      -5.69919273      -3.24144601       0.00000000       0.00000000       0.01488837      -0.01359433       0.00752774      -0.06133114
C        7.14391293      -6.54563787      -2.66700000       0.00000000       0.00000000       0.04707819      -0.00954834       0.03512683      -0.06485126
C        8.11794180      -5.81742068      -1.73820735       0.00000000       0.00000000       0.02347280       0.02853554       0.01429578      -0.05286290
C        8.84619948      -4.64507702      -2.38599038       0.00000000       0.00000000       0.00345913      -0.00607815      -0.01794841      -0.10499626
C        4.22759432      -3.88763596       2.81083260       0.00000000       0.00000000      -0.08121464       0.04012524      -0.04528532      -0.02080631
C        5.69987807      -3.62341343       3.14697459       0.00000000       0.00000000      -0.06373955      -0.04388917      -0.05088261      -0.07618723
C        6.08177797      -2.15481525       3.31692366       0.00000000       0.00000000      -0.07009004      -0.01835159      -0.04641790      -0.05284400
C        7.58281592      -1.98027508       3.58524204       0.00000000       0.00000000      -0.01225381      -0.01867746      -0.01124186      -0.06447578
C        7.98267800      -1.97704261       5.06118715       0.00000000       0.00000000       0.00794825       0.00374498       0.04031108      -0.06277021
C        7.81551910      -3.30088678       5.81793167       0.00000000       0.00000000      -0.02001724      -0.04962839       0.01963482      -0.06638204
C        6.56024492      -3.36893500       6.69256604       0.00000000       0.00000000      -0.00861744       0.02143846       0.02698957      -0.05268581
C        6.67049263      -2.47269246       7.92255707       0.00000000       0.00000000      -0.00292742      -0.00070747       0.00763264      -0.10719390
H        3.14163981       6.35915917      -7.54391994       0.00000000       0.00000000      -0.06219073      -0.09690639       0.05881713       0.04748306
H        2.53767367       5.28293672      -6.28742823       0.00000000       0.00000000      -0.00411451      -0.01117717       0.07923828       0.01624931
H        3.98534785       4.85019380      -7.20118883       0.00000000       0.00000000       0.01055413       0.02582493      -0.05393956       0.03485927
H        3.72166579       7.07236524      -5.12388166       0.00000000       0.00000000       0.01159861      -0.07869897       0.03797827       0.03468933
H        4.98386732       7.07495886      -6.32951136       0.00000000       0.00000000       0.04448357       0.04918764      -0.08371684       0.04701890
H        5.41020805       4.58845930      -5.44789775       0.00000000       0.00000000       0.06379289      -0.10620387      -0.03681855       0.03269721
H        6.18645104       6.01101639      -4.77227998       0.00000000       0.00000000       0.02999625      -0.03091883       0.06280991       0.04222603
H        3.68690709       4.71748991      -3.60574137       0.00000000       0.00000000       0.01113847       0.02534751       0.04430371       0.01627133
H        4.55486810       6.11667723      -2.96170265       0.00000000       0.00000000      -0.04847253       0.00590569      -0.02938282       0.03881690
H        6.64424260       4.62284044      -2.96802063       0.00000000       0.00000000       0.05789491      -0.00780409       0.02585494       0.05405309
H        5.56052974       3.24887233      -3.10010014       0.00000000       0.00000000       0.02805090      -0.04502545      -0.06305663       0.02461832
H        5.11942926       5.30389694      -0.94287156       0.00000000       0.00000000      -0.02418401       0.08782714       0.00149602       0.04663546
H        6.41558329       4.14047411      -0.73714907       0.00000000       0.00000000       0.02162160      -0.00757083      -0.00398703       0.04611343
H        4.94546236       2.31317566      -0.54259889       0.00000000       0.00000000       0.04551020       0.00367650       0.00617984       0.04092425
H        3.65349276       3.14731692      -1.40826284       0.00000000       0.00000000       0.02739233      -0.00976743       0.07006187       0.04371581
H        2.90726173       4.22922221       0.48826091       0.00000000       0.00000000       0.00636994      -0.02439952       0.03242605       0.06125624
H        4.56109377       4.51814356       1.05230586       0.00000000       0.00000000      -0.10465993      -0.07963068      -0.02850116       0.07901553
H        3.51990841       3.13323692       3.76213674       0.00000000       0.00000000       0.03464325       0.00098797       0.03130126       0.05844949
H        4.66782839       4.15168205       2.93194096       0.00000000       0.00000000      -0.00623053      -0.02466130      -0.01501645       0.08379139
H        5.27253538       1.24012596       3.61754509       0.00000000       0.00000000      -0.05059744      -0.04698393      -0.01188544       0.03119515
H        5.63553607       2.65635997       4.58353378       0.00000000       0.00000000      -0.04772527      -0.00718663       0.03651954       0.06885685
H        7.00152860       3.52271778       2.60216697       0.00000000       0.00000000      -0.03772435       0.01334787      -0.03463616       0.04488127
H        6.81902144       1.91496255       1.89881772       0.00000000       0.00000000      -0.02368995      -0.02132006      -0.04246097       0.02738086
H        8.85772675       1.77143151       3.12079558       0.00000000       0.00000000      -0.00266613       0.05653949      -0.04278561       0.04276640
H        7.69382550       1.05108011       4.21993328       0.00000000       0.00000000      -0.04798645       0.01956751      -0.01210743       0.03732137
H        7.47422000       3.27893969       5.38245902       0.00000000       0.00000000      -0.01292454       0.05458841       0.00124708       0.03264892
H        8.66360651       3.93634551       4.26453209       0.00000000       0.00000000       0.00318469       0.03985063      -0.00313000       0.03529383
H        9.77860356       3.46809524       6.30865436       0.00000000       0.00000000       0.00657214      -0.00164210      -0.02617822       0.04429248
H       10.33572962       2.29609326       5.11590784       0.00000000       0.00000000       0.04810571       0.00132616      -0.00399481       0.03667879
H       10.01510770       1.23173123       7.26677560       0.00000000       0.00000000      -0.00692683       0.02001146      -0.01117286       0.04168396
H        8.86822647       0.56759221       6.11696170       0.00000000       0.00000000      -0.00716963      -0.00064470      -0.00000632       0.02788001
H        8.20917988       2.74897675       8.15414945       0.00000000       0.00000000       0.00718063      -0.01379997       0.00760625       0.04260976
H        7.87099756       1.03565461       8.38464744       0.00000000       0.00000000       0.01415177       0.00452636      -0.00907129       0.03655895
H        7.04322146       1.93164485       7.11481307       0.00000000       0.00000000       0.01171265      -0.02204933      -0.00331675       0.01743739
H        3.56450312       0.49225323       3.17774974       0.00000000       0.00000000      -0.00561085      -0.03809512      -0.08836579       0.06092196
H        1.05720466       2.15322688       3.48094516       0.00000000       0.00000000       0.03443846       0.02643157       0.04420395       0.05404038
H        2.35107952       1.83657847       4.65733011       0.00000000       0.00000000      -0.04096999       0.00006208      -0.00598795       0.06842022
H        1.14925489       0.61330353       4.32358898       0.00000000       0.00000000      -0.01029428      -0.03341317      -0.01817290       0.08054091
H        3.24404885      -1.45912194       3.34281863       0.00000000       0.00000000      -0.04374831      -0.00116576      -0.01848528       0.05989963
H        0.63911555      -1.46437691       3.97913326       0.00000000       0.00000000      -0.01245225       0.01236968       0.02482676       0.07951836
H        1.67666933      -2.82795175       4.37340728       0.00000000       0.00000000       0.00312975      -0.04414704      -0.02148178       0.05794615
H       -0.15573420      -2.62778956       1.91343145       0.00000000       0.00000000       0.00998090       0.07819537      -0.01340342       0.08945350
H       -0.47926085      -3.54608009       3.38632832       0.00000000       0.00000000       0.03552846      -0.01905818      -0.01960619       0.06903111
H        0.85295434      -4.02572159       2.33136612       0.00000000       0.00000000       0.00059056      -0.01866289       0.05214645       0.04662292
H        5.37080569      -3.99599681       0.56251658       0.00000000       0.00000000      -0.03184264      -0.01220805      -0.07676793       0.08200984
H        4.21944424      -3.04364050      -0.41110028       0.00000000       0.00000000       0.02680472      -0.07208090      -0.01013338       0.07048833
H        2.70654157      -4.88131048      -0.60597085       0.00000000       0.00000000       0.04022504      -0.00740603      -0.03157241       0.04071138
H        3.47159646      -5.77730418       0.71058672       0.00000000       0.00000000      -0.02113846       0.05034537      -0.06600680       0.04348939
H        4.06818374      -6.67580246      -1.56313828       0.00000000       0.00000000      -0.02808689      -0.03130792      -0.01723159       0.05058996
H        5.42759650      -6.25932989      -0.53087639       0.00000000       0.00000000       0.01295787      -0.02276314      -0.02311960       0.05175908
H        5.79817638      -4.17375562      -1.75792770       0.00000000       0.00000000       0.01787132       0.03289980      -0.00502478       0.03035499
H        4.34591207      -4.44141100      -2.72079078       0.00000000       0.00000000      -0.02207880       0.00341718      -0.02787020       0.01318597
H        6.42314217      -4.97097398      -3.93849600       0.00000000       0.00000000      -0.00720513       0.01282153      -0.02911121       0.03940212
H        5.35724423      -6.36393294      -3.81292934       0.00000000       0.00000000      -0.01645861      -0.01128165      -0.02684455       0.03649845
H        7.70688627      -6.95275385      -3.50850188       0.00000000       0.00000000       0.01016977       0.00802471       0.00209676       0.04639868
H        6.72548260      -7.39476410      -2.12377119       0.00000000       0.00000000      -0.02122081      -0.01264678      -0.00894959       0.03409148
H        8.86162359      -6.54550285      -1.40752024       0.00000000       0.00000000      -0.01183086       0.01369680      -0.00091768       0.04045062
H        7.59701548      -5.46406617      -0.84445010       0.00000000       0.00000000      -0.01666708      -0.00889123      -0.00245831       0.01620353
H        9.35680742      -4.96668408      -3.28945801       0.00000000       0.00000000      -0.00477815      -0.01277734      -0.00661797       0.04549962
H        9.59193357      -4.24861838      -1.69937253       0.00000000       0.00000000      -0.02072980       0.00626908      -0.03395736       0.03631459
H        8.16136752      -3.84037959      -2.64746049       0.00000000       0.00000000      -0.00353951      -0.02108824       0.00197316       0.02468999
H        4.09054860      -4.96903093       2.69176468       0.00000000       0.00000000       0.05732596       0.05208205       0.06491986       0.08053371
H        3.60291744      -3.57116411       3.64263061       0.00000000       0.00000000      -0.02040689       0.01779653       0.00340176       0.05790771
H        6.34316293      -4.05481893       2.38100024       0.00000000       0.00000000       0.01507982      -0.04323002      -0.02691401       0.05535741
H        5.89843227      -4.16206454       4.07145722       0.00000000       0.00000000       0.01385979      -0.00257092       0.00594889       0.08018229
H        5.51770700      -1.70311143       4.13636805       0.00000000       0.00000000      -0.02241407      -0.03041928       0.02784000       0.02595368
H        5.82117387      -1.62261693       2.39797888       0.00000000       0.00000000      -0.02899224       0.04464931      -0.06732807       0.01159464
H        7.90142127      -1.02633001       3.16119331       0.00000000       0.00000000      -0.00646555       0.02649859      -0.01327626       0.03811507
H        8.13712444      -2.75777567       3.06014482       0.00000000       0.00000000       0.01662642      -0.05006519      -0.00557093       0.04276765
H        7.41487906      -1.19931546       5.57187410       0.00000000       0.00000000      -0.01850787       0.03886027       0.04258148       0.03755913
H        9.03284628      -1.68989901       5.10184834       0.00000000       0.00000000       0.04650254       0.02702576      -0.01642931       0.04471085
H        8.67325219      -3.45031622       6.47424664       0.00000000       0.00000000       0.01997698       0.03958678      -0.00228275       0.04915957
H        7.82307455      -4.12978046       5.11041815       0.00000000       0.00000000       0.00963177      -0.03812217      -0.04489117       0.03175344
H        6.41883875      -4.40006710       7.02667676       0.00000000       0.00000000       0.01886186       0.03554994      -0.02742262       0.03352103
H        5.67541740      -3.08319488       6.11577281       0.00000000       0.00000000       0.00577330      -0.01317821       0.01769819       0.01248042
H        7.56156935      -2.72413181       8.49196079       0.00000000       0.00000000      -0.02075995      -0.00996186      -0.00494763       0.04782862
H        5.80660621      -2.60331392       8.57051380       0.00000000       0.00000000      -0.00141875       0.00896810      -0.01973393       0.03567492
H        6.73424352      -1.42220267       7.64496706       0.00000000       0.00000000      -0.00364885      -0.02262095       0.01453413       0.03227639
C       -4.29937299      -3.99630049      10.20641204       0.00000000       0.00000000       0.03048903      -0.00033423      -0.00988156      -0.10859141
C       -3.37429944      -3.22866879       9.27027237       0.00000000       0.00000000       0.01484107       0.03099098      -0.00752432      -0.05160318
C       -2.45168298      -2.28810335      10.04345061       0.00000000       0.00000000       0.04063900      -0.00456204       0.00275732      -0.06501888
C       -1.34988143      -1.65251624       9.19171258       0.00000000       0.00000000      -0.01379303       0.02604596      -0.01616405      -0.06113025
C       -1.88746493      -0.74861900       8.08157802       0.00000000       0.00000000       0.00310916      -0.00671206      -0.03656544      -0.06241837
C       -0.76188520      -0.02855037       7.33749130       0.00000000       0.00000000      -0.01338080       0.01008206      -0.02488942      -0.06443381
C       -1.26353892       0.86657493       6.19802232       0.00000000       0.00000000       0.03332302       0.01380951       0.00713567      -0.07092954
C       -1.80255799       0.06751660       5.00820135       0.00000000       0.00000000       0.03487010       0.01319912       0.06593298      -0.01610377
N       -2.16864282       0.92135981       3.87902012       0.00000000       0.00000000       0.03943700      -0.06898541      -0.00282820      -0.05904177
C       -3.09691210       2.00537363       4.18172727       0.00000000       0.00000000       0.07357325      -0.01380717      -0.04620304      -0.01778565
C       -4.40113880       1.58043474       4.86560038       0.00000000       0.00000000       0.02857782      -0.00408702       0.01164008      -0.07310261
C       -5.38155055       0.79563229       3.99349281       0.00000000       0.00000000      -0.03180248      -0.01190671      -0.00036269      -0.06635851
C       -4.98569334      -0.63708292       3.63408250       0.00000000       0.00000000      -0.00311304      -0.03237168       0.02999921      -0.05764219
C       -4.94289598      -1.63707699       4.79056911       0.00000000       0.00000000       0.02010135      -0.04351798       0.02502183      -0.06454236
C       -4.14790853      -2.87794224       4.38050287       0.00000000       0.00000000       0.00473935      -0.02200308      -0.01704819      -0.05784127
C       -3.93658334      -3.84855594       5.53883071       0.00000000       0.00000000       0.00468716       0.02588968      -0.00823275      -0.05941869
C       -3.10049701      -5.05557048       5.12931657       0.00000000       0.00000000      -0.04140410       0.02743049       0.01931092      -0.10459456
C       -1.60643625       0.71687008       2.69176890       0.00000000       0.00000000      -0.06651992       0.11567086       0.11007608       0.24049574
O       -0.83909505      -0.22561005       2.43013757       0.00000000       0.00000000       0.13058036      -0.02190069      -0.04126809      -0.40344356
C       -1.84629145       1.69676799       1.53289564       0.00000000       0.00000000       0.03821860       0.02746225       0.04392422       0.08895180
C       -0.79456029       2.79972766       1.57172581       0.00000000       0.00000000       0.02813788       0.05831187      -0.01547951      -0.12499913
O       -1.64534980       0.95856278       0.33326989       0.00000000       0.00000000       0.03638072       0.04491198      -0.02994932      -0.23143106
C       -2.84620246       0.37580914      -0.18597101       0.00000000       0.00000000      -0.00069006       0.05031121      -0.11536755       0.08450054
C       -2.96887664       0.99243027      -1.58902665       0.00000000       0.00000000      -0.02406504       0.09655932      -0.07416876      -0.07348244
C       -3.33202564       2.47549038      -1.48965852       0.00000000       0.00000000       0.01298071       0.00641422      -0.05693298      -0.11451096
C       -2.75282374      -1.15600376      -0.09101151       0.00000000       0.00000000       0.04201000      -0.06246245      -0.03741364       0.26515671
O       -1.64073021      -1.69012676       0.10538315       0.00000000       0.00000000       0.04141316       0.00374735      -0.05878180      -0.37050579
N       -3.87565383      -1.86979550      -0.16012848       0.00000000       0.00000000      -0.05667186      -0.00440254      -0.05729205      -0.07044790
C       -5.19777770      -1.27942816       0.09832077       0.00000000       0.00000000      -0.06267243       0.04003480      -0.01826011      -0.02397488
C       -5.77184986      -0.26365181      -0.89814111       0.00000000       0.00000000       0.00658887      -0.00074991      -0.01358258      -0.07645005
C       -7.30321376      -0.23578542      -0.90102388       0.00000000       0.00000000       0.10072653      -0.02852681      -0.05468782      -0.07232550
C       -7.92502236       0.17490367       0.43166023       0.00000000       0.00000000       0.01736995      -0.06121954      -0.07441319      -0.06671598
C       -7.78262422       1.65400011       0.79673664       0.00000000       0.00000000      -0.04278131      -0.00928122      -0.00734633      -0.05782680
C       -8.85761189       2.55538301       0.18621200       0.00000000       0.00000000      -0.02181496       0.06324723      -0.06515765      -0.06630297
C       -8.67942113       2.84163109      -1.30293236       0.00000000       0.00000000      -0.02237666       0.04283091      -0.08354834      -0.05240080
C       -9.66522223       3.89344499      -1.79705971       0.00000000       0.00000000      -0.01313188       0.02795325       0.01258037      -0.10930200
C       -3.78736714      -3.33975328      -0.03661538       0.00000000       0.00000000       0.04146719       0.02587390       0.00301921      -0.01026517
C       -3.04409041      -4.06257722      -1.17861687       0.00000000       0.00000000       0.00955526       0.05100513      -0.00098724      -0.06591069
C       -3.76624424      -5.34577480      -1.62114930       0.00000000       0.00000000       0.04242509       0.03741127       0.01542511      -0.07158719
C       -3.14492053      -5.99435758      -2.86716613       0.00000000       0.00000000      -0.06209711      -0.04921918       0.03700433      -0.05884946
C       -4.15575906      -6.85921125      -3.64357232       0.00000000       0.00000000       0.05403085      -0.01213356       0.00076620      -0.06747909
C       -3.89525684      -6.93112821      -5.16065858       0.00000000       0.00000000       0.03519136       0.03224427       0.03469609      -0.06275658
C       -5.14858112      -6.60309420      -5.97442485       0.00000000       0.00000000       0.04293511       0.01567884      -0.02017121      -0.05658031
C       -4.90422853      -6.69924744      -7.47446666       0.00000000       0.00000000       0.03776013       0.01161406      -0.04314758      -0.10845260
H       -4.96386602      -4.64463291       9.63983306       0.00000000       0.00000000      -0.01202367       0.02328985       0.01947967       0.03784205
H       -4.90039511      -3.30783932      10.79643757       0.00000000       0.00000000      -0.00192157      -0.03006014      -0.02809999       0.04193328
H       -3.72036170      -4.61361921      10.88808102       0.00000000       0.00000000      -0.00481395      -0.00423341       0.01708397       0.04258365
H       -3.98160722      -2.65340059       8.56879561       0.00000000       0.00000000      -0.03338280       0.00676667      -0.01098361       0.02120698
H       -2.77039363      -3.93636055       8.69491959       0.00000000       0.00000000      -0.00834718      -0.00110685       0.03004972       0.02553316
H       -1.97099434      -2.85835484      10.83920352       0.00000000       0.00000000       0.00899022      -0.00140089       0.03965375       0.04530828
H       -3.04837676      -1.50460865      10.51736447       0.00000000       0.00000000       0.03280215      -0.01727361      -0.04093055       0.03870561
H       -0.73543792      -2.43907799       8.74199202       0.00000000       0.00000000      -0.03818900       0.02020275       0.04838444       0.02849628
H       -0.70692683      -1.06417149       9.85027885       0.00000000       0.00000000       0.00666521       0.00007614      -0.03485247       0.03762570
H       -2.56508259      -0.00913846       8.51531772       0.00000000       0.00000000       0.02768146      -0.02545679      -0.01145450       0.03998453
H       -2.45521412      -1.35975573       7.37919396       0.00000000       0.00000000      -0.02312040      -0.00311171      -0.00494911       0.02788678
H       -0.04802824      -0.76089460       6.94918608       0.00000000       0.00000000      -0.04387676      -0.00357407       0.00183549       0.02851904
H       -0.22693208       0.60416131       8.04879930       0.00000000       0.00000000       0.00139893      -0.03265529      -0.01152987       0.05073292
H       -0.44326441       1.50162164       5.85590175       0.00000000       0.00000000       0.02045379       0.03005919       0.00726047       0.03089618
H       -2.04372694       1.51680846       6.59515038       0.00000000       0.00000000       0.02854792      -0.04447122       0.03725658       0.05530302
H       -2.66906460      -0.51278640       5.31812268       0.00000000       0.00000000       0.00585962       0.04013362      -0.03324694       0.08761327
H       -1.04889233      -0.63298550       4.64905346       0.00000000       0.00000000       0.00653258       0.00601214      -0.00480329       0.06538404
H       -3.35206087       2.52889052       3.26557114       0.00000000       0.00000000      -0.04028599       0.06579006      -0.00163956       0.05372440
H       -2.57518147       2.71724541       4.82872365       0.00000000       0.00000000      -0.04629502       0.01065281       0.01069466       0.06804154
H       -4.89567647       2.51015801       5.15105104       0.00000000       0.00000000      -0.00973724       0.00844022       0.03894449       0.06586872
H       -4.19652759       1.03674427       5.78323061       0.00000000       0.00000000      -0.00341214      -0.04077350       0.04275758       0.06537860
H       -5.54758436       1.34619566       3.06372629       0.00000000       0.00000000      -0.00102870       0.04922358      -0.00341902       0.02992611
H       -6.33537286       0.76483631       4.51917866       0.00000000       0.00000000      -0.04189736      -0.01822133       0.02897324       0.06033802
H       -4.01313748      -0.63693946       3.12912420       0.00000000       0.00000000      -0.03325062       0.01360529       0.00273684       0.00805812
H       -5.73173593      -1.01438501       2.93183205       0.00000000       0.00000000       0.01684037       0.02981419      -0.00556468       0.03496589
H       -5.95634624      -1.93000688       5.06606898       0.00000000       0.00000000      -0.00545952       0.02894968      -0.01215234       0.04843263
H       -4.49485153      -1.19837337       5.68298568       0.00000000       0.00000000      -0.00306456       0.02430887       0.00629443       0.03387010
H       -3.17237872      -2.56869079       3.98712510       0.00000000       0.00000000       0.01246766      -0.00782941       0.02417728       0.01380653
H       -4.67191884      -3.38967492       3.57014935       0.00000000       0.00000000      -0.03125218      -0.01360498      -0.00743333       0.02845500
H       -4.90745146      -4.18058296       5.91041179       0.00000000       0.00000000       0.04462050      -0.02200373      -0.00969111       0.04536813
H       -3.43291009      -3.32589775       6.35363015       0.00000000       0.00000000      -0.00035061      -0.02051999       0.01346670       0.03612518
H       -3.58698302      -5.60163483       4.32349102       0.00000000       0.00000000       0.03412680      -0.00266439       0.01991925       0.03759806
H       -2.97746630      -5.72723498       5.97455945       0.00000000       0.00000000       0.00245477      -0.00586261      -0.03351250       0.05052551
H       -2.11048503      -4.74387701       4.79269893       0.00000000       0.00000000      -0.06011509      -0.02491076       0.00776422       0.01969676
H       -2.84950203       2.13290939       1.51405586       0.00000000       0.00000000       0.01563700      -0.01829000       0.04891762       0.06258673
H        0.17261698       2.35759175       1.32542507       0.00000000       0.00000000       0.04879609       0.00132766       0.02454579       0.09603060
H       -0.75890791       3.27498851       2.54830470       0.00000000       0.00000000      -0.01823604       0.00297257       0.00339661       0.06515765
H       -1.01595738       3.55741391       0.82625406       0.00000000       0.00000000      -0.04035178       0.07111308      -0.02411592       0.08082601
H       -3.70057726       0.68898627       0.42412012       0.00000000       0.00000000       0.05719045       0.00363805       0.03590305       0.06787068
H       -3.70711412       0.47715721      -2.19298788       0.00000000       0.00000000       0.03566428      -0.01057663      -0.00449537       0.06807095
H       -1.99147983       0.88564736      -2.06819529       0.00000000       0.00000000      -0.05715158      -0.00088809      -0.01028660       0.10104426
H       -4.27822686       2.63390177      -0.97101260       0.00000000       0.00000000       0.07719956      -0.05698466      -0.03515234       0.04551458
H       -3.43833309       2.89464804      -2.48642325       0.00000000       0.00000000       0.00554748      -0.01921687      -0.01224284       0.06312328
H       -2.55518932       3.03732361      -0.97536981       0.00000000       0.00000000      -0.04640084      -0.03602465      -0.00978844       0.04921146
H       -5.15875312      -0.81017344       1.08215399       0.00000000       0.00000000      -0.02104404      -0.02134033       0.02044326       0.05750767
H       -5.89933275      -2.11026919       0.16397743       0.00000000       0.00000000      -0.01724675      -0.00813044      -0.04046339       0.08407751
H       -5.43774751      -0.50847869      -1.90236108       0.00000000       0.00000000      -0.03572604      -0.02161610      -0.00625966       0.04874056
H       -5.44073735       0.74540764      -0.66597335       0.00000000       0.00000000       0.02218119      -0.02870979      -0.00656983       0.04244353
H       -7.68237904      -1.21924259      -1.17543121       0.00000000       0.00000000      -0.03097320       0.04212046       0.04972289       0.04639621
H       -7.60561208       0.45552381      -1.68537762       0.00000000       0.00000000      -0.03282039      -0.03789914       0.04063146       0.06088303
H       -7.48253424      -0.44111481       1.21654983       0.00000000       0.00000000      -0.04679767       0.01294494       0.08170608       0.02147381
H       -8.98616506      -0.06701663       0.39634954       0.00000000       0.00000000      -0.04818423       0.00475040       0.02807477       0.05621713
H       -6.79536162       2.03040693       0.51119919       0.00000000       0.00000000      -0.02117623      -0.02306574       0.02870885       0.01341675
H       -7.86822219       1.72973111       1.88121770       0.00000000       0.00000000       0.02501742       0.05260462       0.05803909       0.03372322
H       -8.84611570       3.51018285       0.71474977       0.00000000       0.00000000       0.01992021       0.03123309       0.03616130       0.03965074
H       -9.84028354       2.11032917       0.34860946       0.00000000       0.00000000       0.01740703      -0.00994523       0.02234281       0.04466723
H       -8.84174047       1.93331866      -1.88260019       0.00000000       0.00000000      -0.02546605      -0.00769491      -0.01358630       0.03122811
H       -7.65912434       3.18857623      -1.49169447       0.00000000       0.00000000       0.01306172      -0.00204964       0.01792361       0.01768312
H      -10.68597763       3.54189975      -1.66498258       0.00000000       0.00000000       0.02085390       0.03687792      -0.01220422       0.04483187
H       -9.50464528       4.10091653      -2.85414839       0.00000000       0.00000000      -0.02751398      -0.01751635       0.07106901       0.03990379
H       -9.54767688       4.82177855      -1.24239372       0.00000000       0.00000000      -0.00995102      -0.00330768      -0.01687399       0.03967966
H       -4.81129656      -3.70983402      -0.00039800       0.00000000       0.00000000       0.04378775      -0.02891558       0.02056100       0.08293277
H       -3.30278080      -3.57197013       0.91640155       0.00000000       0.00000000      -0.01655438       0.01363743       0.00452994       0.06395105
H       -2.02811115      -4.29878081      -0.86154707       0.00000000       0.00000000      -0.02662574       0.02227693       0.01158026       0.04166995
H       -2.97668810      -3.39557470      -2.03872599       0.00000000       0.00000000       0.02201496      -0.02594940       0.12231196       0.04887652
H       -4.79649366      -5.08065444      -1.86198364       0.00000000       0.00000000       0.04836793      -0.01979917       0.05275454       0.05829181
H       -3.78208489      -6.07593589      -0.80970088       0.00000000       0.00000000      -0.01206760       0.08602126       0.01057192       0.04150842
H       -2.28492055      -6.60678637      -2.58870141       0.00000000       0.00000000       0.00890011       0.05889792       0.00602492       0.03089200
H       -2.78076068      -5.19720358      -3.51873307       0.00000000       0.00000000      -0.02567768      -0.04100629      -0.01520274       0.01801241
H       -5.15829809      -6.45418778      -3.49020286       0.00000000       0.00000000       0.04552421      -0.00486151      -0.00430558       0.03893849
H       -4.16194427      -7.87091824      -3.23822838       0.00000000       0.00000000      -0.01478530       0.06651044       0.08525287       0.04436333
H       -3.53696489      -7.92370023      -5.43197179       0.00000000       0.00000000      -0.02541063      -0.00746984      -0.02000831       0.04366631
H       -3.11136218      -6.22352005      -5.44643257       0.00000000       0.00000000       0.02707667      -0.01204811       0.02558734       0.01856166
H       -5.46617716      -5.58441791      -5.73738608       0.00000000       0.00000000      -0.02588543       0.00761974       0.01316357       0.02409356
H       -5.95817313      -7.27686387      -5.69597523       0.00000000       0.00000000      -0.00503620      -0.03724801       0.02394841       0.04105124
H       -4.01414919      -6.13630939      -7.74999137       0.00000000       0.00000000      -0.00519108       0.02278430      -0.03559786       0.02812530
H       -5.75059157      -6.29393123      -8.02168495       0.00000000       0.00000000      -0.01640323      -0.00754759      -0.00884116       0.04437650
H       -4.76457557      -7.72875605      -7.79039918       0.00000000       0.00000000       0.03120436      -0.02937307       0.06126580       0.04590582
C        2.90215262      -7.71274455      -5.27526006       0.00000000       0.00000000       0.00819630       0.02560745      -0.02957103      -0.10602594
C        2.15133520      -6.69822396      -6.13176888       0.00000000       0.00000000       0.00325432       0.02460645      -0.02388227      -0.05573636
C        3.08264266      -5.62818947      -6.70891174       0.00000000       0.00000000      -0.01097816       0.02566010      -0.01650690      -0.06300617
C        2.47076124      -4.72773919      -7.79143266       0.00000000       0.00000000      -0.02751457       0.00480151       0.00768381      -0.06700690
C        1.59451001      -3.56502352      -7.31493721       0.00000000       0.00000000      -0.02304871      -0.00273953      -0.02684327      -0.05414908
C        0.29391239      -4.00888192      -6.65690160       0.00000000       0.00000000      -0.00125564       0.05406330      -0.01920955      -0.06788917
C       -0.66696488      -2.84842048      -6.37177938       0.00000000       0.00000000       0.04684630      -0.01966463       0.00421345      -0.06979781
C       -1.69505258      -3.29169167      -5.31618713       0.00000000       0.00000000       0.07098799       0.01323402      -0.13314283      -0.02138528
N       -1.95756021      -2.33913502      -4.24813866       0.00000000       0.00000000       0.05451754      -0.12329106       0.01444958      -0.07805626
C       -3.32203578      -1.80966022      -4.14218404       0.00000000       0.00000000       0.02069193      -0.03676854      -0.01849514      -0.00906269
C       -4.45051463      -2.83033433      -4.41162431       0.00000000       0.00000000      -0.02813377       0.04419374       0.04465948      -0.07646122
C       -5.58806439      -2.68376275      -3.39193228       0.00000000       0.00000000       0.01731274       0.02112146      -0.03117621      -0.06624863
C       -6.74206685      -3.67359463      -3.59960483       0.00000000       0.00000000      -0.01442350       0.05299484       0.00389912      -0.06687609
C       -7.71989537      -3.72086465      -2.40520205       0.00000000       0.00000000       0.05756052      -0.01051067      -0.00145811      -0.06679075
C       -7.73156433      -5.04560479      -1.62331240       0.00000000       0.00000000       0.00615455      -0.01360040      -0.01463385      -0.06872663
C       -7.87282545      -4.90397392      -0.09375099       0.00000000       0.00000000      -0.01293592       0.00805651      -0.08711143      -0.05430072
C       -6.96541729      -5.89792932       0.62823550       0.00000000       0.00000000      -0.01992258       0.01394000      -0.01204027      -0.10781478
C       -1.04754144      -1.98986301      -3.33280209       0.00000000       0.00000000       0.02348681      -0.00068489       0.04745888       0.24623508
O       -1.28623733      -1.21028146      -2.39873986       0.00000000       0.00000000      -0.05051163      -0.02843436      -0.00310141      -0.41985104
C        0.36679391      -2.60566297      -3.33877815       0.00000000       0.00000000      -0.03819327      -0.07124764       0.08122149       0.08761568
C        0.31107561      -3.90192678      -2.52963478       0.00000000       0.00000000       0.00984564      -0.03448776       0.00850280      -0.11435411
O        1.24777149      -1.72991638      -2.62605846       0.00000000       0.00000000       0.06790398      -0.05825372      -0.05454769      -0.25121235
C        1.92320622      -0.74401945      -3.41104582       0.00000000       0.00000000      -0.06560836       0.12530078      -0.00248817       0.09113397
C        3.41628094      -0.81993898      -3.06934790       0.00000000       0.00000000      -0.04332968      -0.00682784       0.07233749      -0.07221584
C        3.66820916      -0.24292735      -1.68534462       0.00000000       0.00000000       0.04699617      -0.03027261       0.10652772      -0.11717749
C        1.31473430       0.62202705      -3.05213590       0.00000000       0.00000000      -0.02954155       0.15132075       0.04621156       0.25739661
O        0.54728244       0.65429156      -2.06585247       0.00000000       0.00000000      -0.00594327      -0.07140101      -0.04854677      -0.36581417
N        1.54406933       1.72070429      -3.77500347       0.00000000       0.00000000       0.05714129       0.11718541      -0.02600685      -0.06792249
C        0.73755643       2.89879299      -3.40705847       0.00000000       0.00000000      -0.01740042      -0.07928507       0.09641885      -0.00820767
C        0.84640827       3.25325545      -1.91265798       0.00000000       0.00000000      -0.05795711      -0.00272552      -0.05330286      -0.06929453
C        0.82333827       4.75738197      -1.65442622       0.00000000       0.00000000      -0.04195423      -0.05236427       0.00289226      -0.06622394
C       -0.55453603       5.37307795      -1.94479598       0.00000000       0.00000000      -0.00937124       0.08784980      -0.02356606      -0.06888858
C       -0.52518398       6.61282280      -2.85393272       0.00000000       0.00000000      -0.01808430       0.04172874      -0.09762469      -0.06698182
C       -1.22685463       6.35269484      -4.18837075       0.00000000       0.00000000      -0.00630283       0.01959623      -0.04211529      -0.05981963
C       -1.10788601       7.53222278      -5.14956794       0.00000000       0.00000000       0.00809553       0.03489189      -0.00241503      -0.05712353
C       -1.87553512       7.29342509      -6.44352585       0.00000000       0.00000000      -0.01607613      -0.00891512       0.00067828      -0.10711942
C        2.76919708       1.99805349      -4.54290974       0.00000000       0.00000000      -0.03538081      -0.16070956      -0.03743371      -0.02100592
C        3.07729396       1.26132227      -5.85349802       0.00000000       0.00000000      -0.03178610      -0.01203133      -0.04916631      -0.07138632
C        2.24926483       1.64335406      -7.07956938       0.00000000       0.00000000       0.00416693       0.01779526      -0.04897787      -0.07282762
C        0.84749447       1.02801246      -7.15559944       0.00000000       0.00000000      -0.05650531      -0.04184784       0.06475449      -0.05597866
C        0.48149087       0.61845947      -8.59157338       0.00000000       0.00000000      -0.02789244       0.04873973      -0.01744398      -0.06696420
C       -0.98593590       0.83357893      -8.96032012       0.00000000       0.00000000       0.01751777       0.00644810       0.02311424      -0.05860727
C       -1.20468265       0.71133432     -10.47168827       0.00000000       0.00000000      -0.02467110       0.05886344       0.03968324      -0.05884382
C       -1.20126742      -0.71400664     -11.00786745       0.00000000       0.00000000      -0.00352427       0.00007439       0.00918500      -0.10577989
H        2.21053419      -8.45072795      -4.87339239       0.00000000       0.00000000       0.04532229       0.01661606      -0.01036760       0.03901821
H        3.39845954      -7.21342081      -4.44401766       0.00000000       0.00000000      -0.01769329      -0.02564529       0.00372949       0.02533646
H        3.65684301      -8.23318476      -5.85860952       0.00000000       0.00000000      -0.01177917       0.01015130      -0.01176590       0.04569527
H        1.37502111      -6.24809774      -5.51140328       0.00000000       0.00000000      -0.00611085      -0.00859205      -0.01278843       0.01705370
H        1.65617840      -7.21489647      -6.95487550       0.00000000       0.00000000       0.01297612      -0.02771154       0.00481182       0.04022058
H        3.91998368      -6.14883798      -7.17791195       0.00000000       0.00000000       0.02737034      -0.00198982       0.07375264       0.04722666
H        3.48961860      -5.01341499      -5.90034655       0.00000000       0.00000000      -0.00670986      -0.00615998      -0.01099123       0.02163808
H        1.88751464      -5.34734009      -8.47568544       0.00000000       0.00000000       0.02469358       0.02580950       0.00477956       0.04693328
H        3.29206156      -4.29084135      -8.36486980       0.00000000       0.00000000      -0.02140132      -0.04163875       0.00604244       0.04374055
H        1.34963069      -2.95080403      -8.18243490       0.00000000       0.00000000       0.03053640       0.03252994      -0.05393669       0.03894210
H        2.15221551      -2.93357766      -6.61297271       0.00000000       0.00000000       0.06025749      -0.05733898      -0.05087986       0.01180625
H        0.54327459      -4.50392219      -5.71654219       0.00000000       0.00000000      -0.05283032       0.00430142      -0.04350619       0.03261177
H       -0.21485353      -4.73578892      -7.29112928       0.00000000       0.00000000       0.06894364      -0.00623914       0.00704713       0.05355998
H       -1.16936880      -2.54646813      -7.29299071       0.00000000       0.00000000       0.04251271      -0.03152234       0.07616038       0.06188319
H       -0.11660155      -1.97494098      -6.01824850       0.00000000       0.00000000      -0.00640803       0.04849528      -0.02366301       0.02618370
H       -1.35319445      -4.23409818      -4.87176447       0.00000000       0.00000000      -0.05864511       0.05657855      -0.05458293       0.05408891
H       -2.63809411      -3.48416057      -5.82076374       0.00000000       0.00000000       0.00494071      -0.01406957       0.02603549       0.08664597
H       -3.41454549      -0.96431313      -4.83243715       0.00000000       0.00000000      -0.00119251      -0.01367717       0.04470265       0.05890942
H       -3.39898267      -1.43453931      -3.11963363       0.00000000       0.00000000      -0.04420964       0.05958468      -0.03426004       0.06361050
H       -4.07417224      -3.84977215      -4.35751614       0.00000000       0.00000000      -0.03085870       0.02080319       0.09864992       0.06413372
H       -4.85037608      -2.68304251      -5.41571093       0.00000000       0.00000000      -0.01350474       0.00024654       0.01028733       0.05178087
H       -5.98894765      -1.67149664      -3.47259489       0.00000000       0.00000000      -0.04256490      -0.02302721       0.03009018       0.03303820
H       -5.17055189      -2.81971694      -2.39307383       0.00000000       0.00000000      -0.08457483       0.01915570      -0.05519328       0.04063619
H       -6.33779196      -4.66565594      -3.78817037       0.00000000       0.00000000      -0.00641095      -0.06529957       0.00571367       0.04372020
H       -7.28553970      -3.37286709      -4.49059970       0.00000000       0.00000000      -0.04127515      -0.03496276      -0.15167111       0.04291267
H       -8.72874682      -3.51600513      -2.75851677       0.00000000       0.00000000      -0.01699589       0.02477692      -0.00454307       0.04354787
H       -7.45891694      -2.91133125      -1.72509759       0.00000000       0.00000000       0.03688865      -0.05334588       0.03261158       0.02970393
H       -6.80589057      -5.59049630      -1.81493766       0.00000000       0.00000000       0.00678997       0.02185111      -0.04639265       0.03628255
H       -8.54331352      -5.66442325      -2.00573787       0.00000000       0.00000000       0.06858376      -0.05462642       0.04026915       0.04566140
H       -8.90734869      -5.07546526       0.21206128       0.00000000       0.00000000       0.08961229       0.02850295      -0.05307365       0.04393828
H       -7.61771096      -3.88714003       0.22386597       0.00000000       0.00000000       0.03282455      -0.00978027      -0.04909586       0.01219492
H       -7.26365169      -6.91423058       0.39098571       0.00000000       0.00000000      -0.00225739      -0.03544725      -0.00891889       0.04856091
H       -7.01819546      -5.77435864       1.70600690       0.00000000       0.00000000      -0.07495926       0.03080982       0.04582609       0.03638402
H       -5.92654133      -5.76840288       0.32286844       0.00000000       0.00000000      -0.05749736      -0.01701148       0.03432836       0.02233954
H        0.75809537      -2.79146410      -4.34378606       0.00000000       0.00000000      -0.03711134       0.02560114       0.15968080       0.07079137
H        0.16568440      -3.63456183      -1.47622846       0.00000000       0.00000000       0.04506592      -0.03890749      -0.04093172       0.08069153
H        1.22902190      -4.47347352      -2.64364690       0.00000000       0.00000000       0.07333104       0.10122970       0.05702501       0.07633381
H       -0.51125090      -4.52845241      -2.85953193       0.00000000       0.00000000      -0.04773497      -0.01703262       0.05610289       0.06964408
H        1.75396412      -0.93412794      -4.47728261       0.00000000       0.00000000       0.03528409      -0.02748961       0.01021965       0.05825454
H        4.00395762      -0.30315439      -3.82134507       0.00000000       0.00000000       0.07998562      -0.00286420      -0.02781560       0.06953692
H        3.70254714      -1.87089795      -3.07470860       0.00000000       0.00000000       0.03899840      -0.08735066      -0.06121892       0.07592987
H        3.40875512       0.81121906      -1.62904728       0.00000000       0.00000000       0.00505759       0.02045918      -0.05010056       0.05771057
H        4.71099644      -0.35180892      -1.41241972       0.00000000       0.00000000       0.18913649      -0.00573314      -0.00402397       0.06069243
H        3.06808218      -0.78812573      -0.95255014       0.00000000       0.00000000      -0.03922868       0.02599003       0.05009748       0.09473403
H       -0.30158303       2.68174379      -3.67321939       0.00000000       0.00000000       0.07087157      -0.00591948       0.00958306       0.06550154
H        1.07283725       3.75273491      -3.99744527       0.00000000       0.00000000      -0.04826400      -0.13594010      -0.02410875       0.08149489
H        1.78013272       2.83760313      -1.53576316       0.00000000       0.00000000      -0.02182938       0.03397250       0.06773415       0.05500393
H        0.03429440       2.77375503      -1.35647144       0.00000000       0.00000000       0.06945557       0.08423127      -0.00931686       0.06386264
H        1.59812940       5.23589138      -2.25437184       0.00000000       0.00000000      -0.03724618       0.03701538      -0.02717166       0.05027663
H        1.08669732       4.91955190      -0.60757303       0.00000000       0.00000000       0.00219557       0.07236821      -0.00234330       0.02962847
H       -1.03474522       5.63951690      -1.00268899       0.00000000       0.00000000      -0.01303403      -0.04046734       0.01057624       0.02972367
H       -1.17736978       4.61891071      -2.42805884       0.00000000       0.00000000      -0.03157069       0.03068484       0.05795946       0.03816858
H        0.50323111       6.92446733      -3.04534012       0.00000000       0.00000000       0.00011679      -0.03039090       0.00043423       0.03785480
H       -1.01774070       7.45288770      -2.36158420       0.00000000       0.00000000       0.00534120      -0.03545463      -0.02186309       0.04340559
H       -2.28574968       6.15647315      -4.00028567       0.00000000       0.00000000       0.01918600      -0.01731934      -0.00377539       0.03101339
H       -0.80459984       5.46440060      -4.66799179       0.00000000       0.00000000       0.01990296      -0.00798643       0.03920413       0.01968249
H       -0.05461518       7.70743077      -5.38140316       0.00000000       0.00000000      -0.01480340       0.02280623       0.02031717       0.03298523
H       -1.49641299       8.42650103      -4.66139414       0.00000000       0.00000000       0.00772092       0.03359244       0.00065941       0.03955897
H       -1.46445470       6.44806091      -6.99067599       0.00000000       0.00000000       0.02434204      -0.00963465      -0.00848817       0.03127244
H       -1.83071797       8.17072063      -7.08052552       0.00000000       0.00000000       0.05817691       0.01936176      -0.02649872       0.04848857
H       -2.92199477       7.08854378      -6.23742197       0.00000000       0.00000000      -0.06005965      -0.01810859       0.04085200       0.03714573
H        3.61611158       1.83618954      -3.87022869       0.00000000       0.00000000       0.02264237       0.05536930       0.03300119       0.05642980
H        2.74618465       3.05919996      -4.78434359       0.00000000       0.00000000       0.00331315       0.00532684      -0.03715331       0.09249021
H        3.05281717       0.18127183      -5.74115359       0.00000000       0.00000000      -0.04704297      -0.10060702       0.06430920       0.03733236
H        4.11369795       1.52419112      -6.08340737       0.00000000       0.00000000      -0.00999297       0.02481545       0.07118332       0.06347348
H        2.80972015       1.30846829      -7.95074542       0.00000000       0.00000000       0.07760898      -0.09984171      -0.03438181       0.05855395
H        2.19735636       2.72547482      -7.15471540       0.00000000       0.00000000      -0.09610725       0.15524961       0.00505400       0.05040341
H        0.10334881       1.73384256      -6.78198378       0.00000000       0.00000000       0.02535226       0.01099331       0.02909982       0.02963982
H        0.81756324       0.15026808      -6.50593630       0.00000000       0.00000000      -0.09963770      -0.05017325       0.02785848       0.00626182
H        0.74980166      -0.42572356      -8.75813923       0.00000000       0.00000000       0.05361710       0.03327029       0.00611010       0.03456313
H        1.06140470       1.22338600      -9.28701746       0.00000000       0.00000000       0.10726596       0.03161953       0.00174917       0.04768947
H       -1.27287844       1.84566216      -8.65875646       0.00000000       0.00000000      -0.00604086      -0.06023540       0.01219736       0.02995786
H       -1.62680814       0.12801963      -8.42627840       0.00000000       0.00000000      -0.01103180      -0.00314126      -0.00743540       0.02201835
H       -0.42451083       1.28482456     -10.97472294       0.00000000       0.00000000      -0.00491174       0.00774995      -0.04725156       0.03926650
H       -2.15685239       1.17792368     -10.72355733       0.00000000       0.00000000      -0.07955822      -0.02567793      -0.01517989       0.03988796
H       -0.26802163      -1.22608942     -10.79589908       0.00000000       0.00000000       0.07968254       0.01187940       0.05492417       0.03223656
H       -1.32794006      -0.69312994     -12.08486709       0.00000000       0.00000000      -0.01361552      -0.00760381      -0.07083799       0.04750301
H       -2.01776914      -1.29612970     -10.58998385       0.00000000       0.00000000      -0.04557911      -0.00239050       0.08348262       0.03155945
