412
Properties=species:S:1:pos:R:3:initial_charges:R:1:initial_magmoms:R:1:forces:R:3:charge:R:1 energy=-12832.808539139969 free_energy=-12832.808539139969 dipole="0.7226781433865306 -2.3367592303407307 -2.141413781707652" pbc="F F F"
Sm      -0.18828146      -0.36019958      -0.35323028       3.00000000       0.00000000      -0.00767035       0.03820399      -0.07396472       0.86655760
C       -3.83729021       1.82779377      -8.59215965       0.00000000       0.00000000      -0.00424051      -0.00194821      -0.01793460      -0.10883969
C       -3.01026718       2.81547701      -7.77830920       0.00000000       0.00000000       0.03308028       0.05110882      -0.02796696      -0.04896723
C       -2.66563243       4.05674497      -8.61007559       0.00000000       0.00000000       0.00795115       0.01802829       0.00390933      -0.06683647
C       -1.50437794       4.91160905      -8.08738693       0.00000000       0.00000000       0.01487315      -0.02642428      -0.01046435      -0.06132461
C       -1.81321454       5.93341945      -6.98732809       0.00000000       0.00000000       0.00974614       0.01946859      -0.01139550      -0.06512987
C       -2.42756207       5.41720500      -5.68491637       0.00000000       0.00000000      -0.03971389      -0.01776610       0.00027478      -0.06554652
C       -1.46161621       4.57998534      -4.83642844       0.00000000       0.00000000      -0.02635468       0.00619827      -0.00745451      -0.07627719
C       -2.22675240       3.72530925      -3.82076042       0.00000000       0.00000000      -0.03020764       0.03535069      -0.01232416      -0.01906119
N       -1.45904677       3.21339403      -2.68869172       0.00000000       0.00000000      -0.02122935       0.02862874      -0.02614241      -0.05444678
C       -0.85150294       4.19601664      -1.78285894       0.00000000       0.00000000      -0.02108375       0.01597127      -0.02959241      -0.01077792
C       -1.83500160       5.05563421      -0.99287121       0.00000000       0.00000000       0.10606947       0.07358386      -0.05484823      -0.07459012
C       -2.56832636       4.24607018       0.07338241       0.00000000       0.00000000       0.07737203       0.01529163      -0.05328970      -0.05541213
C       -3.71973488       5.00139103       0.73830264       0.00000000       0.00000000      -0.11480115      -0.00908749      -0.00605744      -0.06695516
C       -5.09327220       4.83083893       0.07227300       0.00000000       0.00000000      -0.14473446      -0.05682050      -0.08957456      -0.01945195
C       -5.54571491       3.36722005       0.12031657       0.00000000       0.00000000      -0.01993663      -0.02417756       0.00742310      -0.10270035
C       -5.17295248       5.34187679      -1.37029368       0.00000000       0.00000000      -0.01620608       0.00513068      -0.06131175      -0.06246924
C       -4.92681888       6.84418055      -1.52561489       0.00000000       0.00000000      -0.02402867       0.00951785       0.03112291      -0.06505737
C       -4.71936866       7.22978648      -2.98862677       0.00000000       0.00000000      -0.01922427       0.01881803       0.00015975      -0.06124242
C       -4.63261211       8.74018830      -3.23712360       0.00000000       0.00000000       0.00300333       0.02990309       0.00158643      -0.01310043
C       -3.38075717       9.35360769      -2.61260286       0.00000000       0.00000000       0.00715414      -0.00005361       0.00644536      -0.10843306
C       -4.64865840       9.02358887      -4.73888258       0.00000000       0.00000000       0.00748067      -0.00145971       0.00551150      -0.11021794
C       -1.39463355       1.93354990      -2.34810126       0.00000000       0.00000000      -0.04971347      -0.02049273       0.03938260       0.26173804
O       -1.08371919       1.56716556      -1.19664104       0.00000000       0.00000000       0.02358424      -0.00404874       0.10197790      -0.37650647
C       -1.53323058       0.82129552      -3.40577363       0.00000000       0.00000000       0.05809938       0.06298190      -0.05160543       0.04476179
O       -0.60753692      -0.14721281      -2.92419578       0.00000000       0.00000000      -0.14898786      -0.04344276      -0.03813308      -0.23451764
C       -0.04358220      -1.05529049      -3.86570573       0.00000000       0.00000000       0.00255258      -0.03270536       0.04534282       0.05896990
C        1.10609499      -1.64024237      -3.02118853       0.00000000       0.00000000      -0.01523613       0.04765882      -0.01468321       0.25976694
O        0.63675399      -1.99916077      -1.90711434       0.00000000       0.00000000      -0.04752531       0.05214420      -0.03964283      -0.42005834
N        2.40117325      -1.76187504      -3.34967836       0.00000000       0.00000000      -0.01988171       0.01114559      -0.13092733      -0.07091211
C        3.12005021      -2.50272238      -2.21695853       0.00000000       0.00000000      -0.09287546       0.02011929      -0.07253016      -0.04775247
C        3.81810730      -3.90548647      -2.11357121       0.00000000       0.00000000      -0.01093375      -0.08128020       0.00707519      -0.07087632
C        5.35728574      -4.19190495      -2.05376028       0.00000000       0.00000000      -0.02152753      -0.02693701      -0.00481563      -0.07861782
C        6.26202693      -3.40659822      -1.06270210       0.00000000       0.00000000       0.02930665       0.01837491       0.00558974      -0.06347752
C        7.43894123      -2.52608241      -1.56674685       0.00000000       0.00000000       0.06046971       0.06782462      -0.02680146      -0.06707695
C        8.22535610      -3.00524974      -2.79224435       0.00000000       0.00000000       0.03850524       0.06072435       0.00246810      -0.06440762
C        9.43545270      -2.11823806      -3.15068549       0.00000000       0.00000000       0.00113732      -0.03375130       0.00736066      -0.06256554
C        9.15962254      -0.64097358      -3.43776113       0.00000000       0.00000000      -0.04802384      -0.07112078       0.05173076      -0.10275864
C        2.81216352      -1.15990133      -4.71170577       0.00000000       0.00000000       0.00218728       0.00141135      -0.07382815      -0.05708625
C        3.74017146      -0.00389837      -5.41108008       0.00000000       0.00000000      -0.11141853       0.05708492       0.10885447      -0.09403397
C        5.27050933       0.39419235      -5.58309841       0.00000000       0.00000000      -0.00683718       0.02736282       0.02558877      -0.08302673
C        5.57077459       1.92470618      -5.48771345       0.00000000       0.00000000       0.07455329       0.02306113       0.02679578      -0.08383853
C        6.53746208       2.62695043      -4.45688266       0.00000000       0.00000000      -0.03835319      -0.00050042       0.00975361      -0.02557568
C        6.18552062       4.11287227      -4.57891316       0.00000000       0.00000000       0.00639987      -0.03069679      -0.01977788      -0.11418845
C        6.49639521       2.19997666      -2.97472313       0.00000000       0.00000000       0.03243997       0.05831003       0.00528042      -0.07884802
C        7.27922286       2.99992756      -1.91696755       0.00000000       0.00000000       0.05171744      -0.02444395       0.03120068      -0.06332773
C        7.12724506       2.22277630      -0.59149860       0.00000000       0.00000000       0.00140398      -0.01144564      -0.04462540      -0.06163558
C        7.69758314       2.83852962       0.70038725       0.00000000       0.00000000      -0.01389399      -0.00006561      -0.08397880      -0.01417949
C        6.74714202       3.86062095       1.32551831       0.00000000       0.00000000       0.03595934      -0.00061380      -0.06207501      -0.10852997
C        7.97157793       1.73286798       1.72750874       0.00000000       0.00000000       0.03027832       0.05572503      -0.07197175      -0.10952787
H       -4.12563794       0.96896115      -7.99232888       0.00000000       0.00000000      -0.01048723      -0.04655036       0.04110025       0.02716998
H       -3.27279176       1.46987936      -9.44734786       0.00000000       0.00000000       0.03378424      -0.01593301      -0.05658901       0.04052309
H       -4.74107860       2.30094469      -8.96133111       0.00000000       0.00000000      -0.04338527       0.03910524      -0.00053287       0.04729506
H       -2.08680727       2.32343827      -7.45403608       0.00000000       0.00000000      -0.00343187       0.03727935      -0.01433266       0.01030193
H       -3.57509755       3.08838111      -6.88485543       0.00000000       0.00000000       0.02467108      -0.00160609      -0.01919472       0.02094113
H       -3.55228763       4.67976144      -8.73584198       0.00000000       0.00000000      -0.00142752      -0.02050541       0.06765920       0.04486838
H       -2.38106977       3.70949991      -9.60683882       0.00000000       0.00000000      -0.01257915      -0.00765726       0.02835742       0.04368584
H       -1.11941577       5.48485928      -8.93600234       0.00000000       0.00000000      -0.00553907      -0.01512189       0.08099942       0.04515832
H       -0.69552243       4.24859564      -7.77178398       0.00000000       0.00000000      -0.02741672       0.01056115       0.00065215       0.02091444
H       -2.48937890       6.68230309      -7.39843208       0.00000000       0.00000000      -0.09968738      -0.02425723      -0.03517827       0.05146045
H       -0.88446125       6.45441533      -6.74648426       0.00000000       0.00000000       0.06510572       0.01952364       0.00346551       0.03558166
H       -3.32359589       4.84173719      -5.90992237       0.00000000       0.00000000       0.00603040      -0.00644288      -0.00590449       0.04601243
H       -2.74155597       6.28720955      -5.10605791       0.00000000       0.00000000      -0.02125885      -0.02368214       0.00617635       0.04491394
H       -0.77137982       5.25455921      -4.33052180       0.00000000       0.00000000      -0.02072606       0.00931759      -0.00472780       0.04614839
H       -0.88553212       3.93956433      -5.49020920       0.00000000       0.00000000      -0.02233504      -0.01218014      -0.00263371       0.05852500
H       -2.71409577       2.89044176      -4.32905517       0.00000000       0.00000000       0.06966101       0.02521615       0.02239691       0.05213189
H       -3.02189163       4.34554513      -3.40116718       0.00000000       0.00000000      -0.07097589       0.05500613       0.04920432       0.08412788
H       -0.22279485       4.84354701      -2.40157418       0.00000000       0.00000000      -0.02228104      -0.04715123       0.05884658       0.06961433
H       -0.21703378       3.63700766      -1.08606365       0.00000000       0.00000000      -0.03121957       0.04370752      -0.07952100       0.07424460
H       -2.52033407       5.55351519      -1.67338535       0.00000000       0.00000000      -0.05547428      -0.07434445       0.03494880       0.07286727
H       -1.25902231       5.84612261      -0.51042193       0.00000000       0.00000000       0.03148211       0.01281433       0.05194368       0.05748766
H       -1.83591101       3.97313962       0.83564554       0.00000000       0.00000000       0.04028119      -0.05902294       0.03692788       0.02670004
H       -2.92972704       3.31659246      -0.36693952       0.00000000       0.00000000      -0.03306191      -0.02108455      -0.00493580       0.03127623
H       -3.48017265       6.06160380       0.80176176       0.00000000       0.00000000       0.06550717       0.01225083      -0.03404488       0.04850170
H       -3.82129760       4.64961774       1.76514716       0.00000000       0.00000000      -0.01052040      -0.04063437       0.08711889       0.03259907
H       -5.80733915       5.41150396       0.66529310       0.00000000       0.00000000       0.02588984       0.01748151       0.02125245       0.04427876
H       -4.94426547       2.73965363      -0.54073637       0.00000000       0.00000000      -0.02874079       0.04853910       0.01334198       0.01116126
H       -6.58264798       3.28134909      -0.19962562       0.00000000       0.00000000       0.05067567       0.01796477       0.03350306       0.04533270
H       -5.46497877       2.98240630       1.13612208       0.00000000       0.00000000      -0.02852123      -0.01009784      -0.02194976       0.02864275
H       -6.16861914       5.11708143      -1.76155959       0.00000000       0.00000000      -0.00600987       0.01551013       0.04810554       0.03831863
H       -4.47301368       4.77875700      -1.99158617       0.00000000       0.00000000       0.03073833      -0.01941878       0.01947091       0.01614524
H       -4.05504495       7.15175764      -0.94898250       0.00000000       0.00000000      -0.00070217      -0.02118664       0.01318577       0.03498793
H       -5.78708471       7.38224345      -1.12888242       0.00000000       0.00000000      -0.02221446       0.03776557       0.02119149       0.04223907
H       -5.54575775       6.83052269      -3.57855743       0.00000000       0.00000000      -0.04962061      -0.02405199      -0.02067534       0.03324831
H       -3.80066375       6.76259825      -3.35352847       0.00000000       0.00000000       0.02854091      -0.00499551      -0.01726055       0.01442751
H       -5.51215983       9.21316969      -2.78974305       0.00000000       0.00000000      -0.00069585      -0.00645540       0.01250432       0.03784984
H       -2.48167510       8.89196270      -3.01848169       0.00000000       0.00000000      -0.00305494      -0.02816178      -0.00186516       0.02700067
H       -3.37602986       9.23697703      -1.53219954       0.00000000       0.00000000      -0.00740076      -0.00413833       0.00744698       0.03257876
H       -3.33691415      10.41695114      -2.83193189       0.00000000       0.00000000      -0.02032944      -0.00420099       0.00061280       0.04669344
H       -3.77460170       8.58883884      -5.22073528       0.00000000       0.00000000       0.01065670      -0.00666205      -0.00613857       0.02928451
H       -4.63481875      10.09485890      -4.91962648       0.00000000       0.00000000      -0.01228910      -0.00945718      -0.00374138       0.04791603
H       -5.53952229       8.60988364      -5.20560296       0.00000000       0.00000000      -0.00251878       0.00835833       0.01331707       0.03716308
H       -1.21595627       1.18921946      -4.39010257       0.00000000       0.00000000      -0.14028072      -0.02630319       0.05173932       0.07567599
H       -2.53927814       0.38620304      -3.47458860       0.00000000       0.00000000      -0.03204591       0.09592981       0.05096494       0.08801703
H        0.15469162      -0.55920418      -4.81712579       0.00000000       0.00000000      -0.01461984       0.04437224       0.00543419       0.07012327
H       -0.71572659      -1.90386809      -4.07393412       0.00000000       0.00000000      -0.08675138       0.05532852       0.07880697       0.08615729
H        2.26487086      -2.65282820      -1.56528950       0.00000000       0.00000000       0.06086583      -0.09893926       0.08274969       0.09614423
H        3.76264020      -1.79502451      -1.73219510       0.00000000       0.00000000       0.05429894      -0.04057494      -0.01418423       0.08320540
H        3.40322469      -4.62270775      -2.81809734       0.00000000       0.00000000      -0.01831571       0.04538255       0.00687688       0.06386243
H        3.45521952      -4.22832599      -1.13591400       0.00000000       0.00000000       0.06152094      -0.04189249       0.07779511       0.03722120
H        5.81912825      -4.21066613      -3.03716575       0.00000000       0.00000000      -0.07339948      -0.01667998       0.01101111       0.06716447
H        5.37385676      -5.22814793      -1.70823456       0.00000000       0.00000000       0.00394539      -0.07865824      -0.08698919       0.05148044
H        6.72140475      -4.13723512      -0.40135392       0.00000000       0.00000000      -0.05667839      -0.13349191       0.02007795       0.05192505
H        5.63843234      -2.77501371      -0.42384871       0.00000000       0.00000000      -0.03852622       0.02636452       0.05490207       0.00595991
H        8.15112585      -2.45484318      -0.74132585       0.00000000       0.00000000      -0.04020091      -0.06045458       0.04943268       0.04575912
H        7.09983704      -1.50574684      -1.74144800       0.00000000       0.00000000      -0.03333465       0.00803801      -0.01967644       0.02505636
H        7.58217491      -3.06489781      -3.67027450       0.00000000       0.00000000       0.00331469      -0.01155245       0.01721964       0.02809202
H        8.60726772      -4.00979334      -2.60401070       0.00000000       0.00000000      -0.03434212      -0.01244703       0.03327267       0.04295213
H        9.89278351      -2.54461017      -4.04683299       0.00000000       0.00000000       0.00470092      -0.06221574       0.08265017       0.04475694
H       10.17140251      -2.17709069      -2.34758897       0.00000000       0.00000000      -0.01550685      -0.01491759       0.01458551       0.04314206
H        8.40076754      -0.50902595      -4.20711672       0.00000000       0.00000000      -0.05034245      -0.08066823      -0.00960534       0.02289772
H       10.06705220      -0.16220936      -3.80399796       0.00000000       0.00000000      -0.04130978      -0.10188221       0.08187439       0.04929835
H        8.85259601      -0.11344689      -2.53779983       0.00000000       0.00000000      -0.02715312       0.00023724       0.00887454       0.02954972
H        1.86178695      -0.78645771      -5.06984552       0.00000000       0.00000000       0.06115050      -0.02510679       0.12362068       0.05172741
H        2.99605932      -2.02173484      -5.31164451       0.00000000       0.00000000       0.14270945      -0.11776681      -0.03294980       0.12658057
H        3.21782835       0.92113252      -5.22781487       0.00000000       0.00000000       0.12494695      -0.14483301       0.01525932       0.07981176
H        3.47294310      -0.28319237      -6.43142019       0.00000000       0.00000000      -0.04650873      -0.00127942       0.07102292       0.07253268
H        5.52521319       0.10676199      -6.60589260       0.00000000       0.00000000      -0.10109900       0.10728899      -0.06653885       0.04701403
H        5.99858755      -0.14484163      -4.99985008       0.00000000       0.00000000       0.01188817       0.09096590       0.05194833       0.06956669
H        4.62716809       2.47165661      -5.44803319       0.00000000       0.00000000       0.05332632      -0.03597012      -0.04760230       0.03254480
H        6.00913408       2.18901201      -6.45289257       0.00000000       0.00000000      -0.03079971       0.07716113       0.05113300       0.05366571
H        7.56544020       2.47497035      -4.79879644       0.00000000       0.00000000      -0.04165079      -0.00292003      -0.03556923       0.04449055
H        5.17643200       4.27629250      -4.19934815       0.00000000       0.00000000       0.03881073       0.11329881       0.01672303       0.02619513
H        6.21796904       4.43159771      -5.61775435       0.00000000       0.00000000       0.00706513       0.00764360       0.01381679       0.04518523
H        6.87002099       4.73958878      -4.01973921       0.00000000       0.00000000       0.07228097      -0.03915666       0.02190784       0.05404635
H        6.88163016       1.18286735      -2.90156750       0.00000000       0.00000000       0.05810007       0.03069097      -0.07225171       0.03292142
H        5.47712111       2.23711775      -2.59974042       0.00000000       0.00000000       0.01283702       0.01055268      -0.05799811       0.02587581
H        6.86758584       4.00443740      -1.82483147       0.00000000       0.00000000       0.03921168      -0.02605640       0.07203691       0.04080995
H        8.33094006       3.07985399      -2.18811818       0.00000000       0.00000000       0.01283703       0.00711265       0.03861910       0.04493743
H        7.61094027       1.25231842      -0.73423072       0.00000000       0.00000000       0.01785032      -0.01290436       0.01236606       0.02737309
H        6.06009648       2.02846960      -0.42841426       0.00000000       0.00000000      -0.00620829       0.00273482       0.02212907       0.00807984
H        8.64632941       3.33228859       0.46788719       0.00000000       0.00000000      -0.05270751      -0.00880079      -0.01410354       0.04429487
H        5.83421730       3.37633777       1.67470588       0.00000000       0.00000000       0.01822060      -0.00426523      -0.06780225       0.02254701
H        6.48096898       4.63933572       0.61731954       0.00000000       0.00000000      -0.00425759       0.01726238      -0.04464210       0.03789115
H        7.22101584       4.33283478       2.18241908       0.00000000       0.00000000       0.00290193       0.00634042      -0.02930889       0.04609886
H        7.06126585       1.17855633       1.96179218       0.00000000       0.00000000       0.02525344       0.04609245      -0.05655106       0.02142295
H        8.34621190       2.17262210       2.64798320       0.00000000       0.00000000       0.00874192      -0.01770823      -0.00201395       0.04765581
H        8.71922752       1.03311997       1.36085184       0.00000000       0.00000000      -0.01639106       0.00696158      -0.00817454       0.03804559
C       -8.28071270       2.36653840       2.75145063       0.00000000       0.00000000       0.01002561      -0.04574725       0.00703188      -0.11116618
C       -7.48971714       1.06713276       2.81880578       0.00000000       0.00000000       0.03861947      -0.07738895       0.02045491      -0.04629249
C       -8.28950893      -0.03252239       3.52171233       0.00000000       0.00000000      -0.02507271      -0.01574843       0.00617053      -0.06992051
C       -7.46343625      -1.28428412       3.86110894       0.00000000       0.00000000       0.00420206       0.01311881       0.03682794      -0.06099543
C       -7.89994062      -2.54342375       3.11016291       0.00000000       0.00000000      -0.00177445       0.00580165      -0.00157552      -0.06587189
C       -7.64536493      -2.47146791       1.60447980       0.00000000       0.00000000       0.02898230       0.00920228      -0.03821490      -0.06547713
C       -6.15437142      -2.64235509       1.28781542       0.00000000       0.00000000       0.04021483      -0.00162965       0.01901064      -0.06558706
C       -5.72799596      -1.88166741       0.03536177       0.00000000       0.00000000      -0.05301119      -0.00473394      -0.00967533      -0.01904129
N       -4.33361800      -2.06502809      -0.34400053       0.00000000       0.00000000       0.00972342      -0.02063290       0.00711598      -0.05830719
C       -3.99887848      -3.31360220      -1.02858656       0.00000000       0.00000000      -0.00093300      -0.00828637      -0.01584236      -0.00993891
C       -4.51271898      -3.43952206      -2.45857196       0.00000000       0.00000000      -0.00400841      -0.02469192       0.04489798      -0.07630138
C       -3.97688794      -2.33513529      -3.36440461       0.00000000       0.00000000      -0.00603455      -0.01405462       0.01865890      -0.05189051
C       -4.49497029      -2.44639051      -4.80288166       0.00000000       0.00000000      -0.05487394       0.05419449      -0.04782019      -0.06475233
C       -5.76405653      -1.63416900      -5.11728161       0.00000000       0.00000000      -0.07666390       0.06057793       0.00917833      -0.02006951
C       -5.45524008      -0.13415729      -5.13213688       0.00000000       0.00000000      -0.00134148       0.01707245      -0.01113669      -0.10570057
C       -6.94019452      -1.90318386      -4.17047920       0.00000000       0.00000000      -0.02474511       0.00323307       0.02016323      -0.06484358
C       -7.49400107      -3.32970514      -4.23936014       0.00000000       0.00000000       0.01122363       0.01532127      -0.03810893      -0.06594108
C       -8.39110230      -3.65575632      -3.04460368       0.00000000       0.00000000       0.00477361      -0.00436038      -0.02573254      -0.06035034
C       -9.03791024      -5.04474552      -3.12218136       0.00000000       0.00000000      -0.00030108      -0.00695004      -0.00588911      -0.01328672
C       -8.00955544      -6.16506795      -2.96664524       0.00000000       0.00000000      -0.00628811       0.01376898      -0.00257532      -0.10782390
C      -10.11245733      -5.18570625      -2.04545007       0.00000000       0.00000000       0.00638195      -0.00378818      -0.00150419      -0.11057652
C       -3.35096949      -1.20427879      -0.10485949       0.00000000       0.00000000       0.01913416      -0.12435553      -0.05919335       0.26175979
O       -2.27212158      -1.25000174      -0.72704824       0.00000000       0.00000000       0.05531138      -0.04162834      -0.03195410      -0.37499569
C       -3.45802372      -0.20909725       1.05644944       0.00000000       0.00000000       0.03909608       0.01246087      -0.04505386       0.04787866
O       -2.11208888       0.16260302       1.33098343       0.00000000       0.00000000       0.01705099       0.01976071       0.03622370      -0.22286401
C       -1.85150007       0.50066893       2.68367313       0.00000000       0.00000000       0.01481992       0.03166449       0.00617897       0.04939964
C       -0.32346614       0.46667135       2.84323885       0.00000000       0.00000000      -0.00969492       0.04304813      -0.00342775       0.26110085
O        0.37060515       0.42852554       1.80816427       0.00000000       0.00000000      -0.01214030      -0.03559536      -0.03308633      -0.37910568
N        0.21449871       0.48434351       4.05496989       0.00000000       0.00000000      -0.05036858       0.01664351      -0.04907270      -0.04666062
C        1.66516039       0.45450223       4.18668279       0.00000000       0.00000000       0.05204910       0.03693741       0.00636983      -0.00954126
C        2.32346926       1.83693277       4.11198013       0.00000000       0.00000000       0.05562050       0.03245260       0.00239290      -0.06503018
C        3.66139822       1.86543193       4.86463503       0.00000000       0.00000000       0.00055824      -0.03575014      -0.03309206      -0.06920900
C        4.65610811       0.78229680       4.40674249       0.00000000       0.00000000       0.01007942       0.00771664       0.01577047      -0.06378240
C        4.83766845      -0.36694986       5.40565933       0.00000000       0.00000000      -0.03482624       0.00558953      -0.01210794      -0.05982839
C        5.66636473       0.03514068       6.62567684       0.00000000       0.00000000       0.01253026      -0.04694828       0.01886175      -0.06445152
C        5.80434708      -1.10149369       7.64715940       0.00000000       0.00000000      -0.02510692      -0.02761634       0.07558822      -0.05780476
C        4.68041433      -1.14844784       8.67957409       0.00000000       0.00000000      -0.03890275       0.01724002       0.01050183      -0.10143233
C       -0.52210945       0.59409245       5.30287005       0.00000000       0.00000000      -0.05742398      -0.04869895       0.05883430      -0.02470599
C       -0.96170240      -0.73707057       5.93271415       0.00000000       0.00000000       0.06512260      -0.10532297       0.04018547      -0.07100102
C        0.13607905      -1.69836234       6.42169250       0.00000000       0.00000000       0.03080944      -0.01676219      -0.00980435      -0.06662134
C        0.64770516      -2.65779016       5.33973862       0.00000000       0.00000000      -0.00766070       0.07566828       0.02856239      -0.06237557
C        1.33392010      -3.93207665       5.88003549       0.00000000       0.00000000      -0.01287912       0.07447185       0.03760727      -0.02108013
C        1.07162432      -5.06592059       4.89140760       0.00000000       0.00000000       0.01087029      -0.01591686       0.01179010      -0.11160023
C        2.84575380      -3.76842426       6.09330241       0.00000000       0.00000000       0.00116419      -0.00674918      -0.02886842      -0.06256626
C        3.47142045      -4.97552722       6.82466515       0.00000000       0.00000000      -0.03673484       0.01649639       0.03537900      -0.06483136
C        4.59907527      -5.65891993       6.04393209       0.00000000       0.00000000      -0.03052900       0.01006189       0.01173123      -0.06186543
C        4.97990665      -7.03938140       6.60724566       0.00000000       0.00000000       0.02867729       0.00397991       0.01053383      -0.01375724
C        4.04525128      -8.13150009       6.08406489       0.00000000       0.00000000      -0.00120022       0.05791210       0.02824040      -0.10477602
C        6.41953658      -7.40747297       6.25109445       0.00000000       0.00000000       0.00829401       0.03054351       0.01087264      -0.10776303
H       -7.71218137       3.14837376       2.25486077       0.00000000       0.00000000       0.00707892       0.01749961       0.02588047       0.03534561
H       -8.52096698       2.69295863       3.75922514       0.00000000       0.00000000      -0.02981116       0.08002807      -0.02133054       0.04660067
H       -9.20916086       2.22280065       2.20748602       0.00000000       0.00000000      -0.03986623      -0.01946542      -0.00893568       0.04424181
H       -6.55911109       1.24567241       3.36780031       0.00000000       0.00000000      -0.01823704      -0.00388306       0.02405952       0.01312028
H       -7.21736659       0.74400027       1.80885280       0.00000000       0.00000000      -0.01278145      -0.00100407      -0.00929463       0.00901728
H       -9.13833428      -0.31189334       2.89826351       0.00000000       0.00000000      -0.02651417       0.01910171      -0.03633300       0.04559859
H       -8.70456971       0.38197127       4.44021463       0.00000000       0.00000000       0.03411029       0.03717552       0.01533814       0.04626840
H       -7.55303856      -1.49277894       4.92690696       0.00000000       0.00000000       0.02044784      -0.00774872       0.02313225       0.04194061
H       -6.40759123      -1.07989513       3.66572954       0.00000000       0.00000000       0.01210605      -0.01644645       0.02448259       0.01489876
H       -8.96185165      -2.70366810       3.29029790       0.00000000       0.00000000      -0.03631454       0.02222230      -0.02646091       0.05428051
H       -7.36979414      -3.40688851       3.51690016       0.00000000       0.00000000      -0.00166371      -0.01766662       0.01670221       0.03866453
H       -8.00580569      -1.51623510       1.22514109       0.00000000       0.00000000       0.02437591       0.04147346      -0.00528245       0.04877022
H       -8.21511051      -3.25467870       1.10559690       0.00000000       0.00000000      -0.00803195       0.00045600      -0.03590771       0.04746140
H       -5.93834021      -3.70469570       1.17350375       0.00000000       0.00000000       0.03853844      -0.00598384       0.01071825       0.04577879
H       -5.57378040      -2.27079920       2.13025930       0.00000000       0.00000000       0.01646187       0.02103455       0.01322834       0.03844191
H       -5.92643991      -0.81740657       0.16851992       0.00000000       0.00000000       0.03911135       0.03752693       0.01633272       0.05501143
H       -6.33385706      -2.23105932      -0.80310712       0.00000000       0.00000000      -0.01661436       0.02456868      -0.04748482       0.08629690
H       -4.40741246      -4.12372301      -0.41521503       0.00000000       0.00000000       0.03421824       0.02629821      -0.07993248       0.06979067
H       -2.90800335      -3.38045176      -1.03571329       0.00000000       0.00000000      -0.02803848      -0.01739822       0.01646889       0.06858078
H       -4.18358309      -4.41042332      -2.83430065       0.00000000       0.00000000      -0.00955698       0.01013653      -0.00521206       0.05578611
H       -5.59829103      -3.44272550      -2.46799539       0.00000000       0.00000000       0.01649056       0.00479515       0.01151611       0.07730152
H       -2.88575780      -2.39521159      -3.35892405       0.00000000       0.00000000       0.05602233      -0.02565249       0.00654244       0.02092397
H       -4.24145861      -1.36472715      -2.94021755       0.00000000       0.00000000      -0.04223998       0.02201135      -0.02465769       0.02652575
H       -4.66923244      -3.49563833      -5.04424215       0.00000000       0.00000000       0.01034729       0.00846295       0.04030074       0.04482133
H       -3.72202170      -2.09274736      -5.48784079       0.00000000       0.00000000       0.05959975      -0.00603132      -0.03726896       0.02853843
H       -6.07732766      -1.91219329      -6.12925305       0.00000000       0.00000000       0.02479646      -0.02609654       0.02276387       0.04559190
H       -5.23206768       0.23749288      -4.13182836       0.00000000       0.00000000       0.00065437      -0.01302523      -0.01219264       0.01529335
H       -6.30825588       0.42320285      -5.50912966       0.00000000       0.00000000      -0.01395108      -0.01828818       0.01615077       0.04957951
H       -4.60775742       0.07876349      -5.78106920       0.00000000       0.00000000       0.02119951      -0.00333034       0.00824994       0.02761663
H       -7.74453166      -1.20927217      -4.42269882       0.00000000       0.00000000      -0.00002837      -0.00963067      -0.01328852       0.04219901
H       -6.63835615      -1.66201438      -3.14822514       0.00000000       0.00000000       0.00521503      -0.00607849       0.01328122       0.01916336
H       -6.67573890      -4.04791706      -4.28739405       0.00000000       0.00000000      -0.01137532      -0.00237715      -0.00463139       0.03361879
H       -8.07219643      -3.44021776      -5.15680720       0.00000000       0.00000000      -0.00626281      -0.00246791      -0.01899634       0.04298865
H       -9.18148668      -2.90535285      -2.98462236       0.00000000       0.00000000      -0.01312229       0.01488469      -0.01511276       0.03692267
H       -7.81180736      -3.59175893      -2.11702057       0.00000000       0.00000000      -0.01194794       0.00083306       0.02979252       0.01036162
H       -9.51693441      -5.14389137      -4.10143683       0.00000000       0.00000000       0.01416031      -0.00184134       0.00991716       0.03861322
H       -7.51105269      -6.09584194      -2.00013986       0.00000000       0.00000000       0.00589787       0.02099175      -0.00948604       0.02488763
H       -7.25834844      -6.13011038      -3.75179254       0.00000000       0.00000000      -0.00806607      -0.00197046       0.00169038       0.03026139
H       -8.50254519      -7.13220092      -3.01952970       0.00000000       0.00000000      -0.00169941       0.01779743      -0.01013803       0.04652910
H       -9.67180973      -5.12062990      -1.05224901       0.00000000       0.00000000       0.01028565       0.01613298       0.01181875       0.02920931
H      -10.60604830      -6.14929412      -2.13283212       0.00000000       0.00000000      -0.01748451      -0.00064030       0.00327243       0.04755995
H      -10.86555601      -4.40734250      -2.13943348       0.00000000       0.00000000       0.00438419      -0.00404667      -0.01480650       0.03956780
H       -3.89571251      -0.72364379       1.91979563       0.00000000       0.00000000      -0.07032399       0.04773308       0.00496938       0.07860860
H       -4.05711901       0.67838104       0.81329514       0.00000000       0.00000000      -0.05068820       0.00387088      -0.02469289       0.08801396
H       -2.34453635      -0.21366176       3.35587088       0.00000000       0.00000000       0.07420150       0.01205070       0.02543334       0.07598237
H       -2.22204644       1.51523417       2.89988042       0.00000000       0.00000000       0.01152867      -0.01322195       0.03384203       0.08077377
H        2.05817375      -0.18979884       3.39972388       0.00000000       0.00000000       0.01705979      -0.01028071      -0.01185286       0.05928574
H        1.89046103       0.02280677       5.15831223       0.00000000       0.00000000       0.00062037      -0.06361048       0.00838427       0.08878817
H        1.65423204       2.57915817       4.55394355       0.00000000       0.00000000       0.04176779      -0.02418817       0.00045700       0.04643585
H        2.48200821       2.11603851       3.06871141       0.00000000       0.00000000      -0.05397810       0.00383520      -0.01613483       0.04039853
H        3.47204984       1.74759988       5.93345565       0.00000000       0.00000000       0.00064263       0.02409116      -0.05732369       0.05302531
H        4.10646218       2.85254287       4.72096653       0.00000000       0.00000000      -0.06817840      -0.05991663       0.03140924       0.05251621
H        5.63641341       1.23483559       4.24923867       0.00000000       0.00000000      -0.01850337       0.00172487      -0.01626387       0.04907554
H        4.33211771       0.37104884       3.44528319       0.00000000       0.00000000       0.02810581       0.05429504       0.00886343       0.01025899
H        5.35031067      -1.18842724       4.89594853       0.00000000       0.00000000      -0.01052291       0.01530291       0.03931701       0.02967876
H        3.86755103      -0.74322119       5.73403546       0.00000000       0.00000000      -0.01990127       0.00349785      -0.01045770       0.02436083
H        5.22648002       0.90836794       7.11315930       0.00000000       0.00000000       0.03338264      -0.05232509      -0.02346301       0.03945741
H        6.66070040       0.31802973       6.27797611       0.00000000       0.00000000       0.01645059       0.04397473      -0.00152364       0.03671091
H        6.74307213      -0.97826190       8.18818441       0.00000000       0.00000000       0.01071067      -0.00629112      -0.02145921       0.04403032
H        5.85211285      -2.06013958       7.12296944       0.00000000       0.00000000       0.01507437       0.04942907      -0.01512053       0.03201664
H        4.70638322      -0.26959216       9.32230070       0.00000000       0.00000000       0.00645537      -0.02032142      -0.08174495       0.04044224
H        4.79303933      -2.02578680       9.31365511       0.00000000       0.00000000       0.00550761       0.03593868      -0.02631737       0.04152312
H        3.69767805      -1.19846198       8.21179850       0.00000000       0.00000000       0.02804677       0.00999378      -0.03983761       0.01887048
H       -1.41181342       1.20114926       5.14532881       0.00000000       0.00000000      -0.08645389       0.08676617      -0.04471515       0.05615989
H        0.11175698       1.12915591       6.01223520       0.00000000       0.00000000       0.03566616      -0.01512037      -0.01225555       0.08988642
H       -1.60432063      -1.28264998       5.23750664       0.00000000       0.00000000      -0.02465432       0.04180381       0.01816324       0.03649097
H       -1.56958925      -0.46210078       6.79709362       0.00000000       0.00000000      -0.01064626       0.00163183      -0.05329942       0.06901355
H       -0.30693880      -2.30217300       7.21841183       0.00000000       0.00000000       0.05175992       0.03198219      -0.05189763       0.05999578
H        0.96137124      -1.13950908       6.86810590       0.00000000       0.00000000      -0.05688545      -0.03213227       0.00457678       0.04128431
H        1.34382082      -2.14645624       4.67121635       0.00000000       0.00000000      -0.03153438      -0.02109469      -0.03053526       0.01333125
H       -0.21554179      -2.95868712       4.73417719       0.00000000       0.00000000       0.06714587      -0.02258356       0.06891097       0.02371600
H        0.89724437      -4.17759181       6.85051557       0.00000000       0.00000000      -0.08572767      -0.06233859       0.00694687       0.04191768
H        1.18865460      -4.68105260       3.88228147       0.00000000       0.00000000       0.02015875       0.00120213       0.01956065       0.01176098
H        0.06464375      -5.45557839       5.00374873       0.00000000       0.00000000      -0.02342333      -0.00961357      -0.02305509       0.04119035
H        1.76876793      -5.88405889       5.03603323       0.00000000       0.00000000      -0.00676085      -0.04164402       0.01654037       0.05358508
H        3.02757520      -2.85965146       6.66609987       0.00000000       0.00000000       0.01066988      -0.00829447      -0.00705157       0.03445883
H        3.32554252      -3.64879574       5.11830830       0.00000000       0.00000000       0.02404454       0.06575585      -0.02535027       0.01799310
H        2.69041790      -5.70742812       7.03402060       0.00000000       0.00000000       0.02324566      -0.02046920       0.01817068       0.03968224
H        3.86202332      -4.65267975       7.78935635       0.00000000       0.00000000       0.01239341      -0.00475993       0.01155454       0.04039538
H        5.47660602      -5.00924167       6.04063231       0.00000000       0.00000000       0.01178056      -0.00220662       0.07710771       0.03243402
H        4.29399142      -5.78369251       5.00356220       0.00000000       0.00000000      -0.02787723      -0.05254274      -0.02066537       0.02361182
H        4.90463656      -7.00225119       7.69860818       0.00000000       0.00000000      -0.03490538       0.00840895      -0.00870949       0.03618734
H        4.13932739      -8.21908973       5.00100400       0.00000000       0.00000000      -0.02308667      -0.00529255       0.04017330       0.02709377
H        3.00796006      -7.91405990       6.32965910       0.00000000       0.00000000      -0.00747521      -0.02375531      -0.00541757       0.02865993
H        4.30329229      -9.09263713       6.52538551       0.00000000       0.00000000      -0.04279748       0.08254566      -0.02351588       0.04474169
H        6.64815176      -8.40108155       6.63120635       0.00000000       0.00000000       0.02753001       0.05205800      -0.04730802       0.04622840
H        6.56158475      -7.40972703       5.17085905       0.00000000       0.00000000      -0.00669213      -0.01815425       0.02910838       0.02837395
H        7.12518427      -6.70707402       6.69269930       0.00000000       0.00000000      -0.02411928       0.01247414      -0.01769331       0.03652741
C        7.91723366      -3.78231176       3.63603693       0.00000000       0.00000000      -0.04003961      -0.02936560       0.03657357      -0.10952056
C        6.51706060      -3.91788792       3.04878876       0.00000000       0.00000000      -0.02361618      -0.03229835      -0.03065105      -0.04994890
C        6.26758754      -5.29598615       2.43190375       0.00000000       0.00000000       0.00119953      -0.02592505      -0.03676761      -0.06456615
C        4.79400361      -5.53525550       2.10249612       0.00000000       0.00000000      -0.01271281       0.03234523      -0.00002171      -0.05584302
C        4.57931239      -6.86906771       1.38363953       0.00000000       0.00000000       0.12891573       0.06045200       0.05037169      -0.06718989
C        3.12847686      -7.32246836       1.21494007       0.00000000       0.00000000       0.13144580       0.00963934       0.05631557      -0.06958126
C        2.22994127      -6.34185340       0.46574979       0.00000000       0.00000000      -0.09153025       0.11738145       0.02297822      -0.07108403
C        1.62670563      -5.35603282       1.46320663       0.00000000       0.00000000      -0.11747469       0.07594971       0.03177760      -0.02812614
N        0.66335136      -4.40175704       0.93436688       0.00000000       0.00000000      -0.00781187      -0.01289530      -0.02931851      -0.05100195
C       -0.58546078      -4.96017445       0.40375413       0.00000000       0.00000000       0.08286519       0.03852979       0.02843097      -0.01393186
C       -1.48381293      -5.70613957       1.39071284       0.00000000       0.00000000      -0.01352006       0.08159611       0.00911287      -0.07289293
C       -2.13180402      -4.83441450       2.46929876       0.00000000       0.00000000      -0.08836220       0.03664245       0.02822289      -0.05947059
C       -3.44901138      -5.46591684       2.94613498       0.00000000       0.00000000       0.01880215      -0.00863870      -0.02453043      -0.06717204
C       -3.93839459      -5.04549348       4.33958294       0.00000000       0.00000000       0.02394087       0.06764416       0.01161469      -0.01853008
C       -4.15934997      -3.53580125       4.42883293       0.00000000       0.00000000       0.00692286       0.05960445       0.02827789      -0.10619728
C       -3.00780170      -5.46681846       5.47856575       0.00000000       0.00000000       0.07513080       0.03476467       0.03332165      -0.06327750
C       -2.63488383      -6.94454549       5.50736389       0.00000000       0.00000000      -0.00459447      -0.02095028      -0.00056645      -0.06183968
C       -1.74030028      -7.23616538       6.70814964       0.00000000       0.00000000       0.01317755      -0.03271414       0.03528610      -0.06421944
C       -1.20994804      -8.67224572       6.81312373       0.00000000       0.00000000      -0.00636546       0.00970197       0.04579327      -0.01251814
C       -0.57313697      -9.16275769       5.51229907       0.00000000       0.00000000      -0.03297671       0.02780582       0.05448319      -0.10632586
C       -0.19247295      -8.71338087       7.95390688       0.00000000       0.00000000      -0.01143950      -0.01647315      -0.01317718      -0.10876604
C        0.80938705      -3.08342543       0.98152662       0.00000000       0.00000000      -0.05134893      -0.05314411       0.02759047       0.26288530
O       -0.14924913      -2.30094860       0.83470442       0.00000000       0.00000000      -0.02330832      -0.04308871      -0.03001912      -0.38258254
C        2.20332499      -2.43199315       1.15831721       0.00000000       0.00000000      -0.01352545      -0.03394328       0.05793758       0.05303889
O        2.08762974      -1.23601699       0.39627509       0.00000000       0.00000000      -0.01916667      -0.03146166      -0.03375532      -0.23592483
C        3.24841253      -0.47335481       0.05954801       0.00000000       0.00000000       0.00365032       0.01284060      -0.07215712       0.05136948
C        2.80608452       0.26115109      -1.23932359       0.00000000       0.00000000      -0.02012566      -0.02319170       0.03255063       0.26171518
O        1.69757321       0.81947785      -1.09348970       0.00000000       0.00000000      -0.03410176      -0.01576026       0.00398447      -0.38064238
N        3.47271393       0.42221273      -2.39327814       0.00000000       0.00000000      -0.02559317       0.01883829      -0.02449431      -0.07641860
C        3.12132215       1.74062404      -3.01843560       0.00000000       0.00000000      -0.00787024      -0.03750028      -0.07021209      -0.01691705
C        1.76585429       1.87635123      -3.74241740       0.00000000       0.00000000      -0.03476012       0.05411918       0.04826190      -0.07511469
C        1.75617864       2.76248317      -5.01170721       0.00000000       0.00000000       0.08162676       0.02077000       0.01226759      -0.07320258
C        0.79032133       2.28714061      -6.10729727       0.00000000       0.00000000       0.01846194       0.01334228      -0.07775756      -0.06274594
C        1.25438020       1.27607859      -7.16275063       0.00000000       0.00000000      -0.05828982      -0.01948878      -0.05406512      -0.06303507
C        2.38956445       1.77681488      -8.05958593       0.00000000       0.00000000      -0.10097694       0.00973782       0.02028555      -0.06775402
C        2.53831696       0.96589476      -9.34916625       0.00000000       0.00000000       0.01368531      -0.03194273      -0.00905865      -0.06135826
C        3.11844475      -0.43015951      -9.14548983       0.00000000       0.00000000      -0.00918856      -0.02562312       0.04110755      -0.10291009
C        4.74373047      -0.25152075      -2.84877707       0.00000000       0.00000000      -0.07906216       0.03760493       0.00932976      -0.05626913
C        5.21217872      -1.63984577      -3.57548247       0.00000000       0.00000000       0.06111407      -0.10433969      -0.07026479      -0.11487605
C        5.07180267      -2.46922200      -4.94005581       0.00000000       0.00000000       0.02928109      -0.05878095      -0.06711105      -0.08185857
C        4.10819873      -3.69322904      -5.15733528       0.00000000       0.00000000       0.04816593      -0.01461465      -0.06427317      -0.09173070
C        3.50020172      -3.94109706      -6.58726355       0.00000000       0.00000000       0.11721051      -0.02557034       0.03309399      -0.02401744
C        3.73228682      -5.40816266      -6.96696299       0.00000000       0.00000000      -0.04204171       0.04363202       0.03257748      -0.11391300
C        1.98419614      -3.58839880      -6.65155414       0.00000000       0.00000000       0.09965442      -0.01987628       0.03703074      -0.06525097
C        1.08343627      -4.19793054      -7.74179966       0.00000000       0.00000000       0.01891396       0.01689043       0.00445306      -0.06216435
C       -0.24265511      -3.41302926      -7.73209676       0.00000000       0.00000000       0.00506696       0.04699353       0.00543291      -0.06169043
C       -1.39790024      -3.91819851      -8.61536781       0.00000000       0.00000000       0.00326785       0.01113730      -0.01375588      -0.01325262
C       -2.13804967      -5.07235312      -7.94472803       0.00000000       0.00000000       0.02655401      -0.00967475      -0.01064842      -0.10923345
C       -2.39280976      -2.77999463      -8.87843306       0.00000000       0.00000000       0.05067716      -0.02148693      -0.00673720      -0.10831975
H        8.01798730      -2.83085163       4.15328582       0.00000000       0.00000000       0.03283591       0.01931940      -0.05642557       0.04014212
H        8.68601375      -3.84619063       2.86911024       0.00000000       0.00000000      -0.07927612      -0.00377111      -0.00880452       0.04056570
H        8.09188007      -4.57356846       4.35794814       0.00000000       0.00000000       0.03670276      -0.04711356       0.03746890       0.04816434
H        6.36941251      -3.14328147       2.29056112       0.00000000       0.00000000      -0.05090766       0.01694992      -0.00822770       0.01172144
H        5.78642673      -3.75210414       3.84483459       0.00000000       0.00000000      -0.00210005       0.00188960       0.00071700       0.02719537
H        6.60893664      -6.06514146       3.12537693       0.00000000       0.00000000      -0.00870234       0.01815636      -0.00275133       0.04887197
H        6.84077047      -5.40075798       1.51119959       0.00000000       0.00000000       0.17277680      -0.00552795       0.01172453       0.03278753
H        4.44812545      -4.70385359       1.47684566       0.00000000       0.00000000       0.02944960      -0.06094496      -0.00283044       0.00070206
H        4.22654621      -5.52836962       3.03552884       0.00000000       0.00000000      -0.03325629       0.00538797      -0.04201418       0.03224553
H        5.09202957      -7.64339870       1.95610609       0.00000000       0.00000000       0.04898684      -0.00482075      -0.04071941       0.05510290
H        5.05686488      -6.81794194       0.40162681       0.00000000       0.00000000      -0.01631830      -0.02662887       0.01831527       0.03482490
H        2.68104748      -7.52209994       2.18768438       0.00000000       0.00000000       0.06632757      -0.04792091       0.10986975       0.04651045
H        3.15046850      -8.26473396       0.67581081       0.00000000       0.00000000       0.00514298      -0.12738893      -0.08361541       0.05915673
H        1.43089966      -6.89665687      -0.01857555       0.00000000       0.00000000      -0.05979796      -0.04857741      -0.06322127       0.05212071
H        2.79702027      -5.82560714      -0.30326168       0.00000000       0.00000000       0.04058483      -0.00029275      -0.06624267       0.04546253
H        2.41255721      -4.80941804       1.97841658       0.00000000       0.00000000      -0.02862219      -0.02293822      -0.05468779       0.06646495
H        1.09972869      -5.95067829       2.21370146       0.00000000       0.00000000      -0.04038759      -0.00834841      -0.01751451       0.09065707
H       -0.31585063      -5.66379659      -0.39098426       0.00000000       0.00000000       0.08646464       0.11650925       0.02363977       0.07116032
H       -1.13018013      -4.12365102      -0.04168717       0.00000000       0.00000000       0.02144609      -0.02669536       0.03280836       0.07586370
H       -0.94221255      -6.53568709       1.84684587       0.00000000       0.00000000      -0.02129529       0.03255547       0.02459788       0.05787377
H       -2.27719375      -6.14443606       0.78603842       0.00000000       0.00000000      -0.06150083      -0.04902607      -0.06175138       0.05951477
H       -2.33374629      -3.84421200       2.05161086       0.00000000       0.00000000       0.04761924       0.03891279       0.03847492       0.02254628
H       -1.45393196      -4.71214687       3.31330376       0.00000000       0.00000000       0.01301539      -0.01028349      -0.06320282       0.04403599
H       -3.34956736      -6.55137082       2.94313722       0.00000000       0.00000000       0.04395083       0.00730853      -0.00016000       0.04866166
H       -4.23646287      -5.22146524       2.22696564       0.00000000       0.00000000       0.03957718      -0.02255261      -0.00858061       0.02288245
H       -4.90315471      -5.54036571       4.47845047       0.00000000       0.00000000      -0.02470993      -0.03924411       0.04086085       0.04187873
H       -3.21614477      -3.02283442       4.61529428       0.00000000       0.00000000      -0.00461986       0.01292717      -0.07640792       0.01788704
H       -4.83639025      -3.29044121       5.24313835       0.00000000       0.00000000       0.02835695      -0.02964664       0.01364154       0.04481691
H       -4.58974817      -3.16320298       3.50525756       0.00000000       0.00000000       0.00408452       0.01884531       0.03377459       0.02587207
H       -3.48620412      -5.20877028       6.42581308       0.00000000       0.00000000      -0.03081018       0.00885808      -0.03044387       0.04111272
H       -2.09044301      -4.87396366       5.41948922       0.00000000       0.00000000       0.01083099       0.00675735       0.04410089       0.02177171
H       -2.10057758      -7.20377120       4.59495411       0.00000000       0.00000000       0.01416981      -0.01891779      -0.04309658       0.03104124
H       -3.54032706      -7.54701737       5.55557774       0.00000000       0.00000000      -0.03350623      -0.07793211       0.02256490       0.03665381
H       -2.29276952      -7.01375489       7.62263877       0.00000000       0.00000000      -0.00093121       0.03663957       0.01236021       0.03557316
H       -0.88248214      -6.55764599       6.67391393       0.00000000       0.00000000      -0.00119066      -0.01603653       0.01763371       0.02638829
H       -2.03892758      -9.34317333       7.06256321       0.00000000       0.00000000       0.01033333       0.04403814      -0.02795544       0.03560203
H        0.14306436      -8.43337892       5.13556268       0.00000000       0.00000000       0.02229392      -0.01900059       0.01332613       0.02320626
H       -1.33193106      -9.33969683       4.75358562       0.00000000       0.00000000       0.03487519       0.00196269      -0.01363971       0.03042701
H       -0.05102252     -10.09997183       5.68697202       0.00000000       0.00000000       0.00308497       0.01810077      -0.00610342       0.04491967
H        0.66041620      -8.07941086       7.71567595       0.00000000       0.00000000       0.01973107      -0.02172443       0.02416038       0.02904458
H        0.16729211      -9.72474194       8.11850673       0.00000000       0.00000000      -0.00434359      -0.01410027      -0.00029228       0.04451044
H       -0.63731695      -8.35265249       8.87966609       0.00000000       0.00000000       0.01698544      -0.03624110      -0.04362957       0.03924520
H        3.01192262      -3.06177395       0.77782580       0.00000000       0.00000000       0.03781860      -0.05830538      -0.04993956       0.07276161
H        2.38636673      -2.21899407       2.22227658       0.00000000       0.00000000       0.00148627       0.04599021       0.00428069       0.08070969
H        4.16594937      -1.06911973       0.04306770       0.00000000       0.00000000      -0.06615198      -0.03850628      -0.08813203       0.07270290
H        3.37200613       0.33028166       0.80722902       0.00000000       0.00000000       0.05049431      -0.01755125      -0.05749313       0.09575493
H        3.90921723       2.00176563      -3.71309366       0.00000000       0.00000000      -0.00678100      -0.08024609       0.06907437       0.10378574
H        3.14813584       2.47587383      -2.20652867       0.00000000       0.00000000      -0.05152530      -0.06083737      -0.01586672       0.05640155
H        1.05537957       2.30990778      -3.04046214       0.00000000       0.00000000      -0.08019808      -0.14876035       0.04150730       0.04689764
H        1.41733833       0.88813688      -4.00177727       0.00000000       0.00000000       0.00477061      -0.01858303       0.05868341       0.05575857
H        2.73403816       2.86214831      -5.46882022       0.00000000       0.00000000       0.18411424       0.00011131       0.02510624       0.05454311
H        1.46834246       3.77538407      -4.72546854       0.00000000       0.00000000      -0.01700375      -0.02827776       0.04186030       0.04076399
H        0.48743179       3.16181736      -6.68565284       0.00000000       0.00000000       0.06313925       0.03171515       0.07443571       0.05269954
H       -0.10241928       1.87904132      -5.62920080       0.00000000       0.00000000      -0.06263413       0.05224235      -0.05881770       0.01007205
H        0.37712931       1.10262335      -7.79510116       0.00000000       0.00000000       0.06938913      -0.01907907      -0.05902404       0.04113245
H        1.50909157       0.31558374      -6.72175218       0.00000000       0.00000000      -0.00869135      -0.00686213       0.02345177       0.01800078
H        3.34770335       1.76552358      -7.53713934       0.00000000       0.00000000      -0.08920407       0.06959912       0.02414516       0.03821111
H        2.16144789       2.80841193      -8.33306870       0.00000000       0.00000000       0.06350874       0.02512032      -0.01494667       0.04182565
H        3.19791468       1.51967791     -10.01393215       0.00000000       0.00000000       0.06222043       0.02615522      -0.07390110       0.04708444
H        1.56951669       0.88775745      -9.84394253       0.00000000       0.00000000      -0.01824449      -0.01299769      -0.00684941       0.03968872
H        4.08495106      -0.37833511      -8.64379039       0.00000000       0.00000000      -0.03328499       0.01849574      -0.02696769       0.02749435
H        3.27465217      -0.92180505     -10.10312087       0.00000000       0.00000000      -0.04634525       0.06416849       0.02192235       0.04924506
H        2.44579386      -1.05438887      -8.55962643       0.00000000       0.00000000       0.01074232      -0.00378836      -0.00713559       0.02552844
H        5.35230056      -0.29761318      -1.94423007       0.00000000       0.00000000       0.04376265      -0.06937943       0.10521670       0.04641161
H        5.16272974       0.51340367      -3.46835284       0.00000000       0.00000000      -0.00806983      -0.01956379      -0.02450916       0.12504627
H        5.17966173      -2.39654913      -2.82704384       0.00000000       0.00000000       0.07101869       0.15230051      -0.10279412       0.10750830
H        6.26864183      -1.37877797      -3.62310541       0.00000000       0.00000000      -0.01651945       0.16468056      -0.02177762       0.07048183
H        6.07324970      -2.90413730      -4.99227175       0.00000000       0.00000000      -0.00027721      -0.06167125      -0.02801600       0.04868338
H        5.02643512      -1.84477836      -5.82223755       0.00000000       0.00000000      -0.07920599      -0.03413759       0.04890958       0.06402466
H        3.26781668      -3.70149643      -4.47385508       0.00000000       0.00000000       0.07977961       0.02706505       0.04637372       0.04045621
H        4.69239559      -4.58472668      -4.93716043       0.00000000       0.00000000       0.02066435      -0.04910888       0.05772470       0.04898092
H        4.03908069      -3.32766311      -7.31490904       0.00000000       0.00000000      -0.03963761       0.03576516      -0.05292115       0.03615514
H        3.17691868      -6.06732950      -6.30215332       0.00000000       0.00000000      -0.03247071       0.01404933      -0.03438933       0.03700824
H        4.78616585      -5.67338983      -6.89646817       0.00000000       0.00000000      -0.04335926       0.10091289      -0.03603710       0.04435429
H        3.41210045      -5.59058234      -7.98917428       0.00000000       0.00000000      -0.00909944      -0.01373690       0.05781487       0.05340216
H        1.88133095      -2.50921278      -6.78787765       0.00000000       0.00000000       0.03938597      -0.00720692       0.03012124       0.01913082
H        1.52685824      -3.85376064      -5.69171321       0.00000000       0.00000000       0.00696081       0.03614621       0.01362067       0.01269895
H        0.91031574      -5.25448502      -7.54320189       0.00000000       0.00000000      -0.03465987       0.02003951      -0.02174064       0.04388407
H        1.55462200      -4.10570222      -8.72070044       0.00000000       0.00000000      -0.03106811       0.00818117       0.00725906       0.04406686
H       -0.01327346      -2.38962452      -8.04047766       0.00000000       0.00000000       0.01151671       0.05025963      -0.00783027       0.02519641
H       -0.61556733      -3.36564947      -6.70197864       0.00000000       0.00000000       0.04824557       0.00522717       0.00834925       0.01274524
H       -1.00260242      -4.25564362      -9.57815650       0.00000000       0.00000000       0.04144402       0.00735501       0.05218279       0.04186253
H       -2.53382340      -4.74953670      -6.98198045       0.00000000       0.00000000       0.02715658      -0.05129858       0.01653120       0.02565869
H       -1.47814963      -5.92004420      -7.79301865       0.00000000       0.00000000       0.02976872      -0.04903971       0.05399582       0.03860864
H       -2.97555026      -5.40256620      -8.55333059       0.00000000       0.00000000       0.04412723       0.01267877      -0.04953329       0.04659956
H       -2.82823728      -2.42661851      -7.94147885       0.00000000       0.00000000       0.05664076      -0.01673628      -0.06735302       0.02331685
H       -3.20456149      -3.12883550      -9.51520343       0.00000000       0.00000000       0.08305208       0.01247001       0.05877577       0.04878320
H       -1.91147549      -1.94057421      -9.37942294       0.00000000       0.00000000      -0.01173442      -0.05542615       0.04116738       0.03385881
