173
Properties=species:S:1:pos:R:3:initial_charges:R:1:initial_magmoms:R:1:forces:R:3:charge:R:1 energy=-5735.41562459711 free_energy=-5735.41562459711 dipole="-0.31293386169805926 -0.707919655459965 -0.0962528322402914" pbc="F F F"
Tm      -0.08002381       0.04285300       0.02801050       3.00000000       0.00000000       0.07576211       0.03234684       0.03957922       0.84955397
C        4.62151986      -4.01921048      -2.86808739       0.00000000       0.00000000       0.00796266       0.00130269      -0.00617849      -0.10711731
C        3.72318201      -4.66117899      -3.92094861       0.00000000       0.00000000      -0.03483974      -0.03025817       0.01098584      -0.06394560
C        2.53938936      -3.77592888      -4.30664465       0.00000000       0.00000000      -0.02837950       0.00914500      -0.01189053      -0.05709191
C        1.53053989      -4.48155979      -5.21130746       0.00000000       0.00000000      -0.00348762      -0.00517124       0.02643847      -0.07006317
C        0.33838337      -3.59236843      -5.58607552       0.00000000       0.00000000       0.07821058      -0.02494809      -0.04654693      -0.06938799
C       -0.57255214      -3.29883714      -4.39316158       0.00000000       0.00000000       0.05899923      -0.01238094      -0.03803127      -0.06453517
C       -1.86442539      -2.56063430      -4.74170614       0.00000000       0.00000000      -0.03429758       0.01311751      -0.05275632      -0.07766194
C       -1.71251889      -1.05745389      -5.04722240       0.00000000       0.00000000      -0.00949178       0.05062919       0.02569191      -0.03205758
N       -0.77657366      -0.36476396      -4.16609131       0.00000000       0.00000000       0.03147659      -0.02647670      -0.16884369      -0.03027743
C        0.50134312       0.10116913      -4.72182065       0.00000000       0.00000000      -0.01410343      -0.00271300       0.05425949      -0.01597129
C        0.50813356       1.63019549      -4.84546090       0.00000000       0.00000000      -0.00399940      -0.00008064      -0.02076973      -0.06161971
C        1.72008301       2.12792314      -5.62323174       0.00000000       0.00000000      -0.00031731      -0.01219263      -0.00401319      -0.11867313
C       -1.01161380      -0.10290146      -2.89895800       0.00000000       0.00000000       0.05026403       0.08370180       0.15895403       0.25610998
O       -0.11286131       0.32069050      -2.12548519       0.00000000       0.00000000       0.02277506      -0.00316743      -0.06251124      -0.39185060
C       -2.41937946      -0.25749094      -2.29986959       0.00000000       0.00000000       0.03348650      -0.05754436      -0.07065672       0.03809161
O       -2.27982205       0.04735808      -0.91744883       0.00000000       0.00000000      -0.12186207      -0.05699173      -0.04908769      -0.21754696
C       -3.35763775       0.71792968      -0.26295927       0.00000000       0.00000000      -0.02016257       0.01155656       0.07875564       0.03944661
C       -2.67925784       1.66081799       0.75291871       0.00000000       0.00000000       0.15187952       0.01937689       0.01701126       0.25466619
O       -1.44437009       1.49408164       0.92776989       0.00000000       0.00000000      -0.09706705      -0.00793774      -0.00698155      -0.36680517
N       -3.33970037       2.65016309       1.31814743       0.00000000       0.00000000      -0.00121234      -0.02980033      -0.01841843      -0.01614125
C       -2.55489367       3.76062896       1.85372270       0.00000000       0.00000000       0.03803374       0.01211749       0.00286596      -0.02140048
C       -1.84736295       4.52501664       0.73029587       0.00000000       0.00000000       0.00979487       0.00481035      -0.01484086      -0.06684512
C       -2.80799632       5.11310212      -0.29633709       0.00000000       0.00000000      -0.02175511       0.00707230       0.01974587      -0.11638050
C       -4.78877465       2.69983090       1.44390411       0.00000000       0.00000000      -0.00885838      -0.00175817      -0.01698693      -0.02518913
C       -5.27174694       2.99967020       2.87781796       0.00000000       0.00000000      -0.01307702      -0.00523608      -0.02405177      -0.07417094
C       -4.47883581       2.34247453       4.00996620       0.00000000       0.00000000       0.00721982      -0.05919823       0.02007268      -0.07309172
C       -4.26188670       0.83576879       3.89258969       0.00000000       0.00000000      -0.02122094      -0.10067409      -0.00904533      -0.06065932
C       -5.56091784       0.03175563       3.88999608       0.00000000       0.00000000      -0.04331184      -0.02154336       0.00458013      -0.06885919
C       -5.32832894      -1.47737693       3.96734721       0.00000000       0.00000000       0.01223128       0.01629338      -0.01871255      -0.06788548
C       -4.54032982      -2.02138774       2.77722226       0.00000000       0.00000000       0.02016734       0.04304100      -0.01189790      -0.04855994
C       -4.39742217      -3.53394211       2.85176368       0.00000000       0.00000000      -0.01751763       0.01399469       0.01708473      -0.11759182
H        5.37469876      -4.72905820      -2.53948965       0.00000000       0.00000000      -0.00402887      -0.01175047      -0.00253693       0.05382433
H        4.04192134      -3.70901773      -1.99531036       0.00000000       0.00000000       0.01014653      -0.02545746      -0.00396093       0.00276460
H        5.13708982      -3.15080100      -3.26733346       0.00000000       0.00000000      -0.00941521      -0.00698299      -0.00318581       0.04537760
H        3.34415429      -5.60559439      -3.53089132       0.00000000       0.00000000      -0.02958742      -0.08013837       0.00554640       0.03989720
H        4.31309705      -4.88387136      -4.80878814       0.00000000       0.00000000      -0.00635856      -0.01305771       0.00241404       0.05510677
H        2.90096610      -2.89265721      -4.83209006       0.00000000       0.00000000       0.00804217       0.01834957       0.00051069       0.03847328
H        2.04163016      -3.44735756      -3.38418051       0.00000000       0.00000000      -0.00159074       0.00611321      -0.00845900      -0.00938250
H        1.17177303      -5.38739769      -4.71874688       0.00000000       0.00000000      -0.02149852      -0.01333846      -0.03317107       0.04132464
H        2.03878837      -4.78433669      -6.12859938       0.00000000       0.00000000      -0.02554876       0.00625177       0.06774292       0.05957667
H       -0.23845558      -4.10589015      -6.35549543       0.00000000       0.00000000      -0.03772359       0.00887964       0.02378749       0.05739174
H        0.71607379      -2.66523474      -6.01906769       0.00000000       0.00000000      -0.02318813       0.01668564      -0.00035017       0.03619417
H       -0.02935282      -2.71268956      -3.64950823       0.00000000       0.00000000       0.04223318       0.01469439       0.04749391       0.01277987
H       -0.84274989      -4.25716869      -3.94477745       0.00000000       0.00000000      -0.02024599       0.01031396       0.01995894       0.04914147
H       -2.57222399      -2.70036616      -3.92387374       0.00000000       0.00000000      -0.03430922       0.00130197       0.03451370       0.03408608
H       -2.30875062      -3.02464624      -5.62151992       0.00000000       0.00000000      -0.03347468       0.01850009      -0.01991952       0.08677519
H       -2.69979136      -0.59203439      -4.98677556       0.00000000       0.00000000       0.02984487       0.03854871      -0.02458775       0.06868847
H       -1.35124768      -0.92875799      -6.06600506       0.00000000       0.00000000       0.02070606      -0.00343222       0.00915108       0.10209807
H        0.64377744      -0.34897088      -5.70178374       0.00000000       0.00000000      -0.03018208      -0.02609894       0.00308923       0.08810982
H        1.31966951      -0.21598946      -4.06749970       0.00000000       0.00000000      -0.05654368       0.00442706      -0.00755683       0.07614765
H        0.50861933       2.06716972      -3.84458277       0.00000000       0.00000000      -0.01433478       0.00932660      -0.00436082       0.04606436
H       -0.39784308       1.95322221      -5.36090380       0.00000000       0.00000000      -0.02668216      -0.02296423       0.00666939       0.05171369
H        2.64323923       1.80389539      -5.15295080       0.00000000       0.00000000      -0.00030603       0.00180170       0.01422317       0.05380729
H        1.71555468       3.21392359      -5.66114706       0.00000000       0.00000000      -0.00964045      -0.02220259       0.01132893       0.06373151
H        1.70312642       1.76147442      -6.64565514       0.00000000       0.00000000      -0.00270766      -0.03190771      -0.00747013       0.05772528
H       -2.79546709      -1.28182116      -2.41749417       0.00000000       0.00000000      -0.08115173       0.03648031      -0.03116985       0.09717502
H       -3.09244991       0.44318741      -2.81197588       0.00000000       0.00000000      -0.00416362      -0.02760936       0.05666196       0.09705689
H       -4.00812718      -0.02185191       0.22253946       0.00000000       0.00000000      -0.06225343       0.01050557      -0.00532728       0.09883895
H       -3.93414687       1.31997278      -0.97131795       0.00000000       0.00000000      -0.08220981      -0.01366964      -0.03134954       0.09269134
H       -1.80258776       3.37282350       2.54552799       0.00000000       0.00000000      -0.03036452      -0.01357715       0.01372784       0.07894254
H       -3.22941668       4.42661934       2.38491369       0.00000000       0.00000000      -0.00226686       0.00837885      -0.02348526       0.09823643
H       -1.12998234       3.86411480       0.23656459       0.00000000       0.00000000       0.01922531      -0.01812957      -0.00063194       0.04824356
H       -1.29145689       5.33427189       1.20314722       0.00000000       0.00000000       0.00847040       0.02615486      -0.03442982       0.06672115
H       -3.32571904       4.33697654      -0.85763654       0.00000000       0.00000000       0.00696135      -0.00417791       0.03313201       0.02735357
H       -2.26370895       5.72921865      -1.00756847       0.00000000       0.00000000      -0.01386471      -0.00796019       0.03425039       0.06237821
H       -3.54687358       5.74105991       0.19413127       0.00000000       0.00000000      -0.00981344       0.02165281      -0.02717362       0.06147112
H       -5.18678280       1.73494232       1.13305108       0.00000000       0.00000000      -0.01291868       0.00711871      -0.01492703       0.06008956
H       -5.18832731       3.47217391       0.78016994       0.00000000       0.00000000       0.01010642      -0.00849807      -0.01328838       0.08530386
H       -6.31214831       2.67728021       2.92711627       0.00000000       0.00000000       0.01497638      -0.00942377      -0.00748541       0.07777746
H       -5.27634038       4.07494113       3.05848763       0.00000000       0.00000000       0.00656971       0.00731774      -0.03177908       0.06386396
H       -5.01366135       2.53615767       4.94037442       0.00000000       0.00000000      -0.01795040       0.03749804      -0.01493229       0.06765699
H       -3.50197175       2.81658627       4.09686599       0.00000000       0.00000000       0.02340315       0.02766588       0.05024206       0.03864484
H       -3.66678622       0.52100381       4.75311652       0.00000000       0.00000000      -0.01416300       0.01865320      -0.00040822       0.04493249
H       -3.67623054       0.61016261       2.99644370       0.00000000       0.00000000       0.01169885       0.05582036      -0.02132100       0.00305805
H       -6.14593880       0.25547025       2.99618508       0.00000000       0.00000000       0.00302326       0.00806851      -0.02750412       0.03137946
H       -6.15553800       0.32900952       4.75320522       0.00000000       0.00000000      -0.01831101       0.01506078       0.01148114       0.05785230
H       -6.29364812      -1.98424271       4.00762431       0.00000000       0.00000000       0.01557732       0.03541777      -0.00416109       0.05691535
H       -4.79541361      -1.71947370       4.88859749       0.00000000       0.00000000      -0.00370239       0.01518200       0.01720234       0.04273655
H       -3.54576537      -1.55476684       2.76614178       0.00000000       0.00000000       0.01391799       0.00405361      -0.00030581      -0.00431634
H       -5.05217399      -1.74563825       1.85053306       0.00000000       0.00000000      -0.01504998      -0.01337549      -0.00167978       0.02143651
H       -3.86512892      -3.82478917       3.75286426       0.00000000       0.00000000       0.02651126      -0.01318829       0.04619033       0.04247122
H       -3.86944002      -3.92941151       1.98784682       0.00000000       0.00000000      -0.00504015       0.04189597      -0.02145411       0.02808539
H       -5.37885917      -3.99474373       2.88415227       0.00000000       0.00000000      -0.04676971      -0.03778301       0.00984766       0.06054307
C       -4.06484416      -5.77591359      -0.36380536       0.00000000       0.00000000      -0.00998692       0.00146988      -0.00347495      -0.10724419
C       -2.94687473      -6.66838510       0.16288947       0.00000000       0.00000000       0.01649073       0.00109327      -0.00841071      -0.06428556
C       -1.95965135      -5.90798806       1.04606837       0.00000000       0.00000000       0.02008545       0.00070004       0.01079935      -0.05766926
C       -0.83211533      -6.80069501       1.56116904       0.00000000       0.00000000      -0.00885565       0.01240437      -0.03305943      -0.06985603
C        0.20362293      -6.04210849       2.39609678       0.00000000       0.00000000      -0.08406078      -0.07875260       0.03092718      -0.06942795
C        1.03229575      -5.06164334       1.56476342       0.00000000       0.00000000      -0.04010259      -0.05079329       0.04027194      -0.06519173
C        2.31589259      -4.61389150       2.26129010       0.00000000       0.00000000       0.07850697      -0.00819458       0.05216805      -0.08189231
C        2.15407450      -3.56760832       3.37684755       0.00000000       0.00000000       0.02567553       0.06627308       0.01481411      -0.03340747
N        1.17795521      -2.52039920       3.10190382       0.00000000       0.00000000      -0.06443765      -0.02411688       0.03869708      -0.03043719
C       -0.04703193      -2.49215057       3.90950844       0.00000000       0.00000000       0.00054162       0.01528147      -0.02714786      -0.01554853
C       -0.12277982      -1.31015386       4.88313278       0.00000000       0.00000000       0.01257113      -0.01691265      -0.00722098      -0.06510288
C       -1.34831031      -1.43589061       5.78307057       0.00000000       0.00000000       0.00694363      -0.01880251      -0.00432641      -0.11825666
C        1.29946183      -1.62156974       2.14548336       0.00000000       0.00000000       0.11759923      -0.01789952       0.05829167       0.25574527
O        0.39521524      -0.78672331       1.90554587       0.00000000       0.00000000      -0.10384907       0.14547381       0.06451497      -0.38441604
C        2.57078533      -1.53931167       1.28993840       0.00000000       0.00000000       0.07110787      -0.15565666       0.08730247       0.03432111
O        2.42355122      -0.50741554       0.31867933       0.00000000       0.00000000       0.06543817       0.05964695       0.02254769      -0.22385237
C        3.32498094       0.60161679       0.43589127       0.00000000       0.00000000       0.05917608       0.05762081      -0.01743506       0.03718405
C        2.50595269       1.90117433       0.40626933       0.00000000       0.00000000      -0.00496299      -0.03463918      -0.03750812       0.25423025
O        1.26715363       1.77616970       0.23645646       0.00000000       0.00000000      -0.06888005       0.04514872      -0.02697157      -0.36824224
N        3.08324953       3.06941561       0.60118480       0.00000000       0.00000000      -0.00087927       0.05313513      -0.00491735      -0.01786147
C        2.21777670       4.21591945       0.87133669       0.00000000       0.00000000      -0.03583104      -0.01306374       0.00113268      -0.02074279
C        1.47509173       4.07144950       2.20150446       0.00000000       0.00000000      -0.01719797      -0.00703441       0.00916727      -0.06719097
C        2.40473808       3.98209766       3.40538419       0.00000000       0.00000000       0.00652134       0.00762325      -0.01161565      -0.11636319
C        4.52197352       3.31103570       0.60807816       0.00000000       0.00000000       0.01383362      -0.02348922       0.03513781      -0.02572630
C        4.98065318       4.50361088      -0.25970441       0.00000000       0.00000000       0.00548027      -0.03855092       0.01565197      -0.07350613
C        4.27574128       4.67378660      -1.60711223       0.00000000       0.00000000      -0.01368898      -0.03612148      -0.03258640      -0.07133688
C        4.18843544       3.41534673      -2.46649332       0.00000000       0.00000000       0.02582514      -0.06391643      -0.04596652      -0.06170146
C        5.54985566       2.82514374      -2.83066606       0.00000000       0.00000000       0.04222238      -0.01668537      -0.01132129      -0.06719743
C        5.44127038       1.68120910      -3.83894718       0.00000000       0.00000000      -0.02806852      -0.00158615       0.02074620      -0.06758605
C        4.65062208       0.48440439      -3.31228062       0.00000000       0.00000000      -0.00668008       0.02499604       0.03185286      -0.04997750
C        4.49563824      -0.58763804      -4.37978038       0.00000000       0.00000000       0.01462133       0.01357530       0.00188903      -0.11357714
H       -4.70795576      -6.33630173      -1.03525601       0.00000000       0.00000000       0.01065610      -0.01357305      -0.00641650       0.05655624
H       -3.66056118      -4.92441076      -0.91503172       0.00000000       0.00000000      -0.00155788      -0.00584250      -0.00798826       0.00553524
H       -4.68129698      -5.40532604       0.45088496       0.00000000       0.00000000      -0.00535978       0.00357688       0.00124997       0.04138572
H       -2.40977980      -7.10632152      -0.67907820       0.00000000       0.00000000       0.02557463      -0.02691222      -0.02384521       0.03981438
H       -3.38154411      -7.48586052       0.73595006       0.00000000       0.00000000      -0.01085966      -0.01040147       0.00224673       0.05534318
H       -2.48888411      -5.49442793       1.90590688       0.00000000       0.00000000      -0.00048220       0.01282231       0.00152745       0.03335385
H       -1.53672855      -5.07644047       0.46551437       0.00000000       0.00000000       0.01229864      -0.00053376       0.00363700      -0.00690384
H       -0.33570875      -7.28177372       0.71602469       0.00000000       0.00000000       0.01305991      -0.00073400       0.02079092       0.04406623
H       -1.26550902      -7.59117354       2.17653715       0.00000000       0.00000000       0.00727172       0.04887950      -0.03951449       0.05799602
H        0.87763124      -6.77836850       2.83477617       0.00000000       0.00000000       0.00879184       0.00775271       0.00789561       0.05637864
H       -0.30520309      -5.52971906       3.21471045       0.00000000       0.00000000       0.02376048       0.02912843      -0.00965655       0.03283299
H        0.43533201      -4.18971015       1.28361241       0.00000000       0.00000000       0.00187575       0.05442386      -0.00118624       0.01548625
H        1.32164343      -5.57604023       0.64732741       0.00000000       0.00000000       0.01549835      -0.00663562      -0.03465611       0.05354049
H        3.01512528      -4.25067818       1.51101049       0.00000000       0.00000000       0.07879956       0.00522438      -0.04971788       0.03892767
H        2.78673606      -5.48440773       2.71634364       0.00000000       0.00000000       0.02582132      -0.02848936       0.02119420       0.08787787
H        3.12935178      -3.11629150       3.57643715       0.00000000       0.00000000       0.01512150       0.01092695       0.01194393       0.07153981
H        1.83311246      -4.05698468       4.29377077       0.00000000       0.00000000       0.00858604      -0.05743793       0.00692186       0.10123443
H       -0.10300402      -3.42489048       4.46665940       0.00000000       0.00000000      -0.01486087      -0.01777000       0.01941867       0.08875366
H       -0.90422342      -2.43930816       3.23086322       0.00000000       0.00000000       0.03907439      -0.03171926       0.02233739       0.06459196
H       -0.17487047      -0.37616121       4.32175262       0.00000000       0.00000000       0.01783273       0.01339258      -0.05244415       0.05039593
H        0.76987115      -1.28267787       5.50713789       0.00000000       0.00000000       0.05875728      -0.04129997      -0.01950253       0.05895438
H       -2.26175265      -1.51617354       5.19927588       0.00000000       0.00000000       0.00510077       0.01296609      -0.03406820       0.04341293
H       -1.42882837      -0.56509837       6.42711640       0.00000000       0.00000000       0.01702682      -0.00274055      -0.01386421       0.06600833
H       -1.27333002      -2.31219709       6.41966647       0.00000000       0.00000000       0.01396690      -0.03744106       0.00669179       0.06004169
H        2.73008428      -2.48017372       0.74615711       0.00000000       0.00000000      -0.02244540       0.06481049       0.05741380       0.11111768
H        3.43362997      -1.36991292       1.94635361       0.00000000       0.00000000      -0.02230710      -0.00486557      -0.06428673       0.09617147
H        4.03209915       0.55863151      -0.40137620       0.00000000       0.00000000       0.02253149      -0.01886869      -0.06505166       0.10627991
H        3.87511838       0.55537656       1.37997229       0.00000000       0.00000000       0.06663327       0.01999099       0.00006388       0.08876118
H        1.48868994       4.31240859       0.06312713       0.00000000       0.00000000      -0.00043556      -0.02565795      -0.02194522       0.07534144
H        2.84132171       5.10436690       0.89930415       0.00000000       0.00000000       0.00753839       0.02328065       0.01420315       0.09780470
H        0.82639632       3.19330328       2.16326900       0.00000000       0.00000000      -0.04169906      -0.02976900      -0.00123209       0.05054948
H        0.84689778       4.95636508       2.29938265       0.00000000       0.00000000      -0.02636370      -0.00544490       0.07009509       0.06433111
H        2.99931053       3.07082631       3.39145050       0.00000000       0.00000000       0.00020333      -0.00233445      -0.03816664       0.02904819
H        1.82572149       3.98412542       4.32508790       0.00000000       0.00000000       0.00818052       0.02012659      -0.01985333       0.06051968
H        3.07470707       4.83645204       3.42883359       0.00000000       0.00000000       0.02502701       0.01856163       0.03778634       0.06089454
H        5.02869986       2.41216393       0.26087589       0.00000000       0.00000000      -0.03242882       0.00547842      -0.00189373       0.06153218
H        4.83836538       3.50880668       1.63742712       0.00000000       0.00000000      -0.00222615      -0.03898939      -0.00860144       0.08426833
H        6.04884639       4.36391430      -0.42917949       0.00000000       0.00000000      -0.01424788      -0.03149726       0.00718089       0.07698349
H        4.88474243       5.44073282       0.29053735       0.00000000       0.00000000      -0.03788029      -0.03811619       0.03173004       0.06143396
H        4.81425152       5.43840804      -2.16866212       0.00000000       0.00000000       0.01438364       0.00264270       0.04405880       0.06623975
H        3.26423516       5.04703152      -1.44699759       0.00000000       0.00000000      -0.03161842       0.03584886      -0.02568231       0.03672497
H        3.67191951       3.67796408      -3.39225310       0.00000000       0.00000000       0.01264583       0.02169952       0.00211125       0.04617098
H        3.57610694       2.66458924      -1.96110968       0.00000000       0.00000000      -0.02528440       0.02159349       0.03737448       0.00673164
H        6.06628955       2.46720724      -1.93765254       0.00000000       0.00000000      -0.01432456      -0.01139385       0.01644156       0.02699975
H        6.16434501       3.61062933      -3.26994066       0.00000000       0.00000000       0.01419369       0.01939151       0.00013155       0.05548953
H        6.44345434       1.34553383      -4.11203221       0.00000000       0.00000000      -0.02918542       0.02205412       0.03080259       0.05248624
H        4.96588081       2.05030131      -4.74933883       0.00000000       0.00000000      -0.00102941       0.02418170      -0.00573197       0.04216026
H        3.65462417       0.80333957      -2.98541993       0.00000000       0.00000000      -0.00230599       0.00936273      -0.01008903       0.00837184
H        5.16962813       0.06254148      -2.44518835       0.00000000       0.00000000       0.01079976      -0.00918678      -0.02220482       0.01587816
H        4.01163285      -0.18480408      -5.26450058       0.00000000       0.00000000      -0.00753759       0.04199849      -0.05022343       0.03943813
H        3.89717733      -1.41328512      -4.00728914       0.00000000       0.00000000       0.03109915       0.02797137       0.04030173       0.02883473
H        5.46638549      -0.96867638      -4.67690125       0.00000000       0.00000000       0.06248237      -0.02608979      -0.02990198       0.05344922
O       -1.66399558      -2.01106104       0.72449247       0.00000000       0.00000000       0.07953486       0.00899358      -0.11576193      -0.51866842
H       -1.94575728      -2.88399959       0.41164501       0.00000000       0.00000000       0.00859089      -0.00446423      -0.01878776       0.33701925
H       -2.06219465      -1.93066057       1.60595462       0.00000000       0.00000000      -0.07141925       0.03505694      -0.01916306       0.34240058
O        0.65648240      -2.15573461      -1.13686980       0.00000000       0.00000000       0.04582328       0.07024927       0.03077781      -0.50714883
H        1.48824470      -2.10968146      -1.63877285       0.00000000       0.00000000      -0.03600820      -0.00036147       0.04345071       0.35024710
H        0.21529066      -2.95699406      -1.45652892       0.00000000       0.00000000      -0.01918985      -0.02987146       0.04311107       0.34568546
