145
Properties=species:S:1:pos:R:3:initial_charges:R:1:initial_magmoms:R:1:forces:R:3:charge:R:1 energy=-5754.46366995323 free_energy=-5754.46366995323 dipole="0.7131615785393238 -0.9503729692773791 -1.0569474250173683" pbc="F F F"
Tm      -0.23034016       0.04010776       0.05641092       3.00000000       0.00000000      -0.06300094       0.07871637       0.00600063       0.79633486
C        1.82071037       2.10414412       5.17369976       0.00000000       0.00000000       0.03506522       0.02848883      -0.01888514      -0.11960921
C        2.27594013       3.18064311       4.19877501       0.00000000       0.00000000      -0.01832848      -0.00248709      -0.13419068      -0.00979836
N        1.54249870       3.10484968       2.93946716       0.00000000       0.00000000      -0.07045528       0.05914587      -0.03090551      -0.04561968
C        1.48984999       2.08890506       2.09009800       0.00000000       0.00000000       0.10628922       0.09262305       0.04104209       0.26001050
O        0.54762316       1.97587886       1.26805885       0.00000000       0.00000000       0.10109414       0.05221028      -0.07606815      -0.39542246
C        2.59369948       1.08293502       1.92113061       0.00000000       0.00000000       0.00587860       0.01792749      -0.04513221       0.07616653
C        3.95248664       1.25145920       2.18088905       0.00000000       0.00000000      -0.04539448       0.02676633      -0.01270897      -0.02523466
C        4.83284840       0.28537096       1.72007426       0.00000000       0.00000000       0.08356514       0.07188970       0.00059814       0.00477533
C        4.35842385      -0.85480516       1.09129760       0.00000000       0.00000000       0.09438829       0.05446588      -0.00066804      -0.02584913
C        2.98614325      -0.97248482       0.91655048       0.00000000       0.00000000       0.02620496       0.00742631       0.03634298       0.09044646
C        2.27394435      -2.22791088       0.61919809       0.00000000       0.00000000      -0.05015936      -0.04630430       0.03313976       0.08976393
C        2.82978178      -3.49350776       0.46539664       0.00000000       0.00000000      -0.02708500      -0.02344832       0.01869634      -0.02763888
C        1.97425364      -4.58522233       0.55566754       0.00000000       0.00000000      -0.10145575      -0.01418237      -0.06266165       0.00299876
C        0.63461938      -4.41001860       0.89221734       0.00000000       0.00000000      -0.05911210       0.00379708      -0.07250177      -0.02657199
C        0.15945851      -3.10616340       1.04757109       0.00000000       0.00000000      -0.02537043       0.02930155      -0.06248137       0.07830473
C       -1.15908253      -2.55261077       1.54351164       0.00000000       0.00000000       0.04192526       0.01713435      -0.03571204       0.26242841
O       -1.30456571      -1.30361385       1.47665220       0.00000000       0.00000000      -0.05678243       0.05631498      -0.02544819      -0.36861564
N       -2.10180708      -3.33538749       2.04224193       0.00000000       0.00000000       0.11948921       0.06550686       0.04095833      -0.03595437
C       -3.37349785      -2.71453921       2.40731449       0.00000000       0.00000000       0.05212408      -0.05676068      -0.03951093      -0.00633498
C       -3.43581956      -2.43406537       3.89972306       0.00000000       0.00000000      -0.02876033      -0.00355199       0.00488477      -0.11767316
C       -1.83669702      -4.64315830       2.53847706       0.00000000       0.00000000      -0.08145023       0.02293254      -0.04248086       0.02622853
C       -2.64849334      -5.69154297       2.11471768       0.00000000       0.00000000       0.00970589       0.02617780       0.01400526      -0.04449541
C       -2.45169777      -6.96551493       2.60337799       0.00000000       0.00000000      -0.02120181      -0.01182425      -0.01281680      -0.03767963
C       -1.43638180      -7.21961230       3.51871308       0.00000000       0.00000000      -0.01709670       0.01202766       0.00331097       0.03659311
C       -1.18796706      -8.59136727       4.04179516       0.00000000       0.00000000       0.00568305       0.02508858       0.00893788      -0.12605825
C       -0.65257347      -6.15426320       3.94608257       0.00000000       0.00000000       0.00281415       0.00969610       0.01925100      -0.04823196
C       -0.82686830      -4.85580625       3.48600444       0.00000000       0.00000000      -0.08574282      -0.05560561      -0.00291318       0.00408373
C        0.03818580      -3.76447601       4.04839508       0.00000000       0.00000000      -0.05251168      -0.08199145      -0.00963596      -0.11403210
N        0.96166134      -2.07341147       0.80687899       0.00000000       0.00000000      -0.02638681       0.01344663      -0.01453888      -0.16118565
N        2.15015202       0.01722810       1.25912883       0.00000000       0.00000000       0.03233951      -0.05632973      -0.04044943      -0.16726818
C        0.95068376       4.33932809       2.49169738       0.00000000       0.00000000       0.03998280       0.06599356      -0.02350903       0.03940546
C        1.79740600       5.10259967       1.68871846       0.00000000       0.00000000      -0.05004483       0.03320707       0.00412198      -0.04642798
C        1.41463747       6.35556923       1.26552353       0.00000000       0.00000000       0.00332740      -0.03555574      -0.01809763      -0.04294563
C        0.16637223       6.86304236       1.61663487       0.00000000       0.00000000       0.03102501      -0.02467995      -0.00950041       0.02818146
C       -0.22146912       8.23205898       1.16165676       0.00000000       0.00000000       0.00656295      -0.03590722       0.02207682      -0.12226858
C       -0.66615777       6.07471521       2.39698442       0.00000000       0.00000000      -0.03893216      -0.01698799       0.00964461      -0.05128086
C       -0.30390731       4.80969887       2.86039135       0.00000000       0.00000000       0.02858517       0.09094302      -0.02599418       0.01452842
C       -1.24747729       4.03895546       3.73587866       0.00000000       0.00000000       0.10001698       0.03231882      -0.05206731      -0.11469758
H        2.41588719       2.18172041       6.07760824       0.00000000       0.00000000      -0.01580841      -0.03246026       0.06456549       0.08220423
H        1.95012371       1.10826894       4.75492067       0.00000000       0.00000000       0.01143041       0.00906841      -0.00772176       0.04052036
H        0.77540149       2.24456597       5.43490493       0.00000000       0.00000000       0.01449104      -0.05449646       0.00801070       0.06623641
H        3.34996312       3.10755469       4.02217982       0.00000000       0.00000000       0.00483664       0.05302106       0.10531478       0.06314241
H        2.06800608       4.17295655       4.61032570       0.00000000       0.00000000       0.04328075      -0.09908507      -0.00561219       0.08945754
H        4.34051179       2.11763317       2.68755187       0.00000000       0.00000000      -0.00868480      -0.01072715       0.01566160       0.08918257
H        5.88764318       0.42283583       1.87915544       0.00000000       0.00000000       0.15017365      -0.03366958      -0.01512759       0.10152353
H        5.03637002      -1.61789796       0.75106765       0.00000000       0.00000000       0.03939962      -0.05601221       0.04332070       0.08898725
H        3.88591912      -3.62506816       0.30030401       0.00000000       0.00000000       0.00876901      -0.05769764       0.00341384       0.08830173
H        2.36117974      -5.58302940       0.41109680       0.00000000       0.00000000      -0.02569464       0.01317562       0.00969308       0.09691397
H       -0.00734544      -5.26500365       1.02296784       0.00000000       0.00000000       0.03421928      -0.02693817       0.01167192       0.08736598
H       -4.16886049      -3.39743630       2.10800036       0.00000000       0.00000000      -0.05075763      -0.01161269       0.06159083       0.07877679
H       -3.44230254      -1.78609974       1.83574683       0.00000000       0.00000000      -0.11079918      -0.02868216       0.01370493       0.08248910
H       -3.35316178      -3.35955991       4.46259237       0.00000000       0.00000000      -0.00327069      -0.00431531       0.04573321       0.06515901
H       -4.38448960      -1.96628642       4.13713311       0.00000000       0.00000000      -0.04894186       0.01034641       0.03976174       0.07722854
H       -2.63411561      -1.76211130       4.19602418       0.00000000       0.00000000      -0.01164420       0.00477071       0.00700846       0.05427987
H       -3.43251625      -5.50846965       1.39504371       0.00000000       0.00000000       0.01841702       0.02375038       0.02394952       0.04891998
H       -3.09803427      -7.76552504       2.28628609       0.00000000       0.00000000      -0.02424426      -0.05876838      -0.06436934       0.06950428
H       -1.89290904      -9.30377717       3.62062393       0.00000000       0.00000000       0.06862237       0.00564640       0.05646950       0.06934310
H       -1.27757893      -8.59737438       5.12724416       0.00000000       0.00000000      -0.02008151      -0.04902416      -0.02338463       0.08117377
H       -0.17173208      -8.90218168       3.79945538       0.00000000       0.00000000      -0.04919576      -0.05050784       0.01187559       0.07259884
H        0.10740611      -6.34992282       4.68447312       0.00000000       0.00000000       0.09269385       0.05283023       0.05091917       0.06629727
H        1.08546980      -3.95674121       3.80858199       0.00000000       0.00000000      -0.04188105       0.01574657       0.06710863       0.04628397
H       -0.06772605      -3.76780334       5.13273133       0.00000000       0.00000000       0.07195939       0.04178102      -0.02101094       0.08029083
H       -0.22169978      -2.77320462       3.67766985       0.00000000       0.00000000       0.00187878      -0.07539788       0.06349420       0.03303500
H        2.77678904       4.72186636       1.42755383       0.00000000       0.00000000      -0.08963124      -0.02076512       0.03337774       0.03117467
H        2.09905320       6.95406012       0.68649079       0.00000000       0.00000000      -0.01704818       0.02255455      -0.06372449       0.06071076
H        0.47752891       8.95737104       1.57886368       0.00000000       0.00000000      -0.06966535       0.01153854      -0.04475454       0.07981809
H       -1.22613846       8.49803044       1.48070417       0.00000000       0.00000000       0.03610400      -0.02000163      -0.01940145       0.06226900
H       -0.15481030       8.29742956       0.07453416       0.00000000       0.00000000      -0.01600273       0.06448408       0.07533670       0.06076052
H       -1.62638994       6.47019905       2.68964908       0.00000000       0.00000000      -0.06769185       0.01479710       0.00250060       0.06053175
H       -2.17516944       4.59915443       3.84349344       0.00000000       0.00000000       0.02636371      -0.14442628       0.04242726       0.06411844
H       -0.82017651       3.90197609       4.72904480       0.00000000       0.00000000      -0.01616763       0.01646932      -0.02831698       0.06448557
H       -1.46046487       3.05144974       3.32148061       0.00000000       0.00000000       0.04944575       0.04786249      -0.00130289       0.05169275
C       -3.86709911      -3.27086832      -1.50880508       0.00000000       0.00000000      -0.00343836      -0.01414854       0.00927817      -0.12344869
C       -2.56557921      -4.04562115      -1.36203301       0.00000000       0.00000000       0.05776569      -0.00904150      -0.01697688      -0.00051351
N       -1.49222785      -3.58195312      -2.24012663       0.00000000       0.00000000       0.05945496      -0.01585400      -0.00319570      -0.03900945
C       -1.01001146      -2.36016792      -2.05165135       0.00000000       0.00000000       0.10358551      -0.06347639      -0.00902499       0.25179453
O       -1.47289502      -1.59409314      -1.17037662       0.00000000       0.00000000       0.07421741      -0.00382774      -0.02433102      -0.39076805
C        0.11469459      -1.80705409      -2.88770530       0.00000000       0.00000000       0.02532256       0.00879912       0.02790576       0.07536752
C        0.52373301      -2.18386220      -4.16679676       0.00000000       0.00000000      -0.04210004      -0.00573477       0.05751717      -0.02649620
C        1.55249931      -1.46763712      -4.76185804       0.00000000       0.00000000      -0.03276144      -0.07489774      -0.06793345       0.00390670
C        2.03194100      -0.31204551      -4.16657955       0.00000000       0.00000000      -0.03902685      -0.03800234      -0.11177350      -0.02696949
C        1.45612160       0.08714305      -2.96600995       0.00000000       0.00000000      -0.04531582      -0.03898331      -0.05311998       0.08956107
C        1.37507014       1.49665798      -2.54465659       0.00000000       0.00000000      -0.02800613       0.00704168      -0.00043836       0.08740423
C        2.03548509       2.55977884      -3.15028605       0.00000000       0.00000000      -0.02948729       0.02043777       0.03682461      -0.02763144
C        1.55849097       3.83873372      -2.90157267       0.00000000       0.00000000       0.01370150       0.05651843       0.07591700       0.00351111
C        0.42638557       4.03186634      -2.11909856       0.00000000       0.00000000       0.02340884      -0.00033498       0.08488254      -0.02400001
C       -0.18743479       2.91140464      -1.55558428       0.00000000       0.00000000       0.06058670      -0.02670631       0.06626229       0.08423366
C       -1.43267320       2.82428075      -0.69974055       0.00000000       0.00000000       0.09961242      -0.03468950       0.02606419       0.26715068
O       -1.64017027       1.74358200      -0.09458979       0.00000000       0.00000000       0.05895457       0.06541568       0.05462848      -0.34535053
N       -2.23860082       3.87217788      -0.62798549       0.00000000       0.00000000      -0.00518845      -0.03736448      -0.05604867      -0.03693542
C       -3.21414073       3.99583932       0.45606412       0.00000000       0.00000000       0.08179096       0.00903131      -0.03326143      -0.00738778
C       -4.16713712       2.81720098       0.60166788       0.00000000       0.00000000      -0.01511023       0.04134759       0.00304548      -0.11963837
C       -2.36304517       4.75604696      -1.73929897       0.00000000       0.00000000      -0.01153581       0.02535480       0.09043588       0.02592087
C       -2.24607664       6.13019170      -1.55386296       0.00000000       0.00000000      -0.03483026      -0.05244929      -0.00440295      -0.04700283
C       -2.47308794       6.98846978      -2.61216522       0.00000000       0.00000000       0.00108384       0.00982476       0.01633886      -0.03785868
C       -2.81910461       6.49015281      -3.86273900       0.00000000       0.00000000       0.01973633      -0.00042014       0.01618170       0.03629507
C       -3.09321874       7.39082268      -5.01645055       0.00000000       0.00000000      -0.00291311      -0.02553125       0.01191734      -0.12555421
C       -2.92389094       5.11198051      -4.02200965       0.00000000       0.00000000       0.00319728      -0.01685419      -0.02977650      -0.04589146
C       -2.70051290       4.21804946      -2.98885310       0.00000000       0.00000000      -0.05693603       0.09649739       0.02817066       0.00309779
C       -2.91498766       2.74504719      -3.19860462       0.00000000       0.00000000      -0.00180652       0.10140753       0.01301093      -0.11304170
N        0.33334126       1.69688853      -1.72789423       0.00000000       0.00000000      -0.02893799      -0.00965287       0.03500048      -0.16258595
N        0.61162816      -0.71479635      -2.30046281       0.00000000       0.00000000       0.05676049      -0.00930796       0.06453230      -0.17753216
C       -0.82841704      -4.54615257      -3.05091075       0.00000000       0.00000000       0.03966221      -0.05829362       0.05664194       0.02224205
C        0.54085417      -4.74455704      -2.84217679       0.00000000       0.00000000      -0.03385529      -0.07062873      -0.01518900      -0.05170401
C        1.26532701      -5.56370104      -3.68019292       0.00000000       0.00000000       0.00271780       0.02114033      -0.00707308      -0.04359071
C        0.63674653      -6.23100507      -4.73070788       0.00000000       0.00000000       0.02502463       0.00679552       0.00879439       0.03563583
C        1.42460329      -7.03816840      -5.70554085       0.00000000       0.00000000      -0.00151608       0.00648020       0.03050631      -0.12536060
C       -0.73828578      -6.10462583      -4.84730259       0.00000000       0.00000000      -0.02983449      -0.01834425      -0.05184709      -0.04487760
C       -1.50493342      -5.27712139      -4.03344045       0.00000000       0.00000000       0.09508772      -0.03800299      -0.02491850       0.01684029
C       -2.97916412      -5.18670797      -4.28555696       0.00000000       0.00000000       0.10230038       0.02570637       0.00753750      -0.12290687
H       -4.60434422      -3.70949032      -0.84383488       0.00000000       0.00000000      -0.05822649       0.02311135       0.00989020       0.06777073
H       -4.25212779      -3.32313906      -2.52202636       0.00000000       0.00000000       0.01426806      -0.00212413      -0.00571006       0.06962271
H       -3.72514313      -2.22786198      -1.24047025       0.00000000       0.00000000      -0.01607599      -0.00115964       0.01028748       0.06710405
H       -2.70952083      -5.10257372      -1.57934715       0.00000000       0.00000000      -0.02894251      -0.01661653       0.05780511       0.07953280
H       -2.19446803      -3.94224623      -0.33907914       0.00000000       0.00000000      -0.08196609      -0.03120614       0.03896892       0.05102688
H        0.05857788      -2.99771722      -4.69516384       0.00000000       0.00000000      -0.02555964       0.04090930      -0.02089342       0.09166195
H        1.91423169      -1.77110083      -5.73020202       0.00000000       0.00000000       0.07680831      -0.01106701      -0.03738708       0.10070483
H        2.76118540       0.30370302      -4.66270233       0.00000000       0.00000000       0.04952159      -0.01414664      -0.05685096       0.09101668
H        2.87817740       2.39770698      -3.80139276       0.00000000       0.00000000       0.01098871       0.04792324      -0.00014969       0.08874071
H        2.05087974       4.68305964      -3.35614694       0.00000000       0.00000000       0.00643264       0.07127430       0.03020674       0.09898348
H        0.04828655       5.02696318      -1.95322775       0.00000000       0.00000000      -0.02613539      -0.02825928      -0.02930094       0.09154980
H       -3.77928687       4.90953612       0.26858706       0.00000000       0.00000000       0.01882605      -0.00638481       0.00079415       0.08238026
H       -2.62774147       4.11072905       1.36999091       0.00000000       0.00000000      -0.08517917       0.01325810       0.08911147       0.07369828
H       -4.71578343       2.64008688      -0.31903657       0.00000000       0.00000000      -0.03624304       0.03539240       0.00104473       0.05699012
H       -4.87640971       3.05563235       1.38774210       0.00000000       0.00000000      -0.06718374      -0.03371832       0.00852354       0.07300199
H       -3.62535378       1.91463913       0.87306009       0.00000000       0.00000000      -0.08826947      -0.01839904       0.01994271       0.07004865
H       -1.97576017       6.52347570      -0.58364139       0.00000000       0.00000000      -0.05127750      -0.08324163      -0.02692422       0.05447395
H       -2.40633970       8.05326201      -2.46450995       0.00000000       0.00000000       0.04148696       0.05368790       0.02454541       0.06818252
H       -2.95689107       8.43347311      -4.74076867       0.00000000       0.00000000      -0.02141883      -0.05112523      -0.07948231       0.06898694
H       -4.11560520       7.24046896      -5.36204502       0.00000000       0.00000000       0.01523253       0.07731452      -0.00000839       0.08035634
H       -2.43437132       7.14310505      -5.84854454       0.00000000       0.00000000      -0.01278130       0.07782267       0.01677832       0.07226078
H       -3.22520694       4.73451952      -4.98442072       0.00000000       0.00000000       0.00291374      -0.06733459      -0.10530584       0.06356399
H       -3.27137520       2.57254454      -4.21136051       0.00000000       0.00000000      -0.01698537      -0.02361526       0.05437719       0.06853432
H       -3.66170502       2.37501203      -2.49563200       0.00000000       0.00000000       0.01847705      -0.03371344      -0.07300684       0.05961611
H       -2.00152976       2.16344225      -3.05526359       0.00000000       0.00000000      -0.06039185       0.01526877      -0.06917264       0.02813341
H        1.04075336      -4.24564997      -2.01968839       0.00000000       0.00000000      -0.11686475       0.06205447      -0.06431979       0.00733082
H        2.32693909      -5.67835945      -3.53726457       0.00000000       0.00000000       0.05206855      -0.03260375       0.04601773       0.05534662
H        1.99465620      -7.80890137      -5.18806520       0.00000000       0.00000000       0.00005192       0.02485875      -0.05303518       0.07808354
H        2.13211777      -6.39147530      -6.22717489       0.00000000       0.00000000      -0.00407004      -0.08592474       0.03357343       0.07196916
H        0.78010152      -7.51021138      -6.44314286       0.00000000       0.00000000       0.04032534       0.00781866       0.06189317       0.07151729
H       -1.23467502      -6.65768921      -5.62608312       0.00000000       0.00000000      -0.07733305      -0.04160925      -0.07834583       0.07460330
H       -3.22695032      -5.75636715      -5.17846907       0.00000000       0.00000000      -0.03275929       0.10897095       0.02847172       0.07651399
H       -3.28574288      -4.15118715      -4.42678890       0.00000000       0.00000000      -0.01835163      -0.03994894      -0.01225991       0.05703273
H       -3.55170017      -5.60921316      -3.45978826       0.00000000       0.00000000       0.02557244       0.02209646      -0.08847844       0.06862084
