87
Properties=species:S:1:pos:R:3:initial_charges:R:1:initial_magmoms:R:1:forces:R:3:charge:R:1 energy=-3873.635316640534 free_energy=-3873.635316640534 dipole="-0.45689136464975466 -0.3550659277031796 -0.24519540777313648" pbc="F F F"
Yb       0.22687618       0.45898957      -0.03662974       1.00000000       0.00000000       0.01202621       0.02807286      -0.04192763       0.74744256
C        2.42220052       3.45892508      -3.83084293       0.00000000       0.00000000       0.03860525       0.05623579       0.00887853      -0.11517429
C        3.45930898       2.34569494      -3.61023186       0.00000000       0.00000000       0.04063246       0.02192987      -0.01360810       0.02343393
C        4.27335374       2.66696232      -2.35236173       0.00000000       0.00000000       0.03496343       0.02745009      -0.03381096      -0.12538652
C        4.37425358       2.17427495      -4.82772063       0.00000000       0.00000000       0.00260494      -0.01364210       0.04643433      -0.07294393
C        3.66319725       1.49420817      -5.99417196       0.00000000       0.00000000      -0.01382174      -0.04256544       0.03696925      -0.07307290
C        3.15700554       0.08207097      -5.65067405       0.00000000       0.00000000      -0.01776927      -0.00402212       0.02765966       0.02310216
C        2.19208222      -0.42908728      -6.72605149       0.00000000       0.00000000       0.02490530       0.01276063      -0.01812897      -0.11721237
C        4.31946637      -0.92033514      -5.51785199       0.00000000       0.00000000       0.00954813       0.01078484      -0.01773349      -0.10913870
C        2.46904820       0.07856189      -4.32328696       0.00000000       0.00000000      -0.02909567      -0.00836395       0.01690242       0.12281285
N        1.68256798      -0.94428227      -4.02034110       0.00000000       0.00000000      -0.00968493      -0.04116365      -0.07321975      -0.21747686
C        1.13412442      -0.95283825      -2.81420651       0.00000000       0.00000000       0.03554811       0.01832993       0.02564645       0.17291854
C        0.24237737      -2.02861829      -2.35828742       0.00000000       0.00000000      -0.00035500      -0.02646876      -0.01075802       0.08799967
C        0.09609731      -3.21417519      -3.06854311       0.00000000       0.00000000      -0.01844197      -0.05184008       0.01849876      -0.02113063
C       -0.69212870      -4.20343093      -2.50478731       0.00000000       0.00000000      -0.01381152      -0.01968156       0.02724800       0.00114419
C       -1.30950264      -3.96996916      -1.28499348       0.00000000       0.00000000      -0.04528597       0.00148266      -0.02335632      -0.02502488
C       -1.14541795      -2.72995142      -0.65619173       0.00000000       0.00000000      -0.03690422      -0.04561407      -0.04642825       0.10138577
C       -1.80695817      -2.36025920       0.62056988       0.00000000       0.00000000       0.01262384      -0.04399854       0.00961461       0.10165996
C       -2.75541384      -3.15970705       1.27215717       0.00000000       0.00000000       0.08302865       0.06978416       0.02973041      -0.02501909
C       -3.30804665      -2.71937082       2.46453296       0.00000000       0.00000000      -0.01834853       0.00311193       0.01657116       0.00137763
C       -2.92344422      -1.49415038       2.98600984       0.00000000       0.00000000      -0.02118221      -0.00909022       0.00632145      -0.02049274
C       -1.99731318      -0.75121216       2.26228827       0.00000000       0.00000000      -0.05474968      -0.05549878      -0.00426895       0.08772174
C       -1.58810289       0.60065721       2.67170162       0.00000000       0.00000000       0.01173854       0.03447636      -0.05345755       0.17619878
N       -0.73878476       1.17742782       1.82361227       0.00000000       0.00000000       0.03874939       0.01893948      -0.00316076      -0.11240723
N       -0.31445321       2.39209673       2.04720116       0.00000000       0.00000000       0.05803024       0.02572547      -0.04979016      -0.07837004
C       -0.73081950       3.05041180       3.11364217       0.00000000       0.00000000       0.00333778       0.02756713      -0.04244590       0.09125706
C       -1.66638984       2.44064683       3.98755923       0.00000000       0.00000000      -0.01784217      -0.01236303       0.00204884       0.12434358
N       -2.07611812       1.20358692       3.74729623       0.00000000       0.00000000      -0.01349414      -0.01163001       0.01612095      -0.21651619
C       -2.27602090       3.18283113       5.13272036       0.00000000       0.00000000       0.00346322       0.02861042       0.02700351       0.02322062
C       -2.46549058       2.24416544       6.32874895       0.00000000       0.00000000      -0.00869193       0.02697669      -0.00157263      -0.11736215
C       -3.66427782       3.63731019       4.63893908       0.00000000       0.00000000       0.01433398       0.00387836       0.02045770      -0.10900617
C       -1.40342977       4.38746700       5.52415694       0.00000000       0.00000000      -0.01557981      -0.02929699      -0.00409158      -0.07294429
C       -0.95162705       5.21528481       4.32466562       0.00000000       0.00000000       0.01069598      -0.04109909      -0.01563284      -0.07337257
C       -0.11988466       4.39787104       3.32952396       0.00000000       0.00000000      -0.00310300       0.00006742      -0.00634103       0.02393778
C       -0.00667669       5.12661004       1.98532150       0.00000000       0.00000000      -0.00415414       0.01497489       0.02520318      -0.12426776
C        1.29575292       4.12322144       3.86820975       0.00000000       0.00000000       0.00932433       0.04292585       0.00256348      -0.11358133
N       -1.45029685      -1.17678076       1.11893494       0.00000000       0.00000000      -0.04337380      -0.01349147       0.08374997      -0.13249243
N       -0.36705862      -1.78872509      -1.19369859       0.00000000       0.00000000      -0.05803337      -0.05886751      -0.02522203      -0.13258423
N        1.36958225      -0.02612642      -1.88674160       0.00000000       0.00000000      -0.02261440       0.00304354       0.04502019      -0.09968674
N        2.12851741       0.99514777      -2.16876751       0.00000000       0.00000000       0.00387374       0.02009921       0.07005623      -0.06755231
C        2.67567483       1.09957231      -3.36531127       0.00000000       0.00000000       0.01653205       0.01599158       0.03110539       0.08904754
H        2.93637349       4.40349500      -3.97291292       0.00000000       0.00000000       0.02471464       0.07414635      -0.01101457       0.06593573
H        1.78317262       3.53953149      -2.95452597       0.00000000       0.00000000      -0.04691892      -0.01313580      -0.01809100       0.06609387
H        1.80656536       3.26908323      -4.70708800       0.00000000       0.00000000      -0.02061614      -0.01837679       0.04076312       0.04333343
H        4.83619014       3.58117715      -2.50386349       0.00000000       0.00000000       0.05194933       0.06336271      -0.01694087       0.06221520
H        4.97264459       1.86261492      -2.13289727       0.00000000       0.00000000      -0.00930451       0.01929937       0.01145913       0.04409700
H        3.60990596       2.79670294      -1.50263130       0.00000000       0.00000000       0.00657822      -0.01117934       0.03402666       0.07642308
H        5.24899711       1.58944874      -4.53884920       0.00000000       0.00000000       0.00984057       0.00773531       0.00005006       0.04830334
H        4.72668388       3.16128222      -5.12998712       0.00000000       0.00000000       0.01534214      -0.04390279      -0.07779676       0.05946586
H        4.34641120       1.42134712      -6.84072811       0.00000000       0.00000000      -0.01346326       0.00349770      -0.01362159       0.05892094
H        2.82081357       2.11666528      -6.30185812       0.00000000       0.00000000      -0.01671023      -0.07883167      -0.05059592       0.04889573
H        2.69211240      -0.43724029      -7.68955668       0.00000000       0.00000000       0.00164806      -0.00557865      -0.03022387       0.06108844
H        1.31228532       0.20567711      -6.79705554       0.00000000       0.00000000       0.01660881       0.03891726       0.00830281       0.04464421
H        1.86604981      -1.43683344      -6.48680763       0.00000000       0.00000000       0.00596102       0.00290450      -0.01912531       0.06200715
H        4.84850306      -0.98321793      -6.46358342       0.00000000       0.00000000       0.02207051      -0.01074669      -0.03603363       0.06700690
H        3.92871569      -1.90467125      -5.26798312       0.00000000       0.00000000       0.03430636       0.02666865      -0.00880474       0.05400646
H        5.02565424      -0.62209523      -4.74636794       0.00000000       0.00000000      -0.03459830       0.00586400      -0.00304373       0.04577039
H        0.59982442      -3.34415330      -4.01276402       0.00000000       0.00000000      -0.01040772       0.00777705       0.01636077       0.09356549
H       -0.81442460      -5.14817796      -3.01194966       0.00000000       0.00000000      -0.03926833      -0.01772791       0.03810159       0.08533982
H       -1.90959499      -4.74792824      -0.84265333       0.00000000       0.00000000      -0.00914034       0.01967569       0.03235804       0.07896081
H       -3.06748759      -4.11040906       0.87783635       0.00000000       0.00000000       0.01742376      -0.03743529      -0.10628030       0.07914918
H       -4.04257883      -3.32409804       2.97400848       0.00000000       0.00000000       0.01760521      -0.00909268       0.02319764       0.08509200
H       -3.31521889      -1.10035044       3.91175144       0.00000000       0.00000000      -0.01456038      -0.05328513      -0.06463050       0.09428205
H       -3.11623471       1.41886943       6.05859579       0.00000000       0.00000000       0.00052049      -0.02313175      -0.00053017       0.06163186
H       -2.91654624       2.79003049       7.15181838       0.00000000       0.00000000      -0.00101980       0.01140245       0.02253907       0.06097626
H       -1.51363419       1.83852501       6.66219264       0.00000000       0.00000000       0.02000979       0.01796713      -0.00998270       0.04577122
H       -4.26794291       2.76857265       4.38785502       0.00000000       0.00000000      -0.00326527       0.01790969      -0.02258862       0.05477446
H       -3.59214376       4.27672025       3.76212862       0.00000000       0.00000000       0.00692500      -0.03298963       0.01024059       0.04640350
H       -4.16299652       4.18963124       5.42975242       0.00000000       0.00000000      -0.00793298       0.01833183       0.02247293       0.06762893
H       -0.52380383       4.03623679       6.06823100       0.00000000       0.00000000      -0.06151502      -0.03706742       0.00955993       0.04865511
H       -1.97594228       5.02148339       6.20271507       0.00000000       0.00000000       0.01873599      -0.01224757       0.00646773       0.05892723
H       -0.34661669       6.05522789       4.66692372       0.00000000       0.00000000      -0.04107880       0.01896479       0.04225367       0.05992354
H       -1.82363028       5.62636705       3.81442556       0.00000000       0.00000000       0.00525909       0.01093496      -0.01720124       0.04980048
H       -0.99000957       5.28758360       1.54800259       0.00000000       0.00000000       0.01045411      -0.01793751      -0.00013856       0.04664697
H        0.59209051       4.54398972       1.29030640       0.00000000       0.00000000      -0.00937183       0.00052960      -0.01549277       0.07464281
H        0.46420405       6.09318160       2.13408726       0.00000000       0.00000000       0.01782058       0.03493010       0.00670523       0.06220878
H        1.26770867       3.59856057       4.82045817       0.00000000       0.00000000       0.00411633      -0.04203114      -0.03429453       0.04413829
H        1.81308269       5.06499109       4.01611094       0.00000000       0.00000000       0.04340602       0.06915355      -0.00369931       0.06665878
H        1.85474441       3.52792044       3.14915919       0.00000000       0.00000000      -0.00785902      -0.01104148       0.03316064       0.06297079
N        2.24808803       0.03027167       1.30994992       0.00000000       0.00000000       0.00849631       0.03395045       0.06860785       0.77667194
O        3.15334796      -0.17334637       2.05376797       0.00000000       0.00000000      -0.05131316       0.04646192      -0.06346772      -0.38863334
O        1.49160074      -0.89110223       0.94283423       0.00000000       0.00000000      -0.02532773       0.06318359      -0.01066131      -0.45945291
O        1.99661700       1.16310433       0.87541407       0.00000000       0.00000000      -0.02946624      -0.06756551      -0.03186292      -0.40422852
N       -1.27622351       2.11305279      -1.09803888       0.00000000       0.00000000      -0.00435406       0.00901948       0.05100698       0.77740924
O       -2.06087625       2.96169459      -1.37730778       0.00000000       0.00000000       0.04181703      -0.02373802       0.05664454      -0.39076503
O       -0.06386243       2.34513345      -0.99916016       0.00000000       0.00000000      -0.03625205      -0.05718879       0.06105042      -0.41069096
O       -1.63664937       0.93476400      -0.90049454       0.00000000       0.00000000       0.09390665       0.01712170      -0.03805629      -0.46345452
