91
Properties=species:S:1:pos:R:3:initial_charges:R:1:initial_magmoms:R:1:forces:R:3:charge:R:1 energy=-4057.416650739438 free_energy=-4057.416650739438 dipole="1.1980532533784127 -1.2622224324647011 2.316632588942936" pbc="F F F"
Yb      -0.24240035       0.04391404      -0.20469731       2.00000000       0.00000000       0.05740183       0.02060398       0.04178979       0.84550753
C        0.52310951       0.31771438       5.34143963       0.00000000       0.00000000      -0.00623218      -0.01828304       0.04062672      -0.08218556
N        1.04861106       0.75261645       4.05483972       0.00000000       0.00000000       0.00727428       0.02396617       0.07462718      -0.03612743
C        0.33135010       0.55102028       2.95001343       0.00000000       0.00000000       0.05313357       0.01304015      -0.01200454       0.25456272
O        0.69855067       0.79000817       1.78367322       0.00000000       0.00000000      -0.06123742      -0.04363892       0.08241921      -0.35096239
C       -1.08995538      -0.02109252       3.14157637       0.00000000       0.00000000       0.01077498       0.00536478      -0.05667117       0.03924727
O       -1.68493267      -0.12537122       1.86417073       0.00000000       0.00000000      -0.05661596      -0.08883578      -0.07517961      -0.21634048
C       -2.92173323       0.55010783       1.67274295       0.00000000       0.00000000      -0.00676513       0.03668649      -0.05758018       0.03756198
C       -2.71704089       1.59764687       0.54635793       0.00000000       0.00000000       0.01011274      -0.03257146      -0.00408202       0.25874128
O       -1.53020702       1.78086352       0.18778757       0.00000000       0.00000000      -0.09038328      -0.02944268      -0.01965231      -0.37324897
N       -3.78346941       2.20836573       0.04417302       0.00000000       0.00000000      -0.00951299       0.01597222      -0.05579168      -0.02274866
C       -5.10210669       1.96941071       0.61338446       0.00000000       0.00000000       0.00195596       0.02228818      -0.01496247      -0.08498397
C       -3.77151120       3.10258957      -1.08710270       0.00000000       0.00000000       0.04126757      -0.01480116      -0.05556964       0.05656426
C       -4.93174428       3.81003147      -1.41447666       0.00000000       0.00000000       0.00810211      -0.02338891       0.05892337      -0.04300377
C       -4.97449970       4.63598055      -2.52213724       0.00000000       0.00000000       0.03361478       0.01300485      -0.01978148      -0.01918024
C       -3.86094372       4.79191627      -3.32682520       0.00000000       0.00000000      -0.02278375      -0.02385901      -0.01770982      -0.01757601
C       -2.70981971       4.09159554      -3.01639510       0.00000000       0.00000000       0.07418240      -0.00814302      -0.04367973      -0.01889591
C       -2.65656147       3.25491426      -1.91348557       0.00000000       0.00000000       0.00484799      -0.04262478       0.06188869      -0.03810499
C        2.30437450       1.44783927       4.11875788       0.00000000       0.00000000       0.01819240       0.02028532       0.01324420       0.05435364
C        3.14302502       1.57412748       3.01450313       0.00000000       0.00000000      -0.04708049      -0.02705942      -0.00684522      -0.04374550
C        4.37452629       2.19522198       3.14811017       0.00000000       0.00000000       0.00464148      -0.00493991       0.01456105      -0.02209019
C        4.79366240       2.67604051       4.37684521       0.00000000       0.00000000       0.04380677       0.02011731      -0.04246158      -0.01970153
C        3.94473950       2.59461764       5.46615984       0.00000000       0.00000000       0.04009652       0.03409041       0.01429739      -0.01952466
C        2.70170696       2.00393960       5.33798793       0.00000000       0.00000000      -0.04225168      -0.02468546      -0.03650041      -0.04478389
H       -0.13207362      -0.54052167       5.23829218       0.00000000       0.00000000       0.02336410      -0.03006015       0.00371242       0.06843489
H        1.35661814       0.01122711       5.97170545       0.00000000       0.00000000      -0.02676430       0.07575625       0.04092297       0.10448742
H       -0.03382956       1.12183235       5.82663808       0.00000000       0.00000000       0.04320004      -0.04223613       0.06360799       0.08808893
H       -1.08311788      -1.03079050       3.57738311       0.00000000       0.00000000       0.09971860       0.01214071      -0.02174542       0.08600535
H       -1.66553239       0.63875554       3.80037896       0.00000000       0.00000000       0.03598931       0.02119625       0.00507472       0.09086795
H       -3.64455213      -0.21803944       1.36704535       0.00000000       0.00000000       0.02462049       0.06654562      -0.02829095       0.11509152
H       -3.24575350       1.03962521       2.59869108       0.00000000       0.00000000      -0.00899208      -0.00921228      -0.05714150       0.08792729
H       -5.09260206       1.20650654       1.37889919       0.00000000       0.00000000       0.00045486      -0.02910615      -0.00987668       0.07373723
H       -5.47180399       2.88827446       1.06577597       0.00000000       0.00000000      -0.06319598       0.04614083       0.00923362       0.09916515
H       -5.77730226       1.65116609      -0.17909684       0.00000000       0.00000000      -0.06678490       0.00572026      -0.00739498       0.10547807
H       -5.83123085       3.75046357      -0.82929252       0.00000000       0.00000000       0.00778218      -0.02554984       0.04015586       0.06184991
H       -5.89429941       5.14835472      -2.75629448       0.00000000       0.00000000       0.02538730       0.04207182       0.02276565       0.06853341
H       -3.89405292       5.44546123      -4.18337304       0.00000000       0.00000000       0.01086974      -0.01724718      -0.01713182       0.06918306
H       -1.83971980       4.18900520      -3.65012494       0.00000000       0.00000000      -0.01344631      -0.02931313       0.09369944       0.06150710
H       -1.72946234       2.73507558      -1.71825627       0.00000000       0.00000000      -0.03588812       0.00477466      -0.01640870       0.07473824
H        2.83766646       1.20722968       2.04814584       0.00000000       0.00000000      -0.00024747      -0.06897832       0.01135678       0.06548664
H        5.01312916       2.30079576       2.28315829       0.00000000       0.00000000      -0.03221165      -0.03908641       0.03799139       0.05646643
H        5.76781486       3.12319689       4.48783295       0.00000000       0.00000000       0.01520279       0.03166528      -0.04188095       0.06861499
H        4.25111815       2.99251418       6.42389758       0.00000000       0.00000000      -0.06293524      -0.01567440      -0.09541559       0.06874395
H        2.05392097       2.00866853       6.19896446       0.00000000       0.00000000       0.03201652      -0.01383945      -0.03708592       0.05941368
C       -0.93493008      -4.41439336       1.38147061       0.00000000       0.00000000      -0.00697595       0.00262966      -0.00680880      -0.06421013
N        0.42331807      -3.94377963       1.62070647       0.00000000       0.00000000       0.02741611       0.04995705      -0.03665391      -0.03841389
C        0.77163339      -2.78687329       1.07497237       0.00000000       0.00000000       0.09248130      -0.07148989       0.15819429       0.25069624
O       -0.01235961      -2.11779520       0.36747034       0.00000000       0.00000000      -0.06307334       0.01761859       0.01255334      -0.37015098
C        2.17615465      -2.22409112       1.31303791       0.00000000       0.00000000       0.01334384      -0.01478514       0.01170268       0.04563154
O        2.34553706      -1.07477364       0.50970274       0.00000000       0.00000000      -0.03166800       0.02023292       0.00654319      -0.23362552
C        3.24811456      -1.21899042      -0.57971126       0.00000000       0.00000000       0.01808719       0.00728726       0.01518923       0.04412552
C        2.59929874      -0.53626440      -1.79147783       0.00000000       0.00000000      -0.05084911       0.08039907       0.06534405       0.25939581
O        1.51736595       0.05252958      -1.57695178       0.00000000       0.00000000       0.15685063      -0.02835241      -0.06434877      -0.34507925
N        3.18610339      -0.62404561      -2.97711358       0.00000000       0.00000000       0.00173192       0.01967200      -0.08909637      -0.02867227
C        4.52600410      -1.15157358      -3.18419968       0.00000000       0.00000000      -0.06167920       0.00702471      -0.00562609      -0.07716880
C        2.50983469      -0.20724618      -4.17711237       0.00000000       0.00000000      -0.06293252      -0.01159697      -0.03083825       0.05681435
C        3.20659173       0.39344713      -5.22085625       0.00000000       0.00000000       0.04145721      -0.00515844       0.07498025      -0.03839186
C        2.55182330       0.70592017      -6.39953441       0.00000000       0.00000000      -0.01668252       0.01446469      -0.04105456      -0.01942697
C        1.20227858       0.43685271      -6.54634798       0.00000000       0.00000000      -0.02294788       0.02313331       0.02115139      -0.01894720
C        0.50644320      -0.15390483      -5.50566497       0.00000000       0.00000000      -0.08588389      -0.03928846       0.00974571      -0.01868459
C        1.15741609      -0.49306621      -4.33396914       0.00000000       0.00000000       0.02964222      -0.00677684       0.08312302      -0.02853692
C        1.28286273      -4.80417364       2.37796652       0.00000000       0.00000000      -0.02490564       0.04205078      -0.00935905       0.04094224
C        1.34783583      -6.15051923       2.03011727       0.00000000       0.00000000      -0.04944781       0.06397886      -0.05875109      -0.03730959
C        2.11375025      -7.02305939       2.78041911       0.00000000       0.00000000       0.01652959      -0.01359225      -0.00924220      -0.01686235
C        2.82846240      -6.55596303       3.87034636       0.00000000       0.00000000       0.03133621      -0.05036821       0.04148892      -0.01743220
C        2.77082528      -5.21738591       4.21773347       0.00000000       0.00000000      -0.00659776       0.00216251       0.01517336      -0.02032051
C        1.98821480      -4.34264297       3.48410343       0.00000000       0.00000000      -0.05885837       0.03103264      -0.04149964      -0.04791220
H       -1.63846324      -3.62335698       1.64110180       0.00000000       0.00000000      -0.02047919       0.03269985      -0.04361211       0.08485043
H       -1.12029544      -5.28962810       1.99563559       0.00000000       0.00000000      -0.03404264      -0.00423089       0.02664092       0.09585513
H       -1.07994242      -4.66371792       0.33089194       0.00000000       0.00000000      -0.00360856       0.00225797      -0.02838881       0.09011019
H        2.93532381      -2.98484227       1.11015612       0.00000000       0.00000000       0.02552272      -0.06643039       0.03567722       0.08009597
H        2.28338545      -1.90881539       2.35534335       0.00000000       0.00000000      -0.00992376       0.07960065      -0.00616397       0.09203713
H        3.41175330      -2.28074815      -0.79234557       0.00000000       0.00000000       0.06837078       0.00352657      -0.08708481       0.07339700
H        4.19833476      -0.74055844      -0.30994198       0.00000000       0.00000000       0.03058492       0.02140197      -0.04516511       0.09070347
H        4.87762216      -1.73461184      -2.34007645       0.00000000       0.00000000      -0.04887092      -0.01030026       0.01161389       0.06996463
H        5.23066897      -0.33676266      -3.35552301       0.00000000       0.00000000      -0.00403355       0.02121195       0.05305467       0.09537975
H        4.51916097      -1.78372186      -4.07122903       0.00000000       0.00000000      -0.00171991      -0.02060773      -0.01983916       0.09944467
H        4.25517589       0.62645072      -5.13654826       0.00000000       0.00000000       0.01239025       0.00413199       0.05347718       0.05787243
H        3.10185893       1.15761365      -7.21076757       0.00000000       0.00000000       0.01058782       0.00798800       0.04013478       0.06867024
H        0.69312696       0.68084469      -7.46505083       0.00000000       0.00000000       0.01919866       0.01518958      -0.00192967       0.06934885
H       -0.54759101      -0.36397726      -5.60985874       0.00000000       0.00000000       0.03679855      -0.02329226       0.01776310       0.06626711
H        0.61892923      -0.99245238      -3.54015059       0.00000000       0.00000000      -0.03837803       0.00500053      -0.02889101       0.05178572
H        0.79833716      -6.51845227       1.17754190       0.00000000       0.00000000       0.01111095       0.02349719      -0.00868248       0.06391813
H        2.14279365      -8.06777243       2.51085556       0.00000000       0.00000000       0.03269130       0.03679420       0.02344975       0.07591257
H        3.41787318      -7.23643757       4.46032186       0.00000000       0.00000000       0.05500730      -0.04634415       0.01685790       0.07594163
H        3.32578735      -4.85425926       5.07038696       0.00000000       0.00000000      -0.05772615      -0.01811685      -0.03563454       0.06618728
H        1.90575212      -3.31214714       3.79320096       0.00000000       0.00000000      -0.02380896      -0.03064357       0.04297999       0.02836322
N       -2.05034142      -0.29396950      -1.89462483       0.00000000       0.00000000      -0.02009661       0.07618039      -0.12422300       0.78794704
O       -2.88935050      -0.43720649      -2.71891158       0.00000000       0.00000000      -0.04181956       0.00603011       0.06146060      -0.36921663
O       -1.01366536       0.35245183      -2.11774810       0.00000000       0.00000000      -0.07209220      -0.01335054       0.01421171      -0.41044569
O       -2.16405889      -0.77402034      -0.74863068       0.00000000       0.00000000       0.11328014      -0.07128432       0.03032821      -0.44800647
