247
Properties=species:S:1:pos:R:3:initial_charges:R:1:initial_magmoms:R:1:forces:R:3:charge:R:1 energy=-8009.092474183503 free_energy=-8009.092474183503 dipole="0.15259658436215007 -0.2611761172106222 -0.9803856888105594" pbc="F F F"
Yb       0.16746373      -0.15184459      -0.12915335       3.00000000       0.00000000      -0.09841138       0.08348309       0.07732591       0.83779161
C       -3.31317064      -0.78452162      -7.53640094       0.00000000       0.00000000      -0.05671436       0.07569444       0.00760480      -0.10771057
C       -2.52544219      -2.07832793      -7.68167138       0.00000000       0.00000000       0.02940384       0.01385768      -0.04316585      -0.05536516
C       -3.38308678      -3.29744394      -7.36109855       0.00000000       0.00000000      -0.03865670      -0.02688404       0.00945792      -0.06057742
C       -2.66951436      -4.63581541      -7.55709641       0.00000000       0.00000000      -0.01382695      -0.05702247      -0.02418891      -0.06663093
C       -1.34813787      -4.77867773      -6.80553050       0.00000000       0.00000000       0.02901937      -0.04405485      -0.02633525      -0.06488483
C       -1.47221659      -4.51163567      -5.31117396       0.00000000       0.00000000      -0.03803419       0.01077765       0.02002604      -0.06501262
C       -0.11334791      -4.56851227      -4.62958881       0.00000000       0.00000000       0.02803581      -0.02604006       0.01627157      -0.07097699
C       -0.12290830      -3.95274814      -3.23883121       0.00000000       0.00000000      -0.01981265       0.04177724       0.01907343      -0.10158947
P       -0.06472052      -2.13326450      -3.07911139       0.00000000       0.00000000       0.03714917      -0.01618205      -0.04829723       0.37575127
O       -0.00228580      -1.85758036      -1.59382181       0.00000000       0.00000000       0.02052016      -0.05645268      -0.15801676      -0.44413871
C        1.35686545      -1.53491046      -4.13279082       0.00000000       0.00000000      -0.04963662      -0.03968210      -0.06863268      -0.10352211
C        2.67511942      -2.12914751      -3.61689738       0.00000000       0.00000000      -0.04803905       0.00786727       0.06188792      -0.07153674
C        4.01778006      -1.50728723      -4.07000048       0.00000000       0.00000000      -0.04101313       0.03543387       0.06759858      -0.07823640
C        4.78289261      -1.97679025      -5.31481676       0.00000000       0.00000000      -0.00027135      -0.01398073       0.04503983      -0.06596686
C        4.08399682      -1.84124352      -6.66159878       0.00000000       0.00000000       0.02617724       0.03862069      -0.00336007      -0.06429505
C        3.23907007      -3.06769762      -6.97667717       0.00000000       0.00000000      -0.00780298      -0.02602457       0.04775707      -0.06029702
C        2.47161902      -2.94805343      -8.28672272       0.00000000       0.00000000      -0.01388526      -0.02025154      -0.05268798      -0.06068173
C        1.41298761      -1.85611153      -8.25651396       0.00000000       0.00000000      -0.07055533       0.06896276      -0.02187195      -0.10112127
C       -1.63067692      -1.26804939      -3.64618217       0.00000000       0.00000000      -0.02853423       0.09136317       0.01683299      -0.10687129
C       -2.73105941      -1.42478461      -2.64673287       0.00000000       0.00000000      -0.03226996      -0.11841489      -0.05322882       0.04588841
C       -3.78206136      -2.31396887      -2.83084420       0.00000000       0.00000000       0.17571210       0.06477294       0.01780085      -0.03767367
C       -4.82587502      -2.36999600      -1.92362164       0.00000000       0.00000000       0.04751395       0.01469155       0.10942061      -0.01170691
C       -4.81184640      -1.48961358      -0.85274441       0.00000000       0.00000000      -0.01149762      -0.03678125      -0.04826447      -0.04026568
C       -3.76019820      -0.60451396      -0.67739762       0.00000000       0.00000000       0.05078239      -0.06989947      -0.01410644       0.04177883
C       -3.80953590       0.45994674       0.37087976       0.00000000       0.00000000      -0.00413222      -0.00978759      -0.13842228      -0.10276876
P       -2.92307606       0.11229606       1.96961962       0.00000000       0.00000000      -0.07205966       0.00516188      -0.03577402       0.36144746
O       -1.48590325      -0.17546643       1.61371947       0.00000000       0.00000000      -0.08296961       0.00518168       0.02164442      -0.42539717
C       -3.81462540      -1.24307290       2.83673216       0.00000000       0.00000000      -0.00205997       0.02623554       0.01241205      -0.10512692
C       -3.59202699      -2.67393452       2.33925427       0.00000000       0.00000000      -0.04404508      -0.01002628       0.00007778      -0.06099636
C       -2.34941663      -3.30208480       2.96303920       0.00000000       0.00000000      -0.00180556       0.02053097       0.05406707      -0.07211049
C       -2.05625160      -4.75385099       2.57233757       0.00000000       0.00000000      -0.01716252      -0.00644472       0.04810029      -0.07524613
C       -1.79524816      -5.06207548       1.09350639       0.00000000       0.00000000       0.01843794       0.01341445       0.02346445      -0.06686373
C       -3.00973941      -5.37067133       0.21483475       0.00000000       0.00000000      -0.00321979       0.05948400      -0.02233684      -0.05974356
C       -3.65965720      -6.71357386       0.53748310       0.00000000       0.00000000       0.01918204      -0.01893377       0.03973256      -0.05979646
C       -4.76704535      -7.06354083      -0.44521981       0.00000000       0.00000000      -0.05863497      -0.00371871      -0.05049682      -0.10978095
C       -3.04294144       1.54098988       3.13767457       0.00000000       0.00000000       0.02923402      -0.08008590      -0.08339766      -0.09854122
C       -4.39619524       2.22617364       3.36210581       0.00000000       0.00000000      -0.00203169      -0.03007142      -0.00155276      -0.06987579
C       -4.69755976       3.23802591       2.26345987       0.00000000       0.00000000       0.02886624       0.00986643      -0.07556870      -0.06829096
C       -6.04788731       3.94065655       2.37316396       0.00000000       0.00000000      -0.03632445      -0.00853197       0.02103050      -0.06523191
C       -6.19950562       5.01639565       1.29313940       0.00000000       0.00000000       0.00758541       0.02657768       0.04678980      -0.06553770
C       -6.29106406       4.45938818      -0.12620843       0.00000000       0.00000000      -0.00720580      -0.06217618       0.02582187      -0.05890756
C       -6.36439793       5.54341610      -1.20045116       0.00000000       0.00000000      -0.04213225       0.01705786      -0.01307985      -0.06021697
C       -5.06519586       6.31618151      -1.37678939       0.00000000       0.00000000       0.06936497       0.04166170      -0.00559125      -0.10222298
N       -2.70879735      -0.63448876      -1.54227091       0.00000000       0.00000000      -0.14361791       0.08275254       0.01496604       0.25466414
O       -1.70921868       0.19169849      -1.36703343       0.00000000       0.00000000      -0.02889595      -0.09790585       0.01879158      -0.44831503
H       -2.69791879       0.07908671      -7.77690459       0.00000000       0.00000000       0.02913942      -0.01515550      -0.00993151       0.03687011
H       -3.69084451      -0.66531122      -6.52127103       0.00000000       0.00000000      -0.00782234      -0.00590445       0.04768507       0.01402694
H       -4.16630792      -0.78579285      -8.20738176       0.00000000       0.00000000      -0.01724337      -0.00173812      -0.03500640       0.05213493
H       -1.64999815      -2.04175404      -7.03004172       0.00000000       0.00000000       0.02729503       0.00058907       0.06606927       0.01156532
H       -2.16005064      -2.16435955      -8.70240510       0.00000000       0.00000000       0.01537846       0.00614306      -0.10022528       0.04869763
H       -4.25552203      -3.28579077      -8.01440768       0.00000000       0.00000000      -0.02609271       0.00357308      -0.01529991       0.04920263
H       -3.75765344      -3.22228776      -6.33702899       0.00000000       0.00000000      -0.03382566       0.00649616       0.04910738       0.01111633
H       -2.46697034      -4.77864354      -8.61872073       0.00000000       0.00000000      -0.02392805       0.00616034      -0.01165041       0.05197478
H       -3.34358393      -5.43354977      -7.24084774       0.00000000       0.00000000      -0.03174092      -0.00977928      -0.02090110       0.04186358
H       -0.61043583      -4.09862976      -7.23359709       0.00000000       0.00000000      -0.00367120       0.00478264      -0.01451874       0.04009108
H       -0.97302687      -5.79263628      -6.94156550       0.00000000       0.00000000       0.01371742      -0.03660925      -0.08575327       0.04647957
H       -2.15562951      -5.23161475      -4.86081518       0.00000000       0.00000000       0.00530634      -0.08133697       0.01621932       0.04018848
H       -1.89570593      -3.52415558      -5.15731313       0.00000000       0.00000000      -0.03656448       0.11487371      -0.02210988       0.02596738
H        0.61910455      -4.06508700      -5.26128425       0.00000000       0.00000000       0.02694148       0.03201285       0.03248939       0.05213325
H        0.20577441      -5.60764513      -4.55018310       0.00000000       0.00000000      -0.00193534      -0.05373695       0.02105763       0.06454014
H        0.78127005      -4.23752388      -2.69542601       0.00000000       0.00000000      -0.06452400      -0.13010897      -0.01393594       0.09195641
H       -0.98538293      -4.28224089      -2.65376358       0.00000000       0.00000000      -0.00789174      -0.11019255      -0.02010149       0.07436839
H        1.39594211      -0.44662197      -4.09299271       0.00000000       0.00000000       0.03686396      -0.06079555      -0.04954213       0.08956369
H        1.16687718      -1.82651741      -5.16256458       0.00000000       0.00000000      -0.11663429       0.01711476      -0.08077717       0.09074253
H        2.70815725      -3.20988993      -3.77835575       0.00000000       0.00000000      -0.05263144       0.08605633      -0.09507186       0.04720364
H        2.60790233      -1.94393134      -2.54459739       0.00000000       0.00000000       0.00232549      -0.06132775       0.07432122       0.06210946
H        4.71935134      -1.70923160      -3.26266112       0.00000000       0.00000000       0.01623359       0.04894503      -0.00696749       0.04278761
H        3.91983433      -0.42772892      -4.11793474       0.00000000       0.00000000      -0.16831408       0.01832904      -0.08241844       0.04849373
H        5.11229828      -3.00991935      -5.18853425       0.00000000       0.00000000      -0.09918291      -0.03627307       0.02907778       0.04057280
H        5.69076461      -1.36530543      -5.32477521       0.00000000       0.00000000      -0.04808806      -0.04115291      -0.04062054       0.04380569
H        4.83981534      -1.73116010      -7.43894131       0.00000000       0.00000000       0.00651943      -0.00976981      -0.03867374       0.04715619
H        3.47452551      -0.93802117      -6.67364804       0.00000000       0.00000000      -0.02788657       0.02540306       0.05626794       0.03228335
H        2.54494491      -3.23507249      -6.15387975       0.00000000       0.00000000      -0.12818689      -0.08392892       0.01109336       0.01730671
H        3.89427640      -3.93902280      -7.02464288       0.00000000       0.00000000       0.01306385      -0.00697245      -0.04617521       0.03789611
H        1.99747840      -3.90526863      -8.50549738       0.00000000       0.00000000      -0.04177929      -0.03661244      -0.02422918       0.03776345
H        3.17490340      -2.73950467      -9.09142813       0.00000000       0.00000000       0.02438943       0.00449477      -0.04685150       0.04790278
H        0.69383310      -2.02612293      -7.45668881       0.00000000       0.00000000      -0.02564007      -0.03827764       0.03919987       0.01183745
H        0.86894280      -1.82779815      -9.19434906       0.00000000       0.00000000      -0.02418867      -0.03104986      -0.06023699       0.04646370
H        1.86241240      -0.87943530      -8.10757902       0.00000000       0.00000000       0.01250912       0.05761144      -0.01998646       0.03363971
H       -1.95896009      -1.61521129      -4.62474835       0.00000000       0.00000000       0.05901248       0.02680515       0.06725737       0.10605843
H       -1.36311152      -0.20865141      -3.71972714       0.00000000       0.00000000      -0.06125816       0.02470516      -0.01310049       0.10044929
H       -3.77657485      -2.94627461      -3.70314155       0.00000000       0.00000000      -0.03548588      -0.02606525      -0.02244856       0.09797992
H       -5.64901898      -3.05512384      -2.05265924       0.00000000       0.00000000       0.06490930       0.01010823      -0.04645799       0.10377367
H       -5.63944001      -1.46761438      -0.16018581       0.00000000       0.00000000       0.03062943       0.01170268      -0.01097410       0.09253017
H       -4.85813621       0.67387938       0.58986314       0.00000000       0.00000000       0.15220936       0.07957780      -0.04928211       0.10111699
H       -3.27979869       1.34054711      -0.01413394       0.00000000       0.00000000      -0.14793793       0.01460038      -0.06962145       0.11235839
H       -4.87401703      -0.98206146       2.79014008       0.00000000       0.00000000       0.03784962      -0.01337658      -0.03382395       0.07909442
H       -3.52364099      -1.16482139       3.88697528       0.00000000       0.00000000      -0.01252062      -0.07502108       0.02457058       0.08700072
H       -3.50600116      -2.68477932       1.25089300       0.00000000       0.00000000       0.00088765       0.03947018      -0.00946125       0.03709713
H       -4.46274936      -3.26666099       2.62142275       0.00000000       0.00000000      -0.00646343      -0.06682344      -0.06086043       0.07023719
H       -2.45343829      -3.28227234       4.04989353       0.00000000       0.00000000      -0.09216333      -0.01548262       0.03238277       0.05378546
H       -1.49702913      -2.66611316       2.73083534       0.00000000       0.00000000       0.02892357       0.04484462       0.01480717       0.02818896
H       -2.86645762      -5.38673821       2.93074274       0.00000000       0.00000000      -0.03299284       0.00660873      -0.02900025       0.06531429
H       -1.16085386      -5.04542640       3.13001850       0.00000000       0.00000000      -0.07715912      -0.01528232       0.01950559       0.04428972
H       -1.16920618      -5.95471787       1.06710483       0.00000000       0.00000000      -0.01036171       0.00332957      -0.03216700       0.05660401
H       -1.21821930      -4.24897006       0.63064605       0.00000000       0.00000000      -0.06087920       0.04972802       0.00672402       0.00611830
H       -2.66146388      -5.39945776      -0.82167626       0.00000000       0.00000000      -0.02746249       0.00505340      -0.04219036       0.02126940
H       -3.75897106      -4.58336404       0.28486549       0.00000000       0.00000000      -0.05998294       0.05301871       0.00677007       0.02149645
H       -4.07133598      -6.69085191       1.54466099       0.00000000       0.00000000      -0.04519151      -0.00493478       0.06722504       0.04065242
H       -2.89932302      -7.49345278       0.51227053       0.00000000       0.00000000       0.04886584      -0.04664923      -0.01527011       0.04279862
H       -5.56681790      -6.32885034      -0.41178746       0.00000000       0.00000000      -0.03344235       0.05764912       0.02568537       0.03307473
H       -5.19370387      -8.03276765      -0.20718558       0.00000000       0.00000000       0.01189040      -0.01266958       0.03174850       0.05692893
H       -4.38746748      -7.10641810      -1.46273448       0.00000000       0.00000000       0.04887624      -0.00123267      -0.03116168       0.03531299
H       -2.29603868       2.26812695       2.81147046       0.00000000       0.00000000       0.02130825       0.03476807       0.00664473       0.07435018
H       -2.68131163       1.12369721       4.08325082       0.00000000       0.00000000       0.03044525      -0.02534195      -0.03036769       0.08532967
H       -4.37202290       2.74606403       4.32117321       0.00000000       0.00000000       0.07268264      -0.00963666       0.01964841       0.06974382
H       -5.20120426       1.49471434       3.43028877       0.00000000       0.00000000       0.00575748      -0.07859332      -0.05234917       0.04936145
H       -4.64693937       2.72569885       1.30767309       0.00000000       0.00000000      -0.00414350       0.00290908      -0.16869741       0.02532503
H       -3.92679929       4.00710240       2.26617562       0.00000000       0.00000000       0.05390739       0.06179994       0.06275084       0.04071659
H       -6.12971570       4.41429882       3.35283533       0.00000000       0.00000000       0.00180795      -0.01946973      -0.00643512       0.04843202
H       -6.85722999       3.21536890       2.28593174       0.00000000       0.00000000      -0.02628564      -0.02602210       0.00143523       0.03916493
H       -5.34964207       5.69582162       1.36242616       0.00000000       0.00000000       0.01839072       0.05034242       0.02358016       0.03487156
H       -7.09970145       5.59516359       1.49990832       0.00000000       0.00000000      -0.00615547      -0.00783834      -0.01217905       0.05380301
H       -7.18325780       3.83655476      -0.20107907       0.00000000       0.00000000      -0.04600286      -0.02812251       0.01521931       0.03472860
H       -5.42775157       3.82366350      -0.33648549       0.00000000       0.00000000       0.06114859      -0.02041201      -0.03603312       0.01011512
H       -7.16101681       6.24247327      -0.95430051       0.00000000       0.00000000      -0.06201805       0.03152839       0.02779550       0.05010230
H       -6.62383676       5.07159010      -2.14955850       0.00000000       0.00000000      -0.00954845      -0.00129629      -0.03031600       0.03660584
H       -4.80270032       6.85818347      -0.47361485       0.00000000       0.00000000       0.00493063       0.02552285       0.04868715       0.03506780
H       -5.16732413       7.04249734      -2.17716647       0.00000000       0.00000000      -0.02259394       0.00775183      -0.02807709       0.04811287
H       -4.24404100       5.64747501      -1.63162905       0.00000000       0.00000000       0.02352154      -0.05761968      -0.00990692       0.01097994
C        7.11224558      -1.18026547       4.49740770       0.00000000       0.00000000      -0.01230201       0.05676741       0.08350689      -0.10623933
C        7.73459479      -2.01507514       3.38841181       0.00000000       0.00000000      -0.00475616      -0.05024992       0.02982754      -0.05763252
C        8.59220210      -1.16208187       2.45874701       0.00000000       0.00000000       0.02473737       0.04254057      -0.00301378      -0.06058242
C        9.17128684      -1.92805692       1.26890276       0.00000000       0.00000000       0.07646443       0.00044075      -0.01051816      -0.06581180
C        8.13427966      -2.71781592       0.47770916       0.00000000       0.00000000       0.03887257      -0.03506679       0.00191033      -0.06421688
C        6.92787385      -1.88182798       0.07370283       0.00000000       0.00000000       0.00547256       0.04168054       0.02113889      -0.06384365
C        5.87604696      -2.77510659      -0.55357817       0.00000000       0.00000000       0.00134340      -0.04674162      -0.01290485      -0.06979542
C        4.57222021      -2.05790816      -0.84367856       0.00000000       0.00000000      -0.01926881       0.02428707       0.07509114      -0.11130193
P        3.23351095      -1.84358138       0.37229464       0.00000000       0.00000000       0.02413691      -0.05722066      -0.01772684       0.36674471
O        2.18843364      -1.04814174      -0.36171405       0.00000000       0.00000000       0.07255491      -0.10239236       0.02737734      -0.43883521
C        2.70999840      -3.56005296       0.86209355       0.00000000       0.00000000       0.10193856       0.05077606       0.03450376      -0.10141910
C        2.08340149      -4.24020468      -0.36349902       0.00000000       0.00000000       0.03025073       0.08631994       0.00852125      -0.07028595
C        1.36083766      -5.57409235      -0.09759198       0.00000000       0.00000000      -0.02326447       0.03574793       0.05501309      -0.06876840
C        2.13065242      -6.89489960      -0.22104646       0.00000000       0.00000000      -0.03335614      -0.00762843      -0.02945369      -0.06718203
C        3.29831802      -7.08983264       0.74531044       0.00000000       0.00000000      -0.03005637      -0.02076294       0.02567609      -0.06670975
C        4.61881837      -6.57687265       0.18378785       0.00000000       0.00000000      -0.00523558       0.03106868      -0.05117908      -0.06280737
C        5.77676846      -6.69002570       1.17058944       0.00000000       0.00000000       0.03992356      -0.02547073       0.00007627      -0.06179732
C        5.64651145      -5.78045392       2.38455077       0.00000000       0.00000000       0.00819942       0.04227201       0.07528958      -0.10187440
C        3.73099749      -0.71911567       1.78885418       0.00000000       0.00000000      -0.05233278       0.02651407       0.06113817      -0.10396945
C        3.68732931       0.69826633       1.31519056       0.00000000       0.00000000       0.06308152      -0.03348839      -0.05097808       0.05039674
C        4.84608681       1.36895257       0.93815773       0.00000000       0.00000000      -0.10976020      -0.10106168       0.03158423      -0.03780884
C        4.80898163       2.69437177       0.54273727       0.00000000       0.00000000      -0.11591644       0.00486033      -0.03179365      -0.01265245
C        3.58883523       3.35249384       0.58665724       0.00000000       0.00000000       0.10294316      -0.01449958       0.03694830      -0.04339992
C        2.44211407       2.68367805       0.97965736       0.00000000       0.00000000       0.01194436      -0.05684935      -0.03465205       0.03392178
C        1.17403004       3.43233524       1.24159978       0.00000000       0.00000000       0.10115092      -0.06010500       0.09268263      -0.10612848
P       -0.03647577       3.58384487      -0.16300281       0.00000000       0.00000000       0.05721448       0.07670283       0.08607156       0.35626441
O       -0.27232585       2.17279445      -0.62685807       0.00000000       0.00000000       0.00645853       0.06813266       0.06793701      -0.43444351
C        0.60381695       4.72183003      -1.46004692       0.00000000       0.00000000      -0.03359331       0.01431741       0.01722804      -0.10737933
C        1.65883113       4.20431948      -2.44541774       0.00000000       0.00000000       0.02070942       0.02922777       0.01032159      -0.06346335
C        1.03779114       3.49999827      -3.65327755       0.00000000       0.00000000      -0.03832307       0.02162119      -0.00560668      -0.07184715
C        2.03010826       3.00855835      -4.71685846       0.00000000       0.00000000      -0.02172328       0.05234459      -0.03295371      -0.07401191
C        3.05928271       1.95402870      -4.29544062       0.00000000       0.00000000      -0.02760441      -0.00209018      -0.03873319      -0.07970039
C        4.38913336       2.45885745      -3.72901778       0.00000000       0.00000000      -0.02361608      -0.01236879       0.04442524      -0.06277173
C        5.32049244       3.02772048      -4.79326865       0.00000000       0.00000000      -0.01590531       0.00909986      -0.05173310      -0.05929539
C        6.67856426       3.39602018      -4.21704874       0.00000000       0.00000000       0.06928440       0.02857640       0.03279334      -0.10975954
C       -1.61066124       4.35236744       0.40481783       0.00000000       0.00000000       0.09936859      -0.06401316      -0.03767997      -0.09783079
C       -1.56824944       5.63463047       1.23831900       0.00000000       0.00000000       0.00532302       0.01379184      -0.01977828      -0.06919751
C       -1.26561000       5.34360158       2.70231172       0.00000000       0.00000000       0.04348649      -0.05014773       0.04287748      -0.06647059
C       -1.20122391       6.58311413       3.58911160       0.00000000       0.00000000      -0.00280363       0.05033754       0.00435065      -0.06471809
C       -1.03906400       6.20970041       5.06467788       0.00000000       0.00000000      -0.05416047       0.01858555       0.00196513      -0.06593797
C        0.29162381       5.53501763       5.39109056       0.00000000       0.00000000       0.02063034       0.01854901      -0.06245670      -0.05850484
C        0.40315294       5.09767209       6.85057018       0.00000000       0.00000000       0.01825994       0.03058229       0.03169689      -0.05941647
C       -0.52216013       3.94419981       7.21032813       0.00000000       0.00000000      -0.05070832      -0.05972583       0.02034136      -0.10436345
N        2.49232156       1.34570256       1.25483026       0.00000000       0.00000000       0.00416831       0.17441592       0.04031044       0.25854269
O        1.38111542       0.72414448       1.56700068       0.00000000       0.00000000       0.05002702       0.03811279      -0.11010440      -0.44157164
H        6.49395140      -1.79274915       5.14898736       0.00000000       0.00000000       0.01102302      -0.02435309      -0.00036935       0.03689699
H        6.49403178      -0.37912167       4.09080005       0.00000000       0.00000000      -0.01579511       0.00702045      -0.03146051       0.01101556
H        7.88902006      -0.72246995       5.10019518       0.00000000       0.00000000       0.03722336       0.02470219       0.05875905       0.05088205
H        6.94119652      -2.51549021       2.83280578       0.00000000       0.00000000      -0.06987291      -0.00323083      -0.03147645       0.01865966
H        8.35487711      -2.79483424       3.82447388       0.00000000       0.00000000       0.05957013      -0.04578307       0.06875898       0.04734998
H        9.41809284      -0.74585611       3.03434697       0.00000000       0.00000000       0.03776607       0.01837939       0.01868045       0.04789678
H        8.00641009      -0.31413048       2.09540986       0.00000000       0.00000000      -0.03029383       0.05993096       0.00566992       0.01329332
H        9.92924923      -2.62477303       1.62422399       0.00000000       0.00000000       0.03509587      -0.00895904       0.01929436       0.05103225
H        9.66323390      -1.21822745       0.60217932       0.00000000       0.00000000       0.03516968       0.03453553       0.02266579       0.04023546
H        7.79251213      -3.56472070       1.07329110       0.00000000       0.00000000       0.03254774      -0.03377247       0.02242680       0.04126207
H        8.59238171      -3.12254887      -0.42505338       0.00000000       0.00000000       0.08664577      -0.01613398       0.02039725       0.04370625
H        7.23083857      -1.09685804      -0.61974574       0.00000000       0.00000000       0.02139150       0.00181534      -0.07720509       0.03552395
H        6.50080575      -1.40070112       0.94931677       0.00000000       0.00000000      -0.03297190       0.01545533       0.10703705       0.02873939
H        5.71399084      -3.63649079       0.09217687       0.00000000       0.00000000      -0.08682873      -0.01034622       0.05703351       0.05323682
H        6.26787144      -3.16655871      -1.49329889       0.00000000       0.00000000       0.01279335      -0.00416156      -0.06217289       0.06005827
H        4.02070485      -2.63431495      -1.58624813       0.00000000       0.00000000       0.14938718       0.02683768      -0.02039350       0.09388404
H        4.74091050      -1.05197087      -1.23817942       0.00000000       0.00000000       0.09157562      -0.04138521      -0.05647818       0.07743599
H        1.99541101      -3.51114505       1.68372961       0.00000000       0.00000000       0.08277516      -0.07491044      -0.02001360       0.08641429
H        3.58291097      -4.11324061       1.19661786       0.00000000       0.00000000       0.07914458       0.05113997       0.09865434       0.09836900
H        2.83792279      -4.39342596      -1.13666243       0.00000000       0.00000000       0.03165568      -0.05616805       0.05959708       0.04952455
H        1.35160618      -3.53038011      -0.75403894       0.00000000       0.00000000      -0.03826408       0.01715375       0.00289701       0.06271539
H        0.53831195      -5.64393507      -0.81574132       0.00000000       0.00000000       0.00957424       0.02672927       0.07021369       0.03599135
H        0.91884683      -5.54364159       0.89657422       0.00000000       0.00000000       0.06782144       0.05811417       0.09679327       0.04402784
H        2.47749035      -7.04264526      -1.24508149       0.00000000       0.00000000       0.04375446       0.09228181      -0.01292345       0.04017948
H        1.39261554      -7.67816812      -0.02803857       0.00000000       0.00000000       0.03006479       0.01327475      -0.02615607       0.04592282
H        3.40895848      -8.15410638       0.95194483       0.00000000       0.00000000       0.01048614      -0.02906056      -0.00573872       0.04969377
H        3.06959609      -6.60423619       1.69345539       0.00000000       0.00000000      -0.03437513       0.04325887       0.02288761       0.03489285
H        4.50216854      -5.54123582      -0.13052135       0.00000000       0.00000000       0.07479769       0.10980548      -0.03398212       0.01873931
H        4.86595916      -7.15164443      -0.71024530       0.00000000       0.00000000       0.00496163      -0.05420665       0.00453689       0.03831809
H        6.70346142      -6.45372097       0.64564606       0.00000000       0.00000000       0.04954554       0.00161984       0.00858427       0.03831451
H        5.84582827      -7.72158196       1.51255821       0.00000000       0.00000000       0.02596805      -0.04578340       0.00945234       0.04948639
H        5.60993420      -4.72968079       2.09904523       0.00000000       0.00000000       0.00994800       0.04468781      -0.04790666       0.01050899
H        6.50031644      -5.91296369       3.04092169       0.00000000       0.00000000       0.05086931      -0.01680550       0.02038746       0.04919263
H        4.75315096      -6.00918770       2.95766102       0.00000000       0.00000000      -0.02854543      -0.02872422       0.03436473       0.03430226
H        4.73030268      -0.96127949       2.14855390       0.00000000       0.00000000      -0.10142257      -0.02634019       0.01750616       0.10738396
H        3.00225854      -0.86918423       2.58808939       0.00000000       0.00000000      -0.01724287       0.02939537       0.03989251       0.11125664
H        5.78411655       0.83940743       0.98398972       0.00000000       0.00000000       0.01521669       0.01164011      -0.01589805       0.10213030
H        5.70221300       3.22313807       0.25006836       0.00000000       0.00000000      -0.00367850      -0.08019217       0.00315356       0.10533300
H        3.53071229       4.40760197       0.36234939       0.00000000       0.00000000      -0.00779705      -0.05249592       0.01062809       0.09275197
H        1.43478043       4.42795855       1.60683318       0.00000000       0.00000000      -0.06855391      -0.13211202       0.02334872       0.10312230
H        0.60029058       2.86142728       1.98361778       0.00000000       0.00000000       0.08695900       0.12032987       0.09536495       0.11504313
H        0.96547740       5.60895629      -0.93663346       0.00000000       0.00000000       0.03018355      -0.04955966      -0.00908931       0.08067081
H       -0.28560430       5.03213349      -2.01367708       0.00000000       0.00000000       0.02703702       0.04952896      -0.06998491       0.09077679
H        2.36939751       3.54474027      -1.94023275       0.00000000       0.00000000      -0.02258367      -0.00052099       0.06604194       0.03028541
H        2.21596798       5.06963665      -2.80794992       0.00000000       0.00000000       0.07005403      -0.03779474      -0.03878432       0.07516678
H        0.36636155       4.20271412      -4.15158186       0.00000000       0.00000000       0.03313021       0.06959765       0.00717859       0.05489820
H        0.40701196       2.67572883      -3.31208656       0.00000000       0.00000000      -0.04930919      -0.02352762      -0.00338113       0.02569968
H        2.55023412       3.86497137      -5.14222957       0.00000000       0.00000000       0.01217462       0.04118543       0.02751568       0.06185146
H        1.42668583       2.57472838      -5.51929230       0.00000000       0.00000000       0.02301093       0.08767700       0.00115006       0.04464699
H        3.29373117       1.35845943      -5.18013529       0.00000000       0.00000000       0.03598325       0.07444612      -0.06119859       0.04823610
H        2.61570023       1.27442411      -3.57148435       0.00000000       0.00000000      -0.00068870       0.01081717      -0.01133859       0.03342130
H        4.88817290       1.60965518      -3.25319210       0.00000000       0.00000000       0.04634155      -0.00197031       0.02140065       0.02328306
H        4.23013709       3.21190736      -2.95768503       0.00000000       0.00000000      -0.02241817       0.05609562       0.02540518       0.02010080
H        4.86777069       3.90979775      -5.24189753       0.00000000       0.00000000      -0.01463446       0.08170783      -0.04088714       0.03961917
H        5.45332246       2.29041769      -5.58416993       0.00000000       0.00000000       0.02014224      -0.05831324      -0.04495409       0.04117085
H        6.58336761       4.16221886      -3.45262676       0.00000000       0.00000000      -0.02822701       0.05141686       0.03827823       0.03286075
H        7.33056573       3.77881596      -4.99507034       0.00000000       0.00000000       0.00062881       0.01154975      -0.03785664       0.05520360
H        7.16013181       2.52936778      -3.77138633       0.00000000       0.00000000       0.00185590      -0.05331935       0.00134657       0.03422581
H       -2.13729920       3.56266335       0.94401493       0.00000000       0.00000000      -0.04415894      -0.00910101       0.02995819       0.07776542
H       -2.16473244       4.53010503      -0.52232738       0.00000000       0.00000000       0.00902639      -0.03222823      -0.02607721       0.08524392
H       -2.53754516       6.12968642       1.17049371       0.00000000       0.00000000      -0.06822671      -0.04076627      -0.03996373       0.06907673
H       -0.83717322       6.33770948       0.83942742       0.00000000       0.00000000       0.07039936      -0.02606837      -0.03311740       0.04967991
H       -0.31502586       4.82591284       2.75935992       0.00000000       0.00000000       0.13002069      -0.07656358       0.09398837       0.02738074
H       -2.02430345       4.67362732       3.10868475       0.00000000       0.00000000      -0.09733829      -0.00716069       0.00160464       0.03505939
H       -2.12261170       7.15579038       3.47070312       0.00000000       0.00000000       0.00992461       0.01087825       0.00658337       0.04620291
H       -0.37187714       7.21885065       3.27673511       0.00000000       0.00000000       0.01459233       0.02270802      -0.00784287       0.03905198
H       -1.85771867       5.54671628       5.34456124       0.00000000       0.00000000      -0.05648338      -0.00415141       0.01902037       0.03748366
H       -1.12910508       7.11552640       5.66432092       0.00000000       0.00000000       0.01309752      -0.00516103       0.01023742       0.05298317
H        1.10235511       6.23119959       5.17200346       0.00000000       0.00000000       0.02926836       0.04428498      -0.01710186       0.03273161
H        0.43150527       4.65560992       4.75830062       0.00000000       0.00000000       0.00681622      -0.06824732      -0.01451261       0.01108056
H        0.18465864       5.94406609       7.49862504       0.00000000       0.00000000      -0.00873350       0.06860654       0.03187751       0.04811574
H        1.43393232       4.79492745       7.04180857       0.00000000       0.00000000       0.02737926      -0.00682447       0.01847744       0.03566191
H       -1.56485958       4.22743593       7.10587844       0.00000000       0.00000000      -0.04802610       0.02427285      -0.00288880       0.03577500
H       -0.36549259       3.64637700       8.24239782       0.00000000       0.00000000       0.02980875       0.00183764       0.02990333       0.04694721
H       -0.33408944       3.07939910       6.57645019       0.00000000       0.00000000       0.02928597      -0.02616961      -0.04351683       0.01790776
O        1.26479093       0.71724959      -2.02028347       0.00000000       0.00000000      -0.10022707       0.04762178       0.02072041      -0.48648693
H        1.63685560       1.58790589      -1.79380175       0.00000000       0.00000000       0.03145024       0.01147659      -0.13909845       0.35809232
H        0.42646471       0.91176221      -2.47722315       0.00000000       0.00000000       0.01277059       0.02943327       0.00451781       0.36738563
O        0.32059158      -1.98491715       1.34388913       0.00000000       0.00000000      -0.05665128      -0.06580394       0.06199208      -0.47943537
H        0.26613459      -1.66567372       2.26078768       0.00000000       0.00000000       0.01535287      -0.00543927       0.00025182       0.36046197
H       -0.39784306      -2.63379821       1.21878040       0.00000000       0.00000000       0.07508220      -0.15509550       0.06951617       0.35853290
