173
Properties=species:S:1:pos:R:3:initial_charges:R:1:initial_magmoms:R:1:forces:R:3:charge:R:1 energy=-5735.016508662926 free_energy=-5735.016508662926 dipole="0.17900853745544423 1.1022205793281452 -0.7024199790904191" pbc="F F F"
Yb      -0.12609262      -0.17592861       0.17162809       3.00000000       0.00000000      -0.08660881      -0.03711416       0.00195863       0.83854682
C       -6.92373430       5.19985155       0.99025835       0.00000000       0.00000000      -0.01420266       0.00682684       0.03724351      -0.10921041
C       -6.51194979       5.09395067      -0.47302402       0.00000000       0.00000000      -0.01449527       0.02344722       0.03157253      -0.05069289
C       -6.10131180       6.45644110      -1.02541254       0.00000000       0.00000000       0.01341616       0.03605875      -0.05487589      -0.06510029
C       -5.80546012       6.46239190      -2.52669682       0.00000000       0.00000000      -0.01406384       0.01011679      -0.03397474      -0.06625367
C       -4.68574895       5.51779727      -2.97220232       0.00000000       0.00000000      -0.04768508       0.02981680       0.00328614      -0.05981102
C       -3.38926140       5.75330006      -2.20089491       0.00000000       0.00000000       0.02342320      -0.02254019      -0.01449289      -0.06961290
C       -2.24129101       4.91972050      -2.76493574       0.00000000       0.00000000       0.09114609      -0.03491799       0.00751488      -0.06847489
C       -1.01107983       4.90696601      -1.84265330       0.00000000       0.00000000      -0.02628074       0.00764059       0.00118888      -0.03230300
N       -1.16113853       3.99803327      -0.70942917       0.00000000       0.00000000      -0.04696007      -0.06807073      -0.07046093      -0.03736110
C       -1.52233521       4.56806828       0.59157590       0.00000000       0.00000000       0.04779969      -0.01213592      -0.06540324      -0.01425806
C       -2.80588960       4.01234776       1.20435586       0.00000000       0.00000000      -0.01833709       0.00696763       0.05325815      -0.06231788
C       -3.13323299       4.76249299       2.48964093       0.00000000       0.00000000      -0.00060732       0.03103973       0.04316090      -0.11898353
C       -0.93852614       2.70206464      -0.81942874       0.00000000       0.00000000       0.08261036       0.04463478       0.00185386       0.24911645
O       -1.03613282       1.90008800       0.13870022       0.00000000       0.00000000      -0.01058439      -0.12539219       0.05670049      -0.39034557
C       -0.42367267       2.14623548      -2.15426474       0.00000000       0.00000000       0.01607391      -0.03532829      -0.01471494       0.03804070
O       -0.37170119       0.71807793      -2.14799514       0.00000000       0.00000000      -0.05259809       0.00105755       0.00149073      -0.22588332
C       -1.37967966       0.03812930      -2.90792614       0.00000000       0.00000000       0.00723151       0.04244872       0.02226314       0.03871681
C       -2.25316803      -0.79737605      -1.96087457       0.00000000       0.00000000       0.05929983       0.04127132       0.09829156       0.24758679
O       -2.02010851      -0.69644463      -0.72787334       0.00000000       0.00000000      -0.02422486      -0.01511232      -0.03140248      -0.38613175
N       -3.21700472      -1.56293040      -2.42298111       0.00000000       0.00000000      -0.09477519      -0.04663461       0.05321721      -0.03104193
C       -3.59549114      -1.65826434      -3.82934734       0.00000000       0.00000000      -0.00832564       0.06136776       0.13282405      -0.03043501
C       -3.16427331      -2.96949772      -4.50443346       0.00000000       0.00000000      -0.01789981       0.04729555       0.03090127      -0.06417493
C       -4.15448163      -4.10601102      -4.29204999       0.00000000       0.00000000      -0.00786451      -0.02773159      -0.01199290      -0.12465876
C       -4.03264417      -2.28507211      -1.43643661       0.00000000       0.00000000      -0.02684331      -0.02870199       0.04918763      -0.01936910
C       -3.29736976      -3.44061274      -0.74021677       0.00000000       0.00000000      -0.00692374       0.01545755      -0.00827957      -0.07095516
C       -4.24039724      -4.24479936       0.17196352       0.00000000       0.00000000       0.02262217       0.05043652      -0.01943928      -0.07011826
C       -4.57838417      -3.55721509       1.50296967       0.00000000       0.00000000       0.03096133      -0.00081553      -0.04453311      -0.06771752
C       -3.65579848      -3.86859621       2.69096786       0.00000000       0.00000000      -0.03906147       0.00738399      -0.04990890      -0.07163193
C       -2.17356730      -3.47902273       2.56981398       0.00000000       0.00000000      -0.05492956      -0.01900804      -0.00700428      -0.05962576
C       -1.28027288      -4.56185235       1.94904680       0.00000000       0.00000000       0.01294461      -0.02758011       0.00930144      -0.05816388
C       -1.13045047      -5.80332064       2.82536905       0.00000000       0.00000000       0.00585076       0.00381233       0.01150982      -0.11296164
H       -7.21191817       4.22768906       1.38498975       0.00000000       0.00000000       0.00520135       0.01072604      -0.00058368       0.03194038
H       -7.77137229       5.87195619       1.09201248       0.00000000       0.00000000       0.00342493      -0.02116402       0.00521635       0.05195866
H       -6.10846524       5.59480538       1.59533628       0.00000000       0.00000000      -0.02095449      -0.01613728      -0.02098498       0.03007728
H       -7.34804103       4.70532669      -1.05602237       0.00000000       0.00000000      -0.00406865       0.00419049      -0.01080005       0.03913738
H       -5.68648496       4.38134259      -0.56253260       0.00000000       0.00000000       0.00671822      -0.02069311      -0.03133440       0.00501871
H       -5.23616751       6.83210236      -0.47448305       0.00000000       0.00000000      -0.00559045      -0.00492879       0.01953499       0.02733714
H       -6.91668020       7.15844507      -0.84724427       0.00000000       0.00000000      -0.01310449      -0.00692325      -0.00056747       0.05173594
H       -5.54079853       7.48037815      -2.82100647       0.00000000       0.00000000      -0.00834039      -0.02559415       0.01838725       0.04576917
H       -6.71430609       6.19344848      -3.06751695       0.00000000       0.00000000       0.00756251       0.00081187       0.00369770       0.04852836
H       -4.50674188       5.67492824      -4.03819820       0.00000000       0.00000000      -0.00255870       0.00457280       0.02299112       0.04012670
H       -5.00432537       4.47942497      -2.84388982       0.00000000       0.00000000       0.00726928       0.02747591       0.01408890       0.02505217
H       -3.54798188       5.48581399      -1.15857963       0.00000000       0.00000000      -0.00895039       0.02119497       0.01844466       0.04461473
H       -3.12950280       6.81086676      -2.24624960       0.00000000       0.00000000       0.00314072       0.01268802      -0.00356762       0.05457758
H       -1.94289095       5.32432856      -3.73259525       0.00000000       0.00000000      -0.00660467       0.00133407       0.00682539       0.06781918
H       -2.59458381       3.89775275      -2.92538929       0.00000000       0.00000000      -0.02026592       0.01608753      -0.00139022       0.02752872
H       -0.87030766       5.91064584      -1.43721350       0.00000000       0.00000000       0.05281412      -0.03105570      -0.09786318       0.09721606
H       -0.10715922       4.63150340      -2.39399568       0.00000000       0.00000000      -0.08744023       0.09764978      -0.01134203       0.05778178
H       -1.63157486       5.64368151       0.45856509       0.00000000       0.00000000       0.00206760      -0.01138294       0.02010281       0.09138698
H       -0.68505986       4.39111531       1.27350729       0.00000000       0.00000000      -0.00716272      -0.03169000       0.05215694       0.06111982
H       -2.68032026       2.95108107       1.41748529       0.00000000       0.00000000      -0.01112557      -0.04621306      -0.00227396       0.04277117
H       -3.63332564       4.12706619       0.50473632       0.00000000       0.00000000      -0.00144913      -0.01829934      -0.03187547       0.06139205
H       -2.32511983       4.66944404       3.21189682       0.00000000       0.00000000      -0.01668411      -0.00129443       0.00381062       0.04179562
H       -4.04190518       4.37078918       2.93767846       0.00000000       0.00000000       0.01183236      -0.01099638      -0.01594078       0.06586004
H       -3.28835303       5.81954177       2.29046999       0.00000000       0.00000000      -0.00064010      -0.00781474      -0.00591173       0.06126394
H        0.61487677       2.48450028      -2.26812219       0.00000000       0.00000000       0.00322009       0.01065029      -0.05416679       0.09841454
H       -0.99916898       2.51996290      -3.00208805       0.00000000       0.00000000      -0.01764236      -0.03055203      -0.02080354       0.10360495
H       -0.86227618      -0.59841395      -3.63859138       0.00000000       0.00000000      -0.04195053      -0.01008538       0.04320690       0.10642076
H       -2.01376484       0.74943565      -3.44818227       0.00000000       0.00000000       0.05432584       0.02097138       0.01076304       0.09130212
H       -3.17276867      -0.81103240      -4.36900993       0.00000000       0.00000000      -0.01822786      -0.03663198       0.01731444       0.05654443
H       -4.68413407      -1.57293510      -3.87171116       0.00000000       0.00000000       0.00086866      -0.01497183      -0.07065264       0.09749830
H       -2.17174945      -3.25610090      -4.15182524       0.00000000       0.00000000       0.00948144       0.00407800       0.01175448       0.03976723
H       -3.09064181      -2.77219802      -5.57356200       0.00000000       0.00000000       0.00444095      -0.01828935      -0.01951600       0.07298413
H       -4.22326051      -4.39877225      -3.25046510       0.00000000       0.00000000      -0.01857073      -0.03730150       0.00983060       0.05064095
H       -3.84667692      -4.97612667      -4.86084337       0.00000000       0.00000000       0.03857899      -0.04685454      -0.05047117       0.07011295
H       -5.14106728      -3.81764366      -4.64260647       0.00000000       0.00000000      -0.02221998      -0.00039118      -0.00178047       0.06005806
H       -4.92025001      -2.65586461      -1.94455403       0.00000000       0.00000000       0.01436099      -0.01923593      -0.01737631       0.09373911
H       -4.34490872      -1.56423020      -0.67508871       0.00000000       0.00000000      -0.01318300      -0.00031943      -0.03235110       0.07648766
H       -2.48013332      -3.02467798      -0.14786754       0.00000000       0.00000000      -0.02559344       0.01301567      -0.01773717       0.06010085
H       -2.87970451      -4.11206744      -1.49334866       0.00000000       0.00000000      -0.02182014       0.03585118      -0.02668144       0.04582073
H       -3.80541075      -5.22338298       0.38481810       0.00000000       0.00000000       0.01581758       0.07853677      -0.04170283       0.06276727
H       -5.16459000      -4.43321792      -0.37895870       0.00000000       0.00000000       0.01622783       0.02480858       0.03606995       0.05113288
H       -5.57374390      -3.89423327       1.80188223       0.00000000       0.00000000       0.04779128       0.07629099      -0.01316088       0.05818470
H       -4.63644035      -2.47539622       1.35291348       0.00000000       0.00000000       0.03201832      -0.03085869       0.01962599       0.02460324
H       -3.72270571      -4.93357433       2.91331643       0.00000000       0.00000000       0.01807628       0.03565462      -0.03419041       0.06195910
H       -4.08360434      -3.34721362       3.55150363       0.00000000       0.00000000       0.04882763      -0.01668477      -0.01466807       0.04115346
H       -1.79243964      -3.28468291       3.57593331       0.00000000       0.00000000       0.00000815       0.00100903      -0.01551608       0.03418243
H       -2.07066118      -2.54425426       1.99397559       0.00000000       0.00000000       0.02419050      -0.01459507      -0.02171575       0.02287302
H       -0.28677860      -4.13016730       1.78207677       0.00000000       0.00000000       0.02006605       0.02532200      -0.00393421       0.01557421
H       -1.68369077      -4.87610115       0.98671570       0.00000000       0.00000000       0.01670262       0.01548195      -0.02786851       0.03098871
H       -0.74550676      -5.54861203       3.81041678       0.00000000       0.00000000      -0.00502193       0.02346310      -0.04117467       0.04342082
H       -0.44388749      -6.50837943       2.36089550       0.00000000       0.00000000      -0.00881163       0.04598177       0.02408020       0.04753242
H       -2.08201004      -6.31205794       2.95560521       0.00000000       0.00000000       0.03451529       0.02681955       0.00191564       0.05243642
C        6.74440868      -4.57077351       2.29719018       0.00000000       0.00000000      -0.00951434      -0.00942240       0.01840503      -0.10935413
C        5.90258768      -4.34931607       1.04540316       0.00000000       0.00000000      -0.00253529      -0.01181655       0.02623265      -0.05495743
C        4.38954901      -4.51564250       1.23355034       0.00000000       0.00000000      -0.01860296       0.03661477       0.01636556      -0.06301121
C        3.66181345      -3.37026825       1.95032111       0.00000000       0.00000000       0.00700685       0.00934336       0.04201641      -0.05096404
C        3.76543567      -3.42865418       3.47708244       0.00000000       0.00000000      -0.01266705       0.03185159       0.00531744      -0.07038193
C        3.07666026      -2.25050328       4.17084073       0.00000000       0.00000000      -0.02049602       0.00705813      -0.02184059      -0.06188685
C        1.55566153      -2.28609591       4.03656084       0.00000000       0.00000000       0.00956248       0.03542222      -0.00978017      -0.07247975
C        0.86892820      -1.04468424       4.61441078       0.00000000       0.00000000      -0.01018327      -0.02905648      -0.00122497      -0.01692736
N        1.27546455       0.24688657       4.03646131       0.00000000       0.00000000       0.03260523      -0.03848959      -0.08767657      -0.02975606
C        1.59530212       1.30013785       4.99574500       0.00000000       0.00000000      -0.02054400      -0.05078481      -0.04032508      -0.03038497
C        3.02144416       1.17731637       5.53718321       0.00000000       0.00000000      -0.05411605      -0.01189948       0.04514785      -0.07298668
C        4.09681763       1.48712719       4.50639409       0.00000000       0.00000000       0.01346821      -0.00863300       0.02621990      -0.11529018
C        1.26479075       0.41582746       2.72975449       0.00000000       0.00000000      -0.02365087       0.08685253       0.15401684       0.25494081
O        0.91542094      -0.48845489       1.93432373       0.00000000       0.00000000      -0.08353500      -0.08201299      -0.01904642      -0.37174556
C        1.59086258       1.79579121       2.12528264       0.00000000       0.00000000      -0.00073287       0.04995030      -0.06246089       0.03626573
O        1.53069502       1.75756181       0.69701341       0.00000000       0.00000000       0.04359627      -0.06284100       0.02738501      -0.23570582
C        2.76038457       1.77502751      -0.03425525       0.00000000       0.00000000      -0.05467417      -0.02602763       0.04211573       0.03966868
C        2.92038651       0.43893174      -0.77896939       0.00000000       0.00000000      -0.10661011       0.01049557      -0.01433127       0.24970855
O        1.97334010      -0.38417137      -0.71289473       0.00000000       0.00000000      -0.06536498      -0.04121859       0.05074417      -0.38632320
N        4.03912975       0.18413203      -1.43098024       0.00000000       0.00000000       0.02413003      -0.02295672      -0.00536022      -0.04050897
C        4.22126429      -1.20648703      -1.88027936       0.00000000       0.00000000      -0.01817904       0.00178248      -0.02261860      -0.00879247
C        5.61217502      -1.56679732      -2.38770279       0.00000000       0.00000000       0.01138138      -0.03120757      -0.00876274      -0.06860157
C        5.65029843      -3.04184856      -2.77963016       0.00000000       0.00000000       0.00055355      -0.01915693       0.00530188      -0.11900941
C        4.89397052       1.26407121      -1.91525663       0.00000000       0.00000000      -0.02483076      -0.06658674       0.01735652      -0.03221594
C        4.27764085       1.91240879      -3.17129716       0.00000000       0.00000000       0.04895910      -0.01481705       0.07934197      -0.06624509
C        4.52947422       1.09185124      -4.43906738       0.00000000       0.00000000      -0.03847238       0.02821241       0.01074385      -0.06847904
C        3.88420546       1.70058654      -5.69519209       0.00000000       0.00000000      -0.03043227       0.01590718      -0.02463576      -0.07071087
C        2.64675554       0.95071643      -6.20501364       0.00000000       0.00000000       0.01622578       0.00998458       0.00877134      -0.06713918
C        1.38316764       1.00105694      -5.33345386       0.00000000       0.00000000       0.05200967       0.02282971      -0.02049473      -0.05649580
C        0.49246893       2.22182083      -5.58407099       0.00000000       0.00000000       0.03040046       0.04221418       0.00158857      -0.05820842
C        1.07375236       3.55177759      -5.11520994       0.00000000       0.00000000       0.01256997       0.02281077       0.00068837      -0.10716904
H        7.79349224      -4.66279152       2.02582661       0.00000000       0.00000000      -0.02836558       0.01102387      -0.00709943       0.04939716
H        6.44617906      -5.48691737       2.79973411       0.00000000       0.00000000       0.00364242      -0.00513700      -0.00080451       0.04721422
H        6.65610682      -3.74498948       2.99809911       0.00000000       0.00000000       0.02779888       0.00388259      -0.01798872       0.03283430
H        6.21441769      -5.08789075       0.30370934       0.00000000       0.00000000       0.00650764       0.01763815      -0.01823791       0.04083440
H        6.12024924      -3.35810385       0.63607254       0.00000000       0.00000000      -0.03634650      -0.01042577      -0.00300959       0.02107611
H        4.19462695      -5.44734832       1.76759938       0.00000000       0.00000000       0.02526955       0.02278118      -0.02086543       0.04948823
H        3.94674992      -4.61403704       0.23684930       0.00000000       0.00000000      -0.00029913      -0.03026233       0.00179073       0.01670504
H        2.60378606      -3.41537795       1.66459687       0.00000000       0.00000000       0.05302335       0.02302661       0.00892810       0.01283666
H        4.05116556      -2.40876679       1.59496380       0.00000000       0.00000000       0.02032597      -0.03219904       0.02638677       0.01284056
H        4.81402592      -3.40708731       3.76776060       0.00000000       0.00000000      -0.03124369      -0.06135125      -0.02484233       0.06193160
H        3.33983877      -4.36636349       3.83948670       0.00000000       0.00000000       0.00705480       0.03092295      -0.04462844       0.04788902
H        3.46388267      -1.32624699       3.73458751       0.00000000       0.00000000      -0.02475217      -0.00477565       0.00849902       0.02374463
H        3.34035897      -2.25932565       5.23093869       0.00000000       0.00000000       0.01371469      -0.02111891      -0.04376242       0.04775298
H        1.16634092      -3.15196657       4.57733151       0.00000000       0.00000000       0.02291186       0.06683480      -0.00269237       0.06848612
H        1.27911441      -2.39795084       2.98876890       0.00000000       0.00000000      -0.00094894      -0.02819716       0.00892044       0.06439554
H        1.07039789      -0.99933113       5.68511354       0.00000000       0.00000000       0.00075879       0.04626100      -0.04467471       0.09141264
H       -0.21229724      -1.14227385       4.46474348       0.00000000       0.00000000      -0.00205271      -0.01475637       0.02406142       0.06247207
H        0.88298100       1.19885861       5.81885173       0.00000000       0.00000000       0.05236231       0.03653318       0.01389616       0.08920249
H        1.44353808       2.28025930       4.54304226       0.00000000       0.00000000       0.02216490      -0.03050523       0.01478728       0.06203496
H        3.16518756       0.16880223       5.91996738       0.00000000       0.00000000       0.05849043      -0.03869679       0.03768457       0.07182171
H        3.11809309       1.86380744       6.37585745       0.00000000       0.00000000       0.01493840       0.04447189       0.03039791       0.08252243
H        4.04525906       0.80121564       3.66283536       0.00000000       0.00000000      -0.00732358       0.01019285      -0.03698755       0.02502213
H        5.07248426       1.36713594       4.96362053       0.00000000       0.00000000       0.07194536       0.01184531       0.02831685       0.07788692
H        4.02091012       2.51403243       4.15529180       0.00000000       0.00000000       0.00032010       0.01401046       0.00736018       0.03863415
H        2.55006202       2.18320743       2.47675777       0.00000000       0.00000000       0.00731204      -0.02458309      -0.04118101       0.10317095
H        0.78613970       2.48148293       2.42572141       0.00000000       0.00000000       0.03248597       0.04471210       0.01495600       0.10565104
H        3.62511377       1.93407252       0.61935613       0.00000000       0.00000000      -0.06762756      -0.01224524       0.03492730       0.09169504
H        2.70160197       2.61272518      -0.74285405       0.00000000       0.00000000       0.02456069      -0.03211975       0.05200598       0.09170452
H        3.48249211      -1.42716389      -2.65803327       0.00000000       0.00000000      -0.01813427       0.04815031      -0.05179345       0.06440375
H        3.97988290      -1.84266811      -1.02075843       0.00000000       0.00000000       0.00023350       0.03864854      -0.01727533       0.07607587
H        6.35806233      -1.38054493      -1.61438495       0.00000000       0.00000000      -0.01312518      -0.00144112       0.01790054       0.05704685
H        5.86525968      -0.98222765      -3.27054282       0.00000000       0.00000000       0.02662901      -0.00141085       0.02444455       0.06425963
H        5.44604334      -3.68499568      -1.92766334       0.00000000       0.00000000      -0.01874260       0.01741560      -0.00392786       0.05210305
H        6.63503895      -3.29252547      -3.16139176       0.00000000       0.00000000       0.00038242      -0.00111152       0.01058605       0.07336905
H        4.92410893      -3.25023835      -3.56288429       0.00000000       0.00000000       0.01590071      -0.01220852       0.02979000       0.04516677
H        5.87280302       0.85689512      -2.16201098       0.00000000       0.00000000      -0.02963123      -0.00379994       0.02637752       0.10490439
H        5.03970799       2.00271099      -1.12259076       0.00000000       0.00000000      -0.05584993      -0.04860797      -0.07132269       0.06046980
H        4.71739659       2.90286263      -3.29623988       0.00000000       0.00000000       0.01379791      -0.02305244      -0.01663464       0.06764620
H        3.20024254       2.03791913      -3.02170141       0.00000000       0.00000000       0.06538149       0.01467537       0.00961992       0.02208912
H        4.14715966       0.08086844      -4.30197223       0.00000000       0.00000000      -0.00177142      -0.00415193      -0.03791905       0.04333264
H        5.60904912       1.03113901      -4.58702116       0.00000000       0.00000000      -0.04767878      -0.01310978      -0.00711666       0.05131208
H        4.61475927       1.67518585      -6.50386359       0.00000000       0.00000000      -0.01488486       0.01161201      -0.00074860       0.05909417
H        3.65366285       2.74777924      -5.51015784       0.00000000       0.00000000      -0.00176337      -0.00786668      -0.01939093       0.04818558
H        2.92838620      -0.09665680      -6.34570144       0.00000000       0.00000000      -0.00360264       0.04839461      -0.00004453       0.04054105
H        2.38952370       1.34579594      -7.18975271       0.00000000       0.00000000       0.03572420      -0.02877372       0.02819651       0.05644874
H        1.64701461       0.93635372      -4.27294575       0.00000000       0.00000000       0.00232816       0.00629080      -0.00096398       0.01205800
H        0.78273413       0.11790151      -5.57448811       0.00000000       0.00000000       0.04046052       0.00458474       0.01107376       0.02164375
H       -0.47079910       2.05329541      -5.08917871       0.00000000       0.00000000       0.00756894       0.01147198      -0.03667896       0.00110060
H        0.29065358       2.29366919      -6.65266552       0.00000000       0.00000000      -0.01751181      -0.02171880      -0.00317685       0.05863555
H        1.46950103       3.48123742      -4.10073599       0.00000000       0.00000000      -0.01223947       0.01399297      -0.03442202       0.00750119
H        0.31160691       4.32821014      -5.13954085       0.00000000       0.00000000       0.00052298      -0.02604957       0.00468634       0.03832471
H        1.87809926       3.87176249      -5.76899358       0.00000000       0.00000000      -0.01400048      -0.01246210      -0.01163337       0.06352935
O       -1.81267202       0.05469877       2.04971856       0.00000000       0.00000000       0.05079741       0.03306694      -0.03977477      -0.49023765
H       -2.63746344       0.40909490       1.68446071       0.00000000       0.00000000      -0.02563032      -0.03579257       0.02149042       0.35613105
H       -2.00656814      -0.14414596       2.97838782       0.00000000       0.00000000       0.00759110      -0.07583529      -0.07048229       0.34636171
O        0.03586525      -2.49946550      -0.78598766       0.00000000       0.00000000      -0.01551683       0.07975635      -0.02649898      -0.49081508
H       -0.35497340      -3.35638109      -0.54279099       0.00000000       0.00000000       0.08791514       0.04745240       0.07885734       0.35727440
H        0.67068398      -2.68559191      -1.49415513       0.00000000       0.00000000       0.06921776      -0.04998972       0.12128062       0.35000485
