243
Properties=species:S:1:pos:R:3:initial_charges:R:1:initial_magmoms:R:1:forces:R:3:charge:R:1 energy=-7949.956042888057 free_energy=-7949.956042888057 dipole="-0.0841853286583947 -1.9826602099029205 0.32274813491744575" pbc="F F F"
Yb       0.01811105       0.09427105       0.00980517       2.00000000       0.00000000      -0.01325367       0.08374559      -0.03384024       0.82755281
C        5.86581070      -1.42663527      -7.63915968       0.00000000       0.00000000       0.05898462      -0.00697720       0.00099128      -0.10950299
C        4.34390960      -1.41492817      -7.55062017       0.00000000       0.00000000       0.02972811       0.00485165       0.00334853      -0.05046342
C        3.69877561      -2.79253419      -7.73217382       0.00000000       0.00000000      -0.02059916      -0.04103752      -0.08948930      -0.06526744
C        3.45265226      -3.67273742      -6.50282661       0.00000000       0.00000000      -0.02602274      -0.03171283      -0.01132754      -0.05759190
C        4.66754895      -4.11422493      -5.68183689       0.00000000       0.00000000       0.01107705      -0.00887468       0.01724751      -0.06298381
C        5.11944797      -3.12601162      -4.60838226       0.00000000       0.00000000       0.01798453       0.02166265       0.01678909      -0.06598509
C        4.08521143      -2.94766018      -3.50005669       0.00000000       0.00000000      -0.03218474       0.01231140       0.00303316      -0.06860751
C        4.60264862      -1.95570838      -2.46530204       0.00000000       0.00000000       0.05054582       0.02676052      -0.00946161      -0.02378492
N        3.71057151      -1.74105683      -1.33524307       0.00000000       0.00000000       0.06762614       0.01857781      -0.02644117      -0.04715308
C        4.18828631      -2.25222977      -0.04752710       0.00000000       0.00000000      -0.03656639      -0.05363280       0.02929131      -0.01051450
C        4.72135218      -1.15074806       0.86613755       0.00000000       0.00000000      -0.03147610       0.02226700       0.01197507      -0.07445103
C        6.01413417      -0.48953083       0.37681927       0.00000000       0.00000000       0.02774947      -0.02166218      -0.01275784      -0.06971845
C        6.04427224       1.01247184       0.67034352       0.00000000       0.00000000       0.02760871      -0.01742854       0.01981248      -0.06647743
C        5.17351558       1.79761806      -0.30731974       0.00000000       0.00000000      -0.00299847      -0.04348334      -0.03628424      -0.06188315
C        5.06646755       3.27519149       0.05364928       0.00000000       0.00000000       0.03210248       0.01165939       0.00814024      -0.06241039
C        4.12126167       4.04566765      -0.86626615       0.00000000       0.00000000      -0.02012354       0.01694773      -0.02408528      -0.06061117
C        4.57995346       4.09550897      -2.31769052       0.00000000       0.00000000       0.01890011       0.02059197      -0.05842900      -0.10544439
C        2.53864765      -1.11677286      -1.34108178       0.00000000       0.00000000       0.03696946       0.01641566       0.01070003       0.26069936
O        1.91994412      -0.93302991      -0.27337582       0.00000000       0.00000000       0.09070810      -0.13191209      -0.03192943      -0.38743728
C        1.84028676      -0.63348047      -2.62906091       0.00000000       0.00000000       0.02592808       0.13494886      -0.12010971       0.09846805
C        2.60164375       0.43401297      -3.41109430       0.00000000       0.00000000       0.05914099       0.07442349      -0.08276105      -0.12718756
O        0.59715122      -0.01665641      -2.21820409       0.00000000       0.00000000      -0.01206037      -0.04367120       0.02120987      -0.24662168
C       -0.56416151      -0.33540361      -2.99049264       0.00000000       0.00000000      -0.01044060       0.02927106      -0.08698060       0.08526808
C       -1.60188301       0.77909984      -2.83698920       0.00000000       0.00000000      -0.00636217      -0.04898990       0.00197139      -0.12956887
C       -1.19627897      -1.58966352      -2.36470923       0.00000000       0.00000000       0.00183971      -0.06804154      -0.09327443       0.25010673
O       -1.02508866      -1.70604502      -1.13291649       0.00000000       0.00000000      -0.03244588      -0.04628481      -0.03342989      -0.38308827
N       -1.89802713      -2.42287102      -3.11870411       0.00000000       0.00000000      -0.03038858       0.01798547      -0.00649187      -0.05603808
C       -2.63259512      -3.54105288      -2.52651408       0.00000000       0.00000000       0.00718908       0.00019307       0.00912495      -0.01341949
C       -4.14951954      -3.30792620      -2.56086004       0.00000000       0.00000000       0.00751984       0.05490036      -0.00737997      -0.06576290
C       -4.99403660      -4.56688814      -2.33456400       0.00000000       0.00000000       0.01178258       0.00349552       0.02854652      -0.06741840
C       -4.93896920      -5.68913535      -3.37774251       0.00000000       0.00000000       0.04328996      -0.02356224       0.01630937      -0.06446305
C       -5.70894389      -5.50054275      -4.68973054       0.00000000       0.00000000      -0.01889148      -0.02231734       0.02161209      -0.06580113
C       -5.12588319      -4.48797943      -5.67052904       0.00000000       0.00000000       0.02975289       0.02346713       0.00999469      -0.05462417
C       -5.82375885      -4.48255023      -7.03247257       0.00000000       0.00000000      -0.02821070      -0.00457426      -0.03913552      -0.05643081
C       -5.61868433      -5.74589334      -7.85778647       0.00000000       0.00000000       0.00917392      -0.04809213      -0.02908292      -0.10630315
C       -2.12243378      -2.22308739      -4.54793423       0.00000000       0.00000000       0.01220121      -0.01748337      -0.00603395      -0.02848433
C       -0.92433682      -2.44040824      -5.47409482       0.00000000       0.00000000       0.03815466      -0.01264028       0.01497307      -0.06721246
C       -1.34619122      -2.07458527      -6.90134452       0.00000000       0.00000000      -0.02899883      -0.03087378      -0.00417453      -0.06663366
C       -0.17983782      -1.64785824      -7.79156958       0.00000000       0.00000000       0.00377781      -0.05573425      -0.01390553      -0.06555602
C        0.44921724      -0.29922890      -7.43494796       0.00000000       0.00000000       0.01472790      -0.04659176       0.01491501      -0.05688765
C       -0.49366970       0.88328478      -7.63062265       0.00000000       0.00000000      -0.03749483      -0.01941073      -0.01756745      -0.06359422
C        0.15269240       2.21520691      -7.26623430       0.00000000       0.00000000       0.03371842       0.03671053       0.00300834      -0.05245402
C       -0.78108832       3.38619416      -7.53938855       0.00000000       0.00000000      -0.03623217       0.03231030      -0.00893520      -0.10794422
H        6.25289809      -0.41338548      -7.54925812       0.00000000       0.00000000       0.00290061      -0.01527708      -0.01894700       0.03528651
H        6.18528354      -1.82891423      -8.59712457       0.00000000       0.00000000      -0.03756240       0.03986856      -0.02518890       0.04404557
H        6.31957104      -2.03380345      -6.86275420       0.00000000       0.00000000       0.01495928      -0.01995462       0.00613097       0.03747131
H        3.97919581      -0.77451869      -8.35709338       0.00000000       0.00000000      -0.00684270       0.02382452       0.02752063       0.03423124
H        4.02341983      -0.95707086      -6.61145822       0.00000000       0.00000000      -0.03331146      -0.04663302       0.04102172       0.01535904
H        4.28442910      -3.35530469      -8.45789002       0.00000000       0.00000000       0.10324425      -0.03594640       0.00729149       0.04688699
H        2.71726797      -2.63814871      -8.18437515       0.00000000       0.00000000      -0.03755390      -0.00570831      -0.06323552       0.03032299
H        2.97719511      -4.58175831      -6.87840368       0.00000000       0.00000000      -0.03157226      -0.00706073      -0.02241304       0.03652367
H        2.71770517      -3.19211909      -5.85259710       0.00000000       0.00000000       0.03345781       0.07601030       0.00243460       0.01446570
H        5.50653974      -4.31424928      -6.34835786       0.00000000       0.00000000      -0.05276484       0.00127739      -0.04757542       0.05550017
H        4.41596510      -5.05342500      -5.18303659       0.00000000       0.00000000       0.03738594      -0.02347030      -0.01984715       0.03532115
H        5.31871208      -2.15510805      -5.05646837       0.00000000       0.00000000       0.01197525       0.02644878       0.00912970       0.05238732
H        6.05042583      -3.48665277      -4.16661018       0.00000000       0.00000000       0.00581588      -0.02164330      -0.02594902       0.04013747
H        3.87185479      -3.90622624      -3.02418895       0.00000000       0.00000000       0.02344796       0.00122553       0.01419967       0.04796635
H        3.16337065      -2.57473292      -3.93629765       0.00000000       0.00000000      -0.07358529      -0.05519974      -0.06104789       0.03285744
H        4.85274045      -1.00318727      -2.93478063       0.00000000       0.00000000      -0.08530669       0.03500303      -0.04271050       0.06774672
H        5.53543337      -2.35140021      -2.06447874       0.00000000       0.00000000       0.02883132      -0.01310170      -0.00326080       0.08311501
H        4.96563506      -2.98708739      -0.24890114       0.00000000       0.00000000      -0.02591071      -0.05693568       0.03091113       0.07448440
H        3.35205438      -2.75006432       0.44844043       0.00000000       0.00000000      -0.07827421       0.00055837       0.00844576       0.06587523
H        4.86332847      -1.57623157       1.86046325       0.00000000       0.00000000       0.05618239      -0.00861529      -0.00776542       0.04445227
H        3.94308733      -0.40002181       0.94179873       0.00000000       0.00000000      -0.07286796       0.04791422       0.01385984       0.06143526
H        6.10892879      -0.61826871      -0.70016196       0.00000000       0.00000000       0.05992571       0.01000469      -0.01643201       0.04048732
H        6.87438267      -0.96929666       0.84352241       0.00000000       0.00000000      -0.00479254      -0.02701293       0.00127613       0.04692753
H        7.07180502       1.36692944       0.58930176       0.00000000       0.00000000       0.00844452       0.02581442      -0.00754843       0.05011606
H        5.71913681       1.19573448       1.69580373       0.00000000       0.00000000      -0.00555425      -0.00320135       0.02167471       0.02941827
H        4.17113446       1.36597279      -0.34883073       0.00000000       0.00000000      -0.08286682       0.00611195       0.00314314       0.02115983
H        5.60615948       1.70418165      -1.30265500       0.00000000       0.00000000       0.05488160      -0.00839949      -0.05291871       0.03602576
H        6.05853284       3.72426614       0.01217860       0.00000000       0.00000000       0.04953767       0.02954609      -0.01111945       0.04289267
H        4.70741578       3.36875223       1.08118470       0.00000000       0.00000000       0.00535393      -0.01018220       0.02145219       0.02285307
H        4.03575433       5.06837415      -0.49684807       0.00000000       0.00000000      -0.00232188       0.01325906       0.00720313       0.03918722
H        3.12829927       3.59917709      -0.82292016       0.00000000       0.00000000      -0.03238149      -0.02558318       0.02281000       0.03736471
H        5.56278594       4.55212938      -2.39505663       0.00000000       0.00000000       0.02390318       0.01174516       0.01272162       0.04266507
H        3.88178588       4.68654931      -2.90434136       0.00000000       0.00000000      -0.00085587       0.02927305       0.00249153       0.04179805
H        4.62951512       3.10397957      -2.76269433       0.00000000       0.00000000      -0.00088622      -0.01113693       0.02422657       0.02169691
H        1.64153196      -1.52049916      -3.24628033       0.00000000       0.00000000      -0.13096269       0.07637084       0.01262717       0.06171075
H        2.90192953       1.23471648      -2.73659685       0.00000000       0.00000000      -0.01665321      -0.01032234      -0.04964461       0.08746350
H        1.94198815       0.85012021      -4.17306023       0.00000000       0.00000000       0.01332149       0.03695189       0.05633794       0.07574202
H        3.47253649       0.04502765      -3.92385856       0.00000000       0.00000000       0.01872772      -0.03536573       0.00735343       0.07269956
H       -0.28105347      -0.43746060      -4.03573622       0.00000000       0.00000000       0.00193709       0.01705792      -0.11324022       0.08153919
H       -1.98863284       0.78876559      -1.80938832       0.00000000       0.00000000       0.06248677       0.08521672      -0.04416298       0.11484190
H       -2.44378467       0.58032088      -3.49460306       0.00000000       0.00000000       0.07989242       0.00775184      -0.04072696       0.09085772
H       -1.18745808       1.75732509      -3.09773357       0.00000000       0.00000000       0.00586829      -0.15008050       0.06012245       0.09373260
H       -2.27663097      -3.64983623      -1.50163980       0.00000000       0.00000000      -0.05945012      -0.08019470       0.02676481       0.07730515
H       -2.38486144      -4.44149461      -3.09301681       0.00000000       0.00000000       0.02731927       0.01463018       0.01893246       0.07312342
H       -4.43483182      -2.86541627      -3.51117038       0.00000000       0.00000000      -0.00211324       0.02415757      -0.05373483       0.05105585
H       -4.41390985      -2.58506093      -1.78565486       0.00000000       0.00000000       0.04435011       0.02201798       0.04137099       0.03745755
H       -6.03055949      -4.23849834      -2.23946638       0.00000000       0.00000000      -0.00907869      -0.05477369      -0.01093860       0.05351106
H       -4.69694831      -5.00094116      -1.37884378       0.00000000       0.00000000      -0.01349390       0.00913539       0.03886376       0.04321744
H       -5.38409280      -6.56045302      -2.89020963       0.00000000       0.00000000       0.05665441      -0.01452926      -0.02144011       0.04529434
H       -3.90330545      -5.95110313      -3.59986895       0.00000000       0.00000000       0.05411950       0.03290677      -0.03697576       0.02804299
H       -6.74390047      -5.23650608      -4.46931258       0.00000000       0.00000000      -0.01615829       0.04820264       0.02708753       0.03953739
H       -5.72040624      -6.47459650      -5.17981220       0.00000000       0.00000000      -0.03408796      -0.01465371      -0.01073088       0.04733377
H       -4.06392366      -4.69839894      -5.81868399       0.00000000       0.00000000       0.05902816      -0.03377998      -0.01470530       0.02018126
H       -5.22606879      -3.48323572      -5.25808584       0.00000000       0.00000000       0.00359954       0.06518421       0.02159925       0.01785751
H       -5.44404576      -3.63084574      -7.60263825       0.00000000       0.00000000      -0.00387857       0.01425918      -0.01089558       0.02834221
H       -6.89278155      -4.32662368      -6.88543516       0.00000000       0.00000000      -0.04087243       0.01440089       0.03273547       0.03791813
H       -4.56128627      -5.94837768      -8.01413154       0.00000000       0.00000000       0.02251031       0.02010460       0.03302521       0.03299334
H       -6.08621115      -5.62662399      -8.83201879       0.00000000       0.00000000       0.00780525       0.00719631       0.00392164       0.04307740
H       -6.06881812      -6.61252557      -7.38224313       0.00000000       0.00000000       0.00276575       0.00232803       0.03270231       0.03988624
H       -2.53763092      -1.22566346      -4.72019473       0.00000000       0.00000000       0.05751499      -0.01218697       0.02902604       0.05765529
H       -2.88012761      -2.94484057      -4.85037897       0.00000000       0.00000000      -0.01614029       0.02365957      -0.00424310       0.09561606
H       -0.57917828      -3.47298956      -5.42096011       0.00000000       0.00000000      -0.08687796      -0.05869314      -0.03261646       0.04888524
H       -0.07709989      -1.82086982      -5.19460077       0.00000000       0.00000000       0.07566838       0.01551826       0.01208112       0.03134645
H       -2.07352270      -1.26313727      -6.85857070       0.00000000       0.00000000      -0.00871245      -0.00599718      -0.05085609       0.04398816
H       -1.84462612      -2.92951689      -7.35634504       0.00000000       0.00000000      -0.01681946      -0.01375909      -0.03120049       0.04882757
H       -0.54505955      -1.60034736      -8.81769940       0.00000000       0.00000000       0.04842438       0.01427790      -0.01984973       0.05190315
H        0.59200452      -2.41726460      -7.74611308       0.00000000       0.00000000       0.00755565      -0.04861479      -0.03591192       0.03929678
H        1.32597023      -0.15961024      -8.06910960       0.00000000       0.00000000      -0.00558582       0.02068135      -0.01399491       0.04316101
H        0.81231257      -0.31287872      -6.40373616       0.00000000       0.00000000       0.00806426       0.01092787       0.05157688       0.00767722
H       -1.39334785       0.75281133      -7.02781127       0.00000000       0.00000000      -0.05040507       0.00908288       0.04802830       0.02439959
H       -0.80452728       0.91522148      -8.67400958       0.00000000       0.00000000      -0.01711892       0.00050710      -0.05948914       0.04487766
H        1.06631039       2.33975072      -7.84643219       0.00000000       0.00000000       0.06100375       0.01929705      -0.03847424       0.03721335
H        0.43416793       2.21533751      -6.21004773       0.00000000       0.00000000       0.00503854      -0.01502474       0.05832243       0.01351907
H       -1.03223617       3.43077180      -8.59581414       0.00000000       0.00000000       0.00210266       0.00161624      -0.00309449       0.04430934
H       -0.31316179       4.32741064      -7.26124826       0.00000000       0.00000000       0.00180250      -0.02787494       0.00274956       0.04264360
H       -1.70589845       3.28162110      -6.97539708       0.00000000       0.00000000      -0.00405198       0.00641782       0.01569945       0.03281276
C       -0.99508532      -5.41955984       8.02227052       0.00000000       0.00000000       0.03818019      -0.01846378       0.03164522      -0.10621645
C       -2.03981699      -4.67063343       7.20764384       0.00000000       0.00000000      -0.01555860      -0.03585435      -0.00011302      -0.05466218
C       -1.77875199      -3.16854122       7.17950113       0.00000000       0.00000000       0.01297901       0.03106851       0.01917820      -0.05930847
C       -2.77562105      -2.43856343       6.28776474       0.00000000       0.00000000      -0.04755701       0.00229720      -0.02487947      -0.06493295
C       -2.51877554      -0.93644771       6.22344018       0.00000000       0.00000000      -0.00293312       0.03272257       0.02829972      -0.05970367
C       -3.33826562      -0.28420757       5.11338069       0.00000000       0.00000000      -0.03637658       0.00665050       0.00629130      -0.06330526
C       -3.08230292       1.21649430       5.00097632       0.00000000       0.00000000      -0.00427073       0.01887782       0.06069419      -0.07094603
C       -3.67755884       1.83341577       3.72965893       0.00000000       0.00000000      -0.00957682       0.01543472       0.08139983      -0.02699208
N       -3.35301293       1.13707689       2.49196140       0.00000000       0.00000000      -0.01640205       0.07907964       0.03526684      -0.04519680
C       -4.48986899       0.48156948       1.84996204       0.00000000       0.00000000      -0.01471283      -0.03557508       0.00302692      -0.01502524
C       -5.49146344       1.45930244       1.22546837       0.00000000       0.00000000      -0.01161219      -0.00694036      -0.01524367      -0.07240724
C       -5.06818377       2.05099521      -0.12024833       0.00000000       0.00000000       0.02477779       0.02557203      -0.01122193      -0.06527460
C       -5.19404243       1.06151322      -1.27656121       0.00000000       0.00000000      -0.00943562      -0.03566670       0.00388946      -0.06218335
C       -4.91435972       1.69869593      -2.63775607       0.00000000       0.00000000       0.00392156       0.04655997      -0.00730151      -0.06857334
C       -5.14463963       0.69102537      -3.76608871       0.00000000       0.00000000      -0.01892808      -0.01896943      -0.00544474      -0.06203760
C       -4.60678245       1.09860830      -5.14144925       0.00000000       0.00000000       0.00633520       0.01404563      -0.03492686      -0.05063002
C       -5.04652425       2.48120792      -5.60094069       0.00000000       0.00000000      -0.03935247       0.05246291      -0.02205776      -0.10970546
C       -2.14377577       1.00612968       1.96538238       0.00000000       0.00000000      -0.00458712      -0.00250714      -0.00221544       0.26121962
O       -1.93303674       0.30467071       0.95455268       0.00000000       0.00000000      -0.07358665      -0.04951422       0.08651507      -0.37502449
C       -0.94798411       1.73427520       2.60715369       0.00000000       0.00000000       0.05028332       0.15150697       0.00495903       0.09050816
C       -0.96518684       3.24559725       2.37397387       0.00000000       0.00000000      -0.04016509       0.11543581       0.00225944      -0.12773544
O        0.25689442       1.26386234       1.99671586       0.00000000       0.00000000       0.00120852      -0.04948646      -0.02989177      -0.23938912
C        1.26599101       0.70572132       2.84187718       0.00000000       0.00000000       0.05608427       0.08478266       0.05964036       0.08176732
C        2.57844054       1.35292056       2.39406262       0.00000000       0.00000000       0.02499932      -0.00578305      -0.00922215      -0.12851712
C        1.14702657      -0.83426009       2.66312081       0.00000000       0.00000000       0.03218136      -0.00156681       0.06428930       0.25877924
O        0.39979451      -1.19919181       1.73942075       0.00000000       0.00000000       0.05882077      -0.01621224       0.05748994      -0.35703717
N        1.74488575      -1.65627106       3.51546924       0.00000000       0.00000000       0.04312030       0.00930531       0.03974565      -0.05323057
C        1.68520117      -3.12645938       3.47249520       0.00000000       0.00000000      -0.03458681      -0.02230788       0.02263328      -0.00977176
C        0.65507681      -3.79387022       2.56934918       0.00000000       0.00000000      -0.01395274      -0.00381694      -0.03488710      -0.06628455
C       -0.77917219      -3.52996167       3.02115621       0.00000000       0.00000000      -0.01914002       0.01383417       0.02757241      -0.05825371
C       -1.81294780      -3.99459784       1.99996582       0.00000000       0.00000000       0.00602934      -0.01158997      -0.02788199      -0.06133638
C       -3.22444934      -3.63101561       2.45099223       0.00000000       0.00000000       0.00434981       0.01049098       0.04521668      -0.05675322
C       -4.28948052      -3.94758528       1.40894253       0.00000000       0.00000000       0.01629017      -0.01729366      -0.02607149      -0.06151949
C       -5.68278494      -3.53416919       1.87315259       0.00000000       0.00000000      -0.03235615       0.00749740       0.02236442      -0.05540468
C       -6.74235799      -3.77171387       0.80652141       0.00000000       0.00000000      -0.03206127      -0.00706232      -0.03379452      -0.10873720
C        2.49999534      -1.16747061       4.66856932       0.00000000       0.00000000       0.02303869       0.00732255       0.02467764      -0.02989139
C        1.59348907      -0.55192294       5.75121740       0.00000000       0.00000000      -0.00910273      -0.05466106       0.02066902      -0.06929888
C        2.17001153       0.74291752       6.32704259       0.00000000       0.00000000       0.02686909      -0.03989391       0.00629233      -0.06909336
C        1.16562211       1.44132691       7.24308889       0.00000000       0.00000000      -0.02788666      -0.04557837       0.01708437      -0.06004190
C        1.53649398       2.88377730       7.58638500       0.00000000       0.00000000       0.01043133      -0.02254363       0.03334464      -0.06684121
C        1.47304925       3.81533418       6.37913956       0.00000000       0.00000000      -0.01114713      -0.01749043      -0.03682245      -0.05561899
C        1.69464772       5.28732976       6.72193376       0.00000000       0.00000000       0.00830489       0.04514408       0.02099277      -0.05698081
C        0.60300793       5.88418422       7.59879333       0.00000000       0.00000000      -0.04842957       0.02843899       0.04146540      -0.10728417
H       -1.20882685      -6.48522599       8.03501806       0.00000000       0.00000000      -0.01075925       0.01717123      -0.00693084       0.04421136
H       -0.00076876      -5.27648893       7.60333583       0.00000000       0.00000000       0.00929128       0.00264595      -0.00861170       0.02805327
H       -0.98592403      -5.06240546       9.04869535       0.00000000       0.00000000      -0.00228602       0.00220830       0.01394490       0.04240602
H       -2.05028564      -5.05382101       6.18518811       0.00000000       0.00000000       0.01872971      -0.03036120      -0.04774984       0.02455845
H       -3.02608925      -4.85325845       7.63307589       0.00000000       0.00000000      -0.05099023      -0.01029458       0.02178533       0.03918322
H       -1.84218268      -2.77077088       8.19187402       0.00000000       0.00000000       0.01544429       0.01105011       0.06744668       0.03955615
H       -0.76449533      -2.98451756       6.81625286       0.00000000       0.00000000       0.04413363       0.00419398      -0.02737849       0.01909520
H       -2.72060020      -2.84776085       5.27827039       0.00000000       0.00000000       0.02422733      -0.03796097      -0.04124279       0.03220973
H       -3.78552085      -2.61618245       6.65545616       0.00000000       0.00000000      -0.05421561      -0.01230321       0.02482321       0.04132034
H       -2.76722125      -0.47562146       7.17856255       0.00000000       0.00000000      -0.00517955       0.01084109       0.06441579       0.04409443
H       -1.45371518      -0.76591113       6.04883391       0.00000000       0.00000000       0.01840482       0.02087067      -0.05124094       0.01880304
H       -3.09075022      -0.77311930       4.16684129       0.00000000       0.00000000       0.02239009       0.02545441       0.00152168       0.02599061
H       -4.39593493      -0.45337073       5.31400501       0.00000000       0.00000000      -0.04883413      -0.04423066      -0.04030633       0.04857275
H       -3.53109244       1.74045128       5.84486825       0.00000000       0.00000000      -0.06314677      -0.04775399       0.05282272       0.06822209
H       -2.01171346       1.40271020       5.07290576       0.00000000       0.00000000       0.02424752       0.00016501       0.05889651       0.03023839
H       -4.76238431       1.78422247       3.82343385       0.00000000       0.00000000       0.00332071       0.06370022       0.01330817       0.08965401
H       -3.39740965       2.88627779       3.66375021       0.00000000       0.00000000      -0.01870254      -0.01768641      -0.00293685       0.06478291
H       -4.09085870      -0.20102936       1.10099393       0.00000000       0.00000000      -0.04505724      -0.00884263      -0.06189805       0.08724803
H       -5.00527501      -0.09677637       2.61956584       0.00000000       0.00000000       0.01760954      -0.07635918       0.00675994       0.06824228
H       -6.42823782       0.91459398       1.09652870       0.00000000       0.00000000      -0.01542516       0.01206143      -0.05239210       0.06371710
H       -5.69444365       2.27815416       1.91882529       0.00000000       0.00000000       0.05380009      -0.04452800       0.01348157       0.05060679
H       -5.71280466       2.90672381      -0.32489993       0.00000000       0.00000000       0.01300321       0.02043353      -0.02706664       0.05239889
H       -4.04150560       2.41722509      -0.05847350       0.00000000       0.00000000       0.05005718       0.00051661       0.00257819       0.03503576
H       -4.50754155       0.22694581      -1.11382139       0.00000000       0.00000000       0.04990652      -0.03625091      -0.03669719       0.02076748
H       -6.20615549       0.65506569      -1.29312758       0.00000000       0.00000000      -0.05178832      -0.01588348       0.04761108       0.04219766
H       -5.57639334       2.55134545      -2.77664313       0.00000000       0.00000000      -0.08065463       0.01747927       0.00928886       0.04955998
H       -3.89587207       2.08244225      -2.66083300       0.00000000       0.00000000       0.06002481       0.02210102       0.00317695       0.03155421
H       -4.69000721      -0.26393489      -3.48238347       0.00000000       0.00000000      -0.00270660      -0.03924314      -0.00669820       0.01136031
H       -6.21707795       0.51653488      -3.85636797       0.00000000       0.00000000      -0.03806880       0.00251679       0.00242395       0.04461344
H       -3.51355208       1.06581777      -5.15560547       0.00000000       0.00000000       0.04339210       0.03217938       0.04599041       0.00926419
H       -4.95605281       0.36025595      -5.86727367       0.00000000       0.00000000       0.00345977      -0.01427627      -0.01740665       0.03387831
H       -4.64850317       3.26121913      -4.95722963       0.00000000       0.00000000      -0.00437608      -0.03072862       0.03224993       0.04017259
H       -4.68880447       2.66770958      -6.61090938       0.00000000       0.00000000      -0.01733286      -0.01338395      -0.00620351       0.04287516
H       -6.12953274       2.55466035      -5.60738272       0.00000000       0.00000000      -0.03638109       0.00476123       0.01628532       0.04693088
H       -0.92658079       1.52940391       3.67870383       0.00000000       0.00000000       0.07520530      -0.05752159       0.01200892       0.07233829
H       -1.08964507       3.46007242       1.31458922       0.00000000       0.00000000      -0.02761735       0.03941475       0.05363000       0.08528608
H       -1.75419284       3.73693609       2.92897943       0.00000000       0.00000000      -0.02697193       0.06929459      -0.00496987       0.07040485
H       -0.00903955       3.64990700       2.70853657       0.00000000       0.00000000      -0.09435041       0.04430607      -0.04170913       0.07933135
H        1.07917176       0.97898745       3.88091720       0.00000000       0.00000000      -0.08339299       0.05474117       0.06354074       0.08693326
H        2.71841260       1.18971611       1.32740143       0.00000000       0.00000000      -0.02096041       0.00833451       0.01768098       0.10980195
H        2.51006836       2.43063208       2.55376935       0.00000000       0.00000000       0.00827347      -0.09575164       0.03434702       0.08314085
H        3.44412542       0.98031465       2.93291579       0.00000000       0.00000000      -0.04796344      -0.01188710      -0.00227966       0.06975938
H        2.68363794      -3.49387943       3.20368096       0.00000000       0.00000000      -0.01069942       0.11447792      -0.00333329       0.06110673
H        1.47759555      -3.43870180       4.49950491       0.00000000       0.00000000      -0.01210996      -0.05528654       0.02939697       0.07721152
H        0.77997004      -3.47426263       1.53588669       0.00000000       0.00000000       0.00464779       0.03666091      -0.03497798       0.06077990
H        0.86047994      -4.86557883       2.61564929       0.00000000       0.00000000      -0.03629149      -0.01298234      -0.02306670       0.05727760
H       -0.95957452      -4.02152663       3.97799925       0.00000000       0.00000000       0.01944042      -0.05070846       0.02959009       0.04359689
H       -0.91245373      -2.45786425       3.16546599       0.00000000       0.00000000      -0.04284801       0.03645365       0.05265285       0.03380864
H       -1.60416459      -3.50933531       1.04330421       0.00000000       0.00000000       0.02500016       0.06076668      -0.01863760       0.03746030
H       -1.73775086      -5.07294676       1.85659376       0.00000000       0.00000000       0.00579743      -0.03955509      -0.00477248       0.03824542
H       -3.45759023      -4.16540524       3.37256272       0.00000000       0.00000000      -0.02401973      -0.02747913       0.05024487       0.03771612
H       -3.25407900      -2.56108645       2.67110932       0.00000000       0.00000000      -0.01598253       0.05290019      -0.00371672       0.01877200
H       -4.04688319      -3.42505667       0.48245407       0.00000000       0.00000000       0.01223261       0.04389827      -0.03901915       0.02628886
H       -4.28255952      -5.01765854       1.20127687       0.00000000       0.00000000      -0.00352676      -0.05501489      -0.02394113       0.03666306
H       -5.94289389      -4.09623537       2.76969374       0.00000000       0.00000000      -0.00909990      -0.03197772       0.04782416       0.03948306
H       -5.67144599      -2.47588009       2.14120222       0.00000000       0.00000000      -0.00877820       0.05381117       0.00726595       0.02041928
H       -6.78004349      -4.82311729       0.53375899       0.00000000       0.00000000       0.00011153      -0.00364533      -0.00015455       0.04315984
H       -7.72569353      -3.47989310       1.16656972       0.00000000       0.00000000       0.02187215      -0.00561761       0.02919739       0.04361495
H       -6.52312091      -3.19244747      -0.08759006       0.00000000       0.00000000       0.00271697       0.01634486       0.00179082       0.03041856
H        3.05247554      -2.01540003       5.07148756       0.00000000       0.00000000       0.01900984       0.03650529       0.04179109       0.08128283
H        3.24294499      -0.43457891       4.35338009       0.00000000       0.00000000      -0.04227858       0.02851225      -0.06696905       0.06626223
H        0.60943232      -0.36699750       5.31371684       0.00000000       0.00000000      -0.02955584       0.01745635       0.05732251       0.02949420
H        1.42813304      -1.25056739       6.57048638       0.00000000       0.00000000       0.07628950      -0.08817436       0.00120659       0.06218803
H        3.07456998       0.50498002       6.88458796       0.00000000       0.00000000       0.03460900       0.02841108       0.06704600       0.05168425
H        2.46385854       1.41806051       5.52192078       0.00000000       0.00000000      -0.04671891      -0.01484233      -0.04106216       0.03251183
H        0.18167956       1.43721216       6.76506094       0.00000000       0.00000000      -0.03751257       0.02479215      -0.00731617       0.02066791
H        1.07712087       0.86809998       8.16571572       0.00000000       0.00000000      -0.02722107      -0.01542712       0.03223213       0.04491454
H        0.83621835       3.23436086       8.34296662       0.00000000       0.00000000      -0.01106875       0.00786071       0.01821227       0.05081984
H        2.53476560       2.91275751       8.02166434       0.00000000       0.00000000       0.05043401       0.00212484      -0.00462057       0.04389856
H        2.23902373       3.52348178       5.65818820       0.00000000       0.00000000       0.02532350      -0.00072593      -0.06244024       0.01829214
H        0.49791471       3.70499634       5.89743434       0.00000000       0.00000000      -0.06900052       0.01935656      -0.02324252       0.01784834
H        2.65632654       5.39990284       7.22197520       0.00000000       0.00000000       0.04750699      -0.01879828       0.02514390       0.04017327
H        1.74296081       5.85127440       5.78772639       0.00000000       0.00000000       0.00819500       0.02125545      -0.01210914       0.03138878
H        0.58511611       5.41901849       8.57983850       0.00000000       0.00000000       0.00418813      -0.01271910       0.01673668       0.04033941
H        0.77910105       6.94659454       7.74226988       0.00000000       0.00000000       0.00852548       0.00833025      -0.02077488       0.04519854
H       -0.37631693       5.76130118       7.14114735       0.00000000       0.00000000      -0.00789170      -0.01169559      -0.02386861       0.03147471
N        0.49407495       2.48023004      -0.73150838       0.00000000       0.00000000      -0.02139250      -0.09956816      -0.08471238       0.78726334
O        0.65007198       3.55547764      -1.21124410       0.00000000       0.00000000       0.05405565      -0.03426208       0.02244334      -0.39047580
O        1.44286487       1.73111312      -0.45467375       0.00000000       0.00000000      -0.06987777      -0.01556521       0.04926720      -0.45396394
O       -0.64643834       2.04227069      -0.48936312       0.00000000       0.00000000       0.13010403       0.01784076       0.01247010      -0.46441656
