253
Properties=species:S:1:pos:R:3:initial_charges:R:1:initial_magmoms:R:1:forces:R:3:charge:R:1 energy=-8500.551728571601 free_energy=-8500.551728571601 dipole="-1.4285097514801341 -1.1973291734166365 1.3232924047206251" pbc="F F F"
Tb      -0.31644242      -0.23173360       0.28675459       3.00000000       0.00000000       0.03059760       0.03670740       0.04146217       0.77625852
C        0.98034650      -3.28646763      -8.11055393       0.00000000       0.00000000      -0.04816998      -0.00653585      -0.01055872      -0.10287254
C        2.36718930      -3.50271350      -7.52064772       0.00000000       0.00000000      -0.00065318       0.00302182      -0.00609986      -0.05941402
C        2.49513415      -2.95603410      -6.09761573       0.00000000       0.00000000       0.02202815       0.07324277       0.01203694      -0.05770420
C        2.58987431      -1.42784150      -6.06411638       0.00000000       0.00000000       0.01289804       0.05592057       0.02394742      -0.06636030
C        2.28624128      -0.82569436      -4.68753194       0.00000000       0.00000000       0.00852375       0.03348580       0.01576418      -0.05444055
C        2.87935219       0.57791535      -4.55201856       0.00000000       0.00000000      -0.00104905       0.00061482       0.02133168      -0.06754320
C        2.56828159       1.24409909      -3.20698455       0.00000000       0.00000000      -0.06700870       0.01205331      -0.07096156      -0.06318515
C        3.56517340       1.00915463      -2.06357715       0.00000000       0.00000000      -0.01915753      -0.01266795      -0.08030962      -0.00624998
N        3.67805980      -0.35205624      -1.53091381       0.00000000       0.00000000      -0.08641454      -0.04783030       0.09841468      -0.04388617
C        4.98980977      -0.99041463      -1.60585817       0.00000000       0.00000000      -0.07456740      -0.01438812      -0.03223445      -0.02013478
C        5.08484314      -2.09672591      -2.66547388       0.00000000       0.00000000      -0.01236918      -0.03631306       0.02088748      -0.06688981
C        6.47102125      -2.75202809      -2.75047797       0.00000000       0.00000000      -0.00907462       0.06298922      -0.02234316      -0.07035808
C        6.85528468      -3.67153624      -1.58567079       0.00000000       0.00000000      -0.05073140      -0.00989965      -0.03530429      -0.06652218
C        7.56848988      -2.97983131      -0.42385291       0.00000000       0.00000000       0.00378056      -0.03142482      -0.00199539      -0.06354431
C        7.82797455      -3.95472635       0.72395137       0.00000000       0.00000000       0.02062024       0.01340393       0.07827753      -0.06079312
C        8.45259979      -3.29359582       1.95322334       0.00000000       0.00000000       0.02676843       0.03424282       0.06922424      -0.06017601
C        7.48526496      -2.39792094       2.72077306       0.00000000       0.00000000      -0.02192932       0.01919255      -0.00611045      -0.10084179
C        2.60151894      -0.74405422      -0.84120184       0.00000000       0.00000000      -0.02204180      -0.07345238       0.07850860       0.25705332
O        1.61885756       0.03285711      -0.78122462       0.00000000       0.00000000       0.01579748       0.01839590      -0.07504602      -0.39502006
C        2.44063363      -2.03046762      -0.05019660       0.00000000       0.00000000       0.05758284      -0.00292212      -0.04621411       0.08095139
C        3.38225314      -3.04933047       0.17091486       0.00000000       0.00000000       0.00304972      -0.07511562      -0.11889110      -0.03621257
C        3.05602574      -4.12309317       0.97243263       0.00000000       0.00000000       0.01194057       0.02750889      -0.08934058      -0.00333345
C        1.79725920      -4.18486194       1.58840062       0.00000000       0.00000000       0.08068701      -0.01494845       0.00013556       0.02475674
C        1.38477323      -5.26192222       2.42324474       0.00000000       0.00000000       0.01887604      -0.02107769       0.02518709      -0.02210076
C        0.16234675      -5.26392249       3.00663333       0.00000000       0.00000000       0.00495848       0.02637363       0.07343467      -0.02298795
C       -0.70204079      -4.13935490       2.88068341       0.00000000       0.00000000      -0.09305091      -0.03488115       0.03826645       0.02341211
C       -1.89966990      -4.01740291       3.60354886       0.00000000       0.00000000      -0.00371092      -0.01189795       0.00109343      -0.00402211
C       -2.63486836      -2.85281124       3.52291183       0.00000000       0.00000000      -0.04658009      -0.10747817       0.06519586      -0.03590414
C       -2.23150357      -1.84470881       2.63815189       0.00000000       0.00000000      -0.01987936      -0.03935392       0.02288134       0.07831299
C       -2.91196956      -0.51991838       2.38895244       0.00000000       0.00000000      -0.06584382       0.10486969       0.00461870       0.25787263
O       -2.17818650       0.35233530       1.85119422       0.00000000       0.00000000      -0.08177315      -0.03275734      -0.00159909      -0.42747228
N       -4.18694965      -0.24776213       2.67628393       0.00000000       0.00000000      -0.03489984       0.08624310      -0.00790102      -0.04546934
C       -4.64761245       1.13167446       2.46470579       0.00000000       0.00000000      -0.04202633       0.03204821      -0.09514323      -0.02228567
C       -4.78607631       1.57120978       1.00331085       0.00000000       0.00000000      -0.00524355       0.01916894       0.00837375      -0.06642915
C       -5.92427904       0.86817912       0.26179779       0.00000000       0.00000000       0.00110182       0.00232750       0.03015703      -0.06630658
C       -5.86381619       1.02021673      -1.25652542       0.00000000       0.00000000      -0.00524925       0.04992746       0.04975558      -0.06578241
C       -4.59713626       0.42370708      -1.87254378       0.00000000       0.00000000      -0.12953063      -0.05244170       0.00994351      -0.06167450
C       -4.35218427      -1.05343376      -1.53300875       0.00000000       0.00000000      -0.00305161       0.01458167       0.06510520      -0.08039227
C       -3.36764207      -1.29703128      -0.39323704       0.00000000       0.00000000       0.01966199       0.00387863       0.00110129      -0.06070900
C       -2.63511325      -2.63417014      -0.52597640       0.00000000       0.00000000      -0.10589498      -0.14971225      -0.01220984      -0.12587687
C       -5.25685382      -1.17058719       3.05681303       0.00000000       0.00000000       0.04577512       0.05886356      -0.04639634      -0.02020303
C       -5.82357701      -0.86531721       4.45202576       0.00000000       0.00000000       0.06510297      -0.01410755      -0.03068992      -0.06684128
C       -6.77295529      -1.94576027       4.98196056       0.00000000       0.00000000       0.03287185       0.06092592      -0.02941498      -0.06873078
C       -6.10292277      -3.26278586       5.38136511       0.00000000       0.00000000       0.00389723      -0.00283689      -0.02683738      -0.06546543
C       -4.96900489      -3.09626922       6.39113238       0.00000000       0.00000000      -0.00570392      -0.03168982       0.04025820      -0.06296776
C       -4.21860116      -4.40477594       6.65238343       0.00000000       0.00000000       0.05289746      -0.01084388       0.01718390      -0.06332375
C       -2.78326649      -4.15941445       7.13034210       0.00000000       0.00000000      -0.00321026      -0.03649392      -0.01295753      -0.05212305
C       -2.71209807      -3.26381343       8.36005555       0.00000000       0.00000000      -0.01394014      -0.01705177      -0.00918305      -0.10955803
N       -1.09834348      -1.95353007       1.93799071       0.00000000       0.00000000      -0.09358350      -0.01778077       0.01316901      -0.16484876
C       -0.33142763      -3.04888920       2.06196453       0.00000000       0.00000000      -0.11209329      -0.04079835      -0.00264068       0.08801733
C        0.92155072      -3.10421562       1.34276135       0.00000000       0.00000000       0.03782087       0.06090044       0.03514717       0.08702788
N        1.23575670      -2.09123870       0.52417820       0.00000000       0.00000000       0.09917670       0.00996834       0.00262712      -0.15082556
H        0.91875649      -3.74191103      -9.09350959       0.00000000       0.00000000      -0.00398032      -0.00703393      -0.03236118       0.05045481
H        0.75147282      -2.22871971      -8.21826051       0.00000000       0.00000000       0.00666788       0.00358448      -0.00101989       0.03024117
H        0.21992395      -3.74209006      -7.47875890       0.00000000       0.00000000      -0.02921993      -0.03090544       0.00848868       0.02257549
H        3.10647684      -3.02859135      -8.16656790       0.00000000       0.00000000       0.04460444       0.01745570       0.03670675       0.04460364
H        2.58139468      -4.57193428      -7.50948368       0.00000000       0.00000000      -0.01523034      -0.03085917       0.02218540       0.04236414
H        3.39611434      -3.36867016      -5.63791141       0.00000000       0.00000000      -0.02992979      -0.02666206       0.03670767       0.02825386
H        1.63726512      -3.29390427      -5.50902269       0.00000000       0.00000000       0.01956772       0.03363879      -0.00739331       0.02334808
H        1.90511582      -0.99391891      -6.79395819       0.00000000       0.00000000       0.00413743      -0.01910527       0.01643515       0.04051482
H        3.59776948      -1.13430419      -6.36453022       0.00000000       0.00000000      -0.00689300      -0.04222121      -0.01697589       0.04128242
H        2.67786634      -1.47084292      -3.89871640       0.00000000       0.00000000       0.00250906      -0.01313260      -0.03548660       0.02371004
H        1.20238469      -0.76254450      -4.54445709       0.00000000       0.00000000       0.01809756      -0.03879195       0.01914628       0.00953837
H        2.46033463       1.20235613      -5.34490598       0.00000000       0.00000000      -0.00257824      -0.03137551       0.01701009       0.04804254
H        3.95607530       0.54309622      -4.72287204       0.00000000       0.00000000       0.02402417      -0.00979933       0.07852033       0.04979178
H        1.56380823       0.94993451      -2.89515498       0.00000000       0.00000000       0.00547912      -0.00885931       0.06578963       0.04695245
H        2.56117236       2.32763785      -3.34431932       0.00000000       0.00000000       0.00283088       0.00573921      -0.03259968       0.05143048
H        3.23986691       1.63942486      -1.22780662       0.00000000       0.00000000       0.03976249       0.08155412       0.00280257       0.06326922
H        4.54939967       1.33579834      -2.38654190       0.00000000       0.00000000       0.08333047      -0.02824678      -0.05224132       0.07768889
H        5.26525071      -1.35813388      -0.61603475       0.00000000       0.00000000      -0.06532087      -0.00847771      -0.03246020       0.06688316
H        5.71553655      -0.21682150      -1.86294233       0.00000000       0.00000000      -0.01104475      -0.00572272      -0.00160803       0.08092123
H        4.86007664      -1.66462294      -3.64335882       0.00000000       0.00000000       0.04079222       0.02508086       0.09369764       0.06187960
H        4.33448175      -2.86497703      -2.46813374       0.00000000       0.00000000      -0.03122037      -0.03687942      -0.03796722       0.03612616
H        7.23116003      -1.98096315      -2.86108499       0.00000000       0.00000000       0.04961670       0.07778521      -0.01044134       0.05237883
H        6.48117649      -3.34149904      -3.66858287       0.00000000       0.00000000      -0.02077322      -0.00248933       0.01168646       0.05802740
H        7.52928358      -4.43925048      -1.96712960       0.00000000       0.00000000       0.00896917      -0.00519011      -0.00714754       0.05467685
H        5.96519719      -4.19496535      -1.22834386       0.00000000       0.00000000      -0.03582286      -0.02952795       0.04159673       0.02227870
H        6.98952287      -2.13324291      -0.05148937       0.00000000       0.00000000       0.01036152      -0.02093932      -0.00109842       0.01866311
H        8.52148448      -2.59111114      -0.78391719       0.00000000       0.00000000       0.00829693       0.03300166       0.02730857       0.04606721
H        8.49715272      -4.74274072       0.37574388       0.00000000       0.00000000      -0.02951066       0.00602196      -0.03020314       0.04504722
H        6.88750475      -4.42683004       1.02391488       0.00000000       0.00000000      -0.01121802      -0.02675322      -0.02869988       0.02012950
H        9.32260612      -2.70818177       1.65558555       0.00000000       0.00000000       0.01478679       0.00193905      -0.04414547       0.04466984
H        8.80363834      -4.07393425       2.62892697       0.00000000       0.00000000      -0.00174518      -0.04238354      -0.00752815       0.04523626
H        7.19489714      -1.53155190       2.13052078       0.00000000       0.00000000      -0.00857132       0.03190632      -0.01170110       0.02035480
H        7.95291104      -2.03792605       3.63403530       0.00000000       0.00000000       0.00057147      -0.01330141      -0.03345637       0.04361036
H        6.58515489      -2.94760969       2.99353095       0.00000000       0.00000000      -0.00489326      -0.01937690       0.00907577       0.02044209
H        4.34500586      -3.03835585      -0.30707731       0.00000000       0.00000000      -0.00076195      -0.01320741       0.08882181       0.10381872
H        3.76475620      -4.92319921       1.13221059       0.00000000       0.00000000      -0.00296074       0.03608308      -0.02005826       0.09353089
H        2.07659589      -6.06932998       2.59064838       0.00000000       0.00000000       0.02985197      -0.11349850      -0.04484376       0.09188401
H       -0.16243414      -6.08747969       3.62259621       0.00000000       0.00000000       0.02922738      -0.01826477       0.01637601       0.09187838
H       -2.21706998      -4.83466446       4.23927917       0.00000000       0.00000000       0.02054098       0.13161223      -0.02284526       0.09753098
H       -3.48613312      -2.72469636       4.17031208       0.00000000       0.00000000       0.05478351      -0.04894416      -0.02533509       0.10526717
H       -3.93629271       1.80428150       2.93863789       0.00000000       0.00000000      -0.05977633      -0.06899589      -0.06717614       0.08754288
H       -5.60633017       1.24013176       2.96798633       0.00000000       0.00000000       0.01463096      -0.02130323      -0.06453717       0.08100683
H       -3.82301628       1.43868480       0.50739198       0.00000000       0.00000000      -0.05713520      -0.10554356      -0.02359049       0.04550907
H       -4.98139620       2.64523958       1.01750312       0.00000000       0.00000000      -0.03987023       0.00173942      -0.01070610       0.05366034
H       -6.87380852       1.27031910       0.61845595       0.00000000       0.00000000      -0.00360610       0.01270684      -0.01472568       0.05374458
H       -5.92419981      -0.19598059       0.48888461       0.00000000       0.00000000       0.04354423      -0.05038002      -0.00787698       0.03787584
H       -5.90955558       2.07469065      -1.52902473       0.00000000       0.00000000      -0.01775378       0.06414425       0.04146505       0.04310643
H       -6.74935552       0.54234103      -1.68163673       0.00000000       0.00000000       0.08891480      -0.03804120      -0.00999317       0.05484519
H       -3.73919135       1.02623810      -1.56239352       0.00000000       0.00000000      -0.12040980      -0.05448383      -0.05063242       0.01571317
H       -4.68150428       0.51461714      -2.95737732       0.00000000       0.00000000      -0.05168198       0.09152225       0.00392680       0.03272333
H       -3.92141199      -1.53524253      -2.40182617       0.00000000       0.00000000      -0.06832070       0.02016356       0.11146417       0.06143193
H       -5.30097993      -1.54383379      -1.30365251       0.00000000       0.00000000       0.03678958       0.02364338      -0.12663892       0.06076265
H       -3.89940679      -1.27690261       0.55517240       0.00000000       0.00000000      -0.01443420      -0.04186502      -0.07894500       0.04539028
H       -2.63308812      -0.47636114      -0.38855421       0.00000000       0.00000000       0.05750916       0.04965350       0.03330043       0.07437954
H       -2.52697522      -2.92596716      -1.56280112       0.00000000       0.00000000      -0.06029875       0.00452319      -0.13707680       0.06896735
H       -3.20296437      -3.40669132      -0.02563526       0.00000000       0.00000000       0.01393793      -0.17606027       0.08472941       0.06241603
H       -1.62425442      -2.61010308      -0.11907047       0.00000000       0.00000000       0.04127727      -0.00238370       0.03356654       0.07146681
H       -4.92001396      -2.20255173       2.97957705       0.00000000       0.00000000       0.02347342       0.06607699       0.02748872       0.06583110
H       -6.06010490      -1.04750355       2.32503609       0.00000000       0.00000000      -0.05001203       0.01969337       0.03473497       0.07701522
H       -6.37535574       0.07869306       4.43034650       0.00000000       0.00000000       0.04024871      -0.12473960      -0.02294372       0.05080004
H       -4.99815598      -0.73727967       5.15135392       0.00000000       0.00000000       0.01198021       0.05835744       0.02521580       0.04920547
H       -7.54743714      -2.15224188       4.23924918       0.00000000       0.00000000       0.04928640       0.03022936       0.02478710       0.04742587
H       -7.26513579      -1.52244215       5.85748949       0.00000000       0.00000000      -0.02733971      -0.06033466       0.04507690       0.06187241
H       -5.74153175      -3.78835378       4.49378034       0.00000000       0.00000000       0.05026494       0.03026688      -0.06871921       0.02042710
H       -6.86642751      -3.90024525       5.82580494       0.00000000       0.00000000      -0.01923067      -0.03702053      -0.00472383       0.05679301
H       -5.38665881      -2.72169186       7.32389246       0.00000000       0.00000000      -0.00210217       0.02343962       0.03997493       0.05098635
H       -4.24415006      -2.35262364       6.04888124       0.00000000       0.00000000      -0.02086842      -0.02967442      -0.03786225       0.01929639
H       -4.18884718      -5.00279712       5.73512154       0.00000000       0.00000000      -0.00916036       0.02477170       0.01540487       0.01917928
H       -4.75450699      -4.99564093       7.39590101       0.00000000       0.00000000       0.02658952       0.03934356      -0.00295060       0.05141873
H       -2.19814413      -3.70019117       6.32281924       0.00000000       0.00000000      -0.02402322      -0.01163363       0.05988557       0.00530461
H       -2.32313469      -5.12158835       7.36393646       0.00000000       0.00000000      -0.00498097       0.00487899      -0.00516155       0.03752583
H       -3.03739033      -2.25409793       8.12827553       0.00000000       0.00000000      -0.02697520       0.04512056       0.01198335       0.03269945
H       -1.69405345      -3.20936015       8.73330641       0.00000000       0.00000000       0.04216359      -0.03588040       0.02363639       0.03915191
H       -3.34702482      -3.65792379       9.14587195       0.00000000       0.00000000      -0.00581008      -0.01824732       0.06492495       0.05379830
C       -3.58807681       2.60653365       5.33726822       0.00000000       0.00000000      -0.03078837       0.00872824       0.04424906      -0.11379050
C       -2.28813453       1.99765405       4.82437936       0.00000000       0.00000000      -0.02671420       0.06421335       0.06596349      -0.05211435
C       -1.90789170       0.67374189       5.48715460       0.00000000       0.00000000      -0.01184411      -0.00539802      -0.04343457      -0.05909847
C       -0.64359711       0.16916601       4.80336931       0.00000000       0.00000000       0.07415005      -0.00351015       0.02795291      -0.06771029
C       -0.05465423      -1.14801035       5.28637928       0.00000000       0.00000000       0.03163843      -0.00418779      -0.00322282      -0.05980684
C        1.23908412      -1.48220532       4.52579322       0.00000000       0.00000000      -0.07265383      -0.02680943       0.01422805      -0.06325314
C        2.46325142      -0.62982343       4.90180540       0.00000000       0.00000000      -0.10021934      -0.06214851       0.04633232      -0.07412818
C        2.85794790       0.50306780       3.94195360       0.00000000       0.00000000      -0.01944456      -0.01810813       0.01992711      -0.00962035
N        1.90474943       1.59269511       3.71008773       0.00000000       0.00000000      -0.00775762       0.03374413       0.04207965      -0.04545196
C        1.91028083       2.70827115       4.66262168       0.00000000       0.00000000      -0.00863746       0.01544509       0.04766129      -0.01472619
C        2.09481672       2.31632777       6.14109165       0.00000000       0.00000000       0.00666807      -0.00189266      -0.00503981      -0.07128820
C        2.04474576       3.52519966       7.10702693       0.00000000       0.00000000       0.01293996      -0.02402741      -0.06154479      -0.06712689
C        0.96231293       3.38190360       8.18854987       0.00000000       0.00000000       0.01281623       0.00404583      -0.04761265      -0.06678320
C       -0.44466202       3.77002326       7.71980439       0.00000000       0.00000000       0.00460649      -0.03465510       0.00001231      -0.05961885
C       -0.66214760       5.28490610       7.67896731       0.00000000       0.00000000       0.02347608      -0.03362615      -0.00290204      -0.06593676
C       -1.88444141       5.71893451       6.86086426       0.00000000       0.00000000       0.02443401       0.00971355       0.00583665      -0.05259025
C       -3.20494939       5.60111559       7.61564912       0.00000000       0.00000000       0.02429457      -0.00752881       0.00444215      -0.10650214
C        1.19420249       1.50172583       2.58176862       0.00000000       0.00000000      -0.06387546      -0.05887432      -0.11289413       0.25669593
O        1.19799168       0.42087993       1.94203694       0.00000000       0.00000000       0.02092953       0.04287884       0.10796458      -0.40089445
C        0.42247882       2.61446460       1.89682781       0.00000000       0.00000000       0.00131290       0.04199127      -0.06043884       0.07888987
C        0.37235815       3.98190513       2.20952966       0.00000000       0.00000000      -0.00465267       0.07961748      -0.01773336      -0.03212459
C       -0.31760848       4.84666429       1.38465595       0.00000000       0.00000000      -0.00517216      -0.07090556      -0.04286017      -0.00345736
C       -0.89127389       4.37392295       0.19242532       0.00000000       0.00000000      -0.00879132       0.01975685      -0.02562431       0.02527658
C       -1.53256665       5.22976661      -0.75128167       0.00000000       0.00000000      -0.00679314      -0.00116186      -0.04853710      -0.02164336
C       -1.89151340       4.76148151      -1.97186939       0.00000000       0.00000000      -0.00694864      -0.01188032      -0.01982766      -0.02265475
C       -1.70715131       3.38956834      -2.31854452       0.00000000       0.00000000      -0.02649602       0.02962592      -0.00552509       0.02430877
C       -1.95877008       2.88642415      -3.60514863       0.00000000       0.00000000      -0.03096551      -0.06474055       0.01962223      -0.00344987
C       -1.87317971       1.53199363      -3.84535325       0.00000000       0.00000000      -0.01602246       0.03318123      -0.05354419      -0.03017731
C       -1.59835461       0.65488477      -2.78582436       0.00000000       0.00000000      -0.00497536       0.06470376       0.00255806       0.08114468
C       -1.41839658      -0.85395824      -2.87904711       0.00000000       0.00000000      -0.05848218       0.06607652      -0.11564545       0.25636165
O       -0.64029608      -1.29683169      -2.00484982       0.00000000       0.00000000       0.10014423      -0.05901221       0.07913575      -0.39415378
N       -1.92229875      -1.68227125      -3.82217200       0.00000000       0.00000000       0.09651040       0.06017215       0.01442695      -0.06636503
C       -1.04303011      -2.81335935      -4.17447524       0.00000000       0.00000000       0.04553457      -0.01085937       0.01352821      -0.00648028
C       -1.63490664      -4.21043160      -4.06455216       0.00000000       0.00000000       0.01036001      -0.00509981       0.01389279      -0.07635695
C       -0.62923436      -5.33009618      -4.34528710       0.00000000       0.00000000      -0.02006406       0.02497752      -0.02849001      -0.06590927
C        0.37769970      -5.56660252      -3.22318408       0.00000000       0.00000000       0.01283993       0.01236602      -0.04212532      -0.05428622
C        1.07780763      -6.92650442      -3.30478567       0.00000000       0.00000000      -0.03047562      -0.03852006      -0.00367488      -0.06225930
C        1.99508600      -7.14246914      -4.51342458       0.00000000       0.00000000       0.01642661       0.02330956       0.01966495      -0.06195258
C        1.33150048      -7.61091991      -5.81131030       0.00000000       0.00000000      -0.00716007      -0.02964069       0.00943539      -0.05756147
C        0.75555274      -9.02085748      -5.73034812       0.00000000       0.00000000       0.00323799      -0.00015878      -0.00169237      -0.10663302
C       -3.02546691      -1.43817567      -4.76369321       0.00000000       0.00000000      -0.00953288      -0.06298105       0.02462695      -0.02048205
C       -4.45088904      -2.10136650      -4.65374378       0.00000000       0.00000000      -0.02805436      -0.00168473       0.01931219      -0.07840690
C       -4.77514780      -3.61263444      -4.61796840       0.00000000       0.00000000       0.04034893       0.05231900      -0.00565285      -0.07058191
C       -4.71455133      -4.33152202      -3.24741007       0.00000000       0.00000000      -0.04453933       0.11337602      -0.06933959      -0.06828304
C       -6.09482659      -4.43648789      -2.58285429       0.00000000       0.00000000       0.08358900      -0.02600673      -0.02752063      -0.06460699
C       -6.14852455      -5.32422093      -1.33057485       0.00000000       0.00000000      -0.03036339       0.08584922      -0.00790782      -0.06779925
C       -5.29387692      -4.86338429      -0.14558245       0.00000000       0.00000000      -0.06897717      -0.04664481       0.01645238      -0.05077597
C       -5.76465548      -5.53453188       1.14590534       0.00000000       0.00000000      -0.00509044       0.03948597      -0.07050492      -0.10795316
N       -1.24020427       1.13852796      -1.58657905       0.00000000       0.00000000       0.00614297       0.06102167       0.02597703      -0.16004713
C       -1.24478149       2.46366335      -1.35073314       0.00000000       0.00000000      -0.05124841       0.04077147       0.04317881       0.08806833
C       -0.75988827       2.98768931      -0.08038712       0.00000000       0.00000000      -0.07379697       0.00782441       0.01167969       0.08817303
N       -0.15876112       2.15830324       0.78119861       0.00000000       0.00000000       0.01653689      -0.02430625      -0.02599094      -0.14730546
H       -3.85499652       3.48139355       4.74702936       0.00000000       0.00000000      -0.00641127      -0.00484801       0.03317474       0.03725315
H       -3.48136341       2.92548827       6.36934904       0.00000000       0.00000000       0.07261098      -0.02637260       0.01039735       0.06334377
H       -4.41485088       1.90198142       5.30093687       0.00000000       0.00000000       0.04328461      -0.05756889      -0.04191779       0.03536685
H       -1.48343591       2.71708937       4.98527636       0.00000000       0.00000000       0.03142628       0.04526156       0.06458581       0.02318400
H       -2.32205733       1.83406239       3.74240236       0.00000000       0.00000000       0.02917669       0.05457333       0.10188356       0.01581561
H       -2.72149391      -0.04558167       5.37820724       0.00000000       0.00000000      -0.01628315      -0.01982729       0.00162022       0.01709522
H       -1.73120950       0.82289786       6.55225482       0.00000000       0.00000000      -0.01639406      -0.00830456       0.01874347       0.05083443
H        0.10689607       0.93722699       4.94177189       0.00000000       0.00000000       0.03186851       0.02763238       0.02151343       0.04087309
H       -0.83387400       0.09278544       3.72806357       0.00000000       0.00000000       0.08386062       0.00951524       0.05667869       0.02445419
H       -0.77527782      -1.95288906       5.12151710       0.00000000       0.00000000       0.03816755       0.00187004       0.04801808       0.01663839
H        0.13871571      -1.10788409       6.36007847       0.00000000       0.00000000       0.04559579       0.02027595      -0.02862896       0.05108466
H        1.05347491      -1.38694131       3.45285299       0.00000000       0.00000000       0.03261975      -0.00713287       0.04672169       0.04139922
H        1.48079538      -2.52783899       4.73528682       0.00000000       0.00000000      -0.01111487       0.02964015      -0.02905036       0.03277742
H        3.33036961      -1.29313961       4.92538952       0.00000000       0.00000000       0.04680122       0.08747831       0.02530243       0.05989276
H        2.32688891      -0.24548526       5.90804601       0.00000000       0.00000000       0.02341708      -0.01842966       0.05732872       0.07136920
H        3.06604695       0.06663775       2.96128655       0.00000000       0.00000000       0.03755998      -0.03025174       0.01807899       0.06858652
H        3.77460212       0.96041249       4.31812707       0.00000000       0.00000000       0.00918771       0.03895748       0.02850283       0.07623970
H        0.95015428       3.21464111       4.58397082       0.00000000       0.00000000      -0.02979233       0.03555547       0.03917592       0.06562841
H        2.71378466       3.39931445       4.38333994       0.00000000       0.00000000       0.00257594       0.01718462       0.01308285       0.06631014
H        3.05233115       1.81548877       6.27625318       0.00000000       0.00000000      -0.03100483       0.00969760      -0.02913197       0.05320558
H        1.30238165       1.62760735       6.43480684       0.00000000       0.00000000       0.02707906       0.00623197      -0.04812002       0.06103290
H        1.89397823       4.45185435       6.55110278       0.00000000       0.00000000      -0.02940425      -0.02365634       0.02733132       0.04281260
H        3.00853597       3.60531952       7.61033275       0.00000000       0.00000000      -0.01255417       0.04517169      -0.05637677       0.05338437
H        1.23128111       4.00098084       9.04490025       0.00000000       0.00000000      -0.01585751       0.04097812      -0.04374775       0.05526676
H        0.95733396       2.34632065       8.53809874       0.00000000       0.00000000       0.00233642       0.03159948       0.00936915       0.03649655
H       -1.17301330       3.32118855       8.39579295       0.00000000       0.00000000      -0.02388575       0.00917865       0.00908066       0.03738514
H       -0.61903935       3.34629622       6.72836232       0.00000000       0.00000000       0.02354664       0.02068435      -0.00575477       0.02032582
H        0.22803795       5.75599679       7.25710895       0.00000000       0.00000000      -0.00324407       0.01305815      -0.03930105       0.02888316
H       -0.76753294       5.65356587       8.69950059       0.00000000       0.00000000       0.01696644       0.02914064      -0.01341529       0.04951305
H       -1.93532455       5.13275138       5.93710478       0.00000000       0.00000000       0.01250425      -0.01385510       0.02776308       0.01251490
H       -1.75183075       6.76250295       6.57069345       0.00000000       0.00000000      -0.01054506       0.03170392       0.00908069       0.03507508
H       -3.36582781       4.59298566       7.98876588       0.00000000       0.00000000       0.03160865      -0.02112491       0.00334673       0.03217828
H       -4.03692766       5.86276053       6.96507015       0.00000000       0.00000000       0.01396060      -0.01341917       0.00003021       0.03496815
H       -3.22026459       6.28043830       8.46320518       0.00000000       0.00000000       0.04312601      -0.01008286       0.01381825       0.04894545
H        0.87910192       4.39455278       3.06179849       0.00000000       0.00000000       0.01520057       0.00381288       0.03337639       0.08848506
H       -0.38613353       5.89922399       1.63171542       0.00000000       0.00000000       0.01922339      -0.12509286      -0.04289859       0.09698724
H       -1.69577316       6.26362853      -0.48611778       0.00000000       0.00000000       0.04909539      -0.02106942      -0.00942090       0.09342922
H       -2.33978422       5.41235007      -2.70757175       0.00000000       0.00000000       0.04767189       0.00903090       0.01154887       0.09312555
H       -2.20994844       3.56890452      -4.40460499       0.00000000       0.00000000      -0.01445215      -0.03725416       0.03693702       0.09664223
H       -2.01113536       1.17477703      -4.84974053       0.00000000       0.00000000       0.01230015      -0.06027644      -0.07794745       0.08467619
H       -0.16621058      -2.74170492      -3.53349315       0.00000000       0.00000000       0.07424191      -0.01535255       0.02721126       0.07283318
H       -0.73967757      -2.64206768      -5.21345214       0.00000000       0.00000000       0.05135038      -0.03295133      -0.00243918       0.06607142
H       -2.43437087      -4.30379921      -4.79024603       0.00000000       0.00000000       0.01269014      -0.01936867       0.00326618       0.06538804
H       -2.04843757      -4.35929056      -3.06982584       0.00000000       0.00000000       0.03387403      -0.03138150       0.03960544       0.04436456
H       -0.10898884      -5.12368305      -5.27930797       0.00000000       0.00000000       0.02303075       0.03250979      -0.00171577       0.04751193
H       -1.20403853      -6.24819301      -4.48060157       0.00000000       0.00000000       0.01599929       0.01129451      -0.01571518       0.05730924
H       -0.15725306      -5.51954234      -2.26849680       0.00000000       0.00000000       0.04586114       0.01031335       0.02453748       0.01556233
H        1.13500670      -4.78075685      -3.22082370       0.00000000       0.00000000       0.03491239       0.09278904      -0.00210309       0.01521284
H        0.32465552      -7.71156143      -3.28024718       0.00000000       0.00000000      -0.02989418      -0.06094357       0.02142027       0.04694558
H        1.68797449      -7.02808761      -2.40249953       0.00000000       0.00000000      -0.03608118      -0.02741698       0.00454193       0.02337986
H        2.72917578      -7.90261415      -4.23963630       0.00000000       0.00000000       0.02456207       0.00074044       0.00748549       0.04212233
H        2.54431901      -6.21869265      -4.70526896       0.00000000       0.00000000       0.01847885       0.06762793      -0.03436919       0.02478274
H        2.09885845      -7.59775133      -6.58836253       0.00000000       0.00000000      -0.00600002      -0.01214397      -0.00938450       0.03745329
H        0.54566905      -6.92387682      -6.12085529       0.00000000       0.00000000       0.01269107       0.00524991      -0.01317187       0.03078717
H        1.51763717      -9.72897863      -5.41010535       0.00000000       0.00000000      -0.03983496       0.03266623      -0.00733981       0.04245280
H        0.39788899      -9.32587071      -6.71163864       0.00000000       0.00000000       0.01037359      -0.01066689       0.04927090       0.04415497
H       -0.08253769      -9.07709132      -5.03699363       0.00000000       0.00000000       0.06015422       0.01554945      -0.01664561       0.03028876
H       -2.64133540      -1.67166106      -5.76029975       0.00000000       0.00000000       0.01524244      -0.11032637       0.02820515       0.07524006
H       -3.24072122      -0.37186087      -4.73861896       0.00000000       0.00000000      -0.09027546       0.01032956       0.02052166       0.05444044
H       -4.92042402      -1.70889605      -5.55927190       0.00000000       0.00000000       0.02625041      -0.08952853      -0.09747915       0.06380863
H       -5.01554150      -1.65914482      -3.84062631       0.00000000       0.00000000       0.00191435       0.09842233       0.02520868       0.06039313
H       -4.19225708      -4.15118439      -5.36242275       0.00000000       0.00000000       0.07790385       0.03602977      -0.02088931       0.04766853
H       -5.80821862      -3.69394527      -4.96897850       0.00000000       0.00000000       0.04630908       0.09167383       0.02987874       0.06303865
H       -4.04861209      -3.80612930      -2.56509596       0.00000000       0.00000000      -0.06471468      -0.00170371      -0.08090242       0.03005738
H       -4.30714130      -5.33648975      -3.38873322       0.00000000       0.00000000      -0.15523385       0.06043875      -0.00395178       0.04322790
H       -6.79842546      -4.86682025      -3.29980254       0.00000000       0.00000000       0.04025947       0.07286751       0.01396342       0.04857481
H       -6.44704465      -3.42821510      -2.33414938       0.00000000       0.00000000       0.00434325      -0.13159868      -0.01076514       0.02660712
H       -5.87212051      -6.35125608      -1.58695474       0.00000000       0.00000000      -0.02451871       0.13641877      -0.03230181       0.04432415
H       -7.18845119      -5.33757374      -0.99584579       0.00000000       0.00000000       0.00368311      -0.05650435      -0.05315217       0.04924852
H       -5.37847732      -3.77594701      -0.03399786       0.00000000       0.00000000      -0.00473881      -0.07858162      -0.03385121       0.01494343
H       -4.24436010      -5.12065528      -0.32350913       0.00000000       0.00000000      -0.11612398      -0.01574457      -0.01831429       0.01849634
H       -6.75554885      -5.17271690       1.41480986       0.00000000       0.00000000       0.04179063      -0.03656207       0.01239002       0.04385622
H       -5.08575666      -5.33709959       1.97743777       0.00000000       0.00000000      -0.01987035       0.01219061      -0.08566210       0.01621259
H       -5.82894172      -6.61005560       1.00162911       0.00000000       0.00000000       0.03920183       0.02187512       0.04586107       0.05247213
