197
Properties=species:S:1:pos:R:3:initial_charges:R:1:initial_magmoms:R:1:forces:R:3:charge:R:1 energy=-6425.08642692227 free_energy=-6425.08642692227 dipole="1.3670076122059036 -0.4509763891350353 -0.26198016502701726" pbc="F F F"
Tb       0.16848833       0.05315471      -0.11787353       3.00000000       0.00000000      -0.04211405       0.04537443       0.02767284       0.83036168
C       -2.75679634       2.20167461      -1.25422660       0.00000000       0.00000000       0.13259261       0.10850942      -0.00844264      -0.10702101
C       -3.47441017       2.17359828      -2.61078280       0.00000000       0.00000000       0.00573227       0.02886617      -0.01672474      -0.01767191
C       -2.48586448       2.36431532      -3.75731608       0.00000000       0.00000000      -0.12203065      -0.07690760      -0.01634603      -0.11806103
C       -4.34848529       0.92315851      -2.77692670       0.00000000       0.00000000      -0.03357550       0.06804910       0.04145094      -0.07632941
C       -3.71968309      -0.40110690      -2.34415566       0.00000000       0.00000000      -0.01824164      -0.07242952       0.04673587      -0.06661379
C       -4.78536861      -1.50205473      -2.43128361       0.00000000       0.00000000       0.01679606      -0.00081149       0.00240405      -0.08089659
C       -4.53460209      -2.81860844      -1.67263042       0.00000000       0.00000000      -0.02079972       0.00896733      -0.07038419      -0.03094752
C       -3.55558098      -3.72988344      -2.41883069       0.00000000       0.00000000       0.01591040      -0.00448017       0.00697829      -0.12071198
C       -4.15835503      -2.63387958      -0.19319077       0.00000000       0.00000000       0.04219642      -0.03905958      -0.04404218      -0.07378765
C       -5.30189561      -2.03345031       0.62352607       0.00000000       0.00000000      -0.01427141      -0.01945004      -0.02651221      -0.07069035
C       -5.02419330      -1.98970521       2.12735307       0.00000000       0.00000000      -0.01630435      -0.03004542      -0.05354261      -0.07653331
C       -3.98541711      -0.93751929       2.54984961       0.00000000       0.00000000       0.00233916      -0.04565828      -0.00803065      -0.02335218
N       -2.70312111      -1.49939222       2.96415255       0.00000000       0.00000000      -0.00070845       0.05022544       0.00468404      -0.02161265
C       -2.70363661      -2.17366081       4.24974633       0.00000000       0.00000000      -0.00875313       0.00151905       0.00618878      -0.09053019
C       -1.60817887      -1.30402396       2.25674345       0.00000000       0.00000000       0.01923816      -0.03406101       0.07079800       0.25385015
O       -1.60380924      -0.82536951       1.09465420       0.00000000       0.00000000      -0.01070137      -0.00966977      -0.06135252      -0.38650391
C       -0.27526785      -1.66692544       2.91015182       0.00000000       0.00000000       0.03194536       0.01727955      -0.02367895       0.03703537
O        0.74486506      -0.83201711       2.35093442       0.00000000       0.00000000       0.06153747       0.02029394      -0.06100061      -0.22553012
C        2.03253749      -1.44471534       2.35388745       0.00000000       0.00000000       0.03368474       0.00209838      -0.01817607       0.04397597
C        2.19063079      -2.22267936       1.04453527       0.00000000       0.00000000      -0.02477619      -0.01954248      -0.05482724       0.24546149
O        1.28007684      -2.04339832       0.19218557       0.00000000       0.00000000      -0.01323533      -0.00107016      -0.03486669      -0.41456538
N        3.21177237      -3.03171718       0.85380107       0.00000000       0.00000000       0.00608888      -0.00020544       0.03332686      -0.02740679
C        3.33406337      -3.76940079      -0.38869979       0.00000000       0.00000000      -0.03637160       0.02969712       0.02523584      -0.07424781
C        4.23334956      -3.31104557       1.85328163       0.00000000       0.00000000       0.03438610       0.03598629       0.01651426      -0.03383346
C        5.26939257      -2.19052178       2.02042453       0.00000000       0.00000000       0.01224510       0.02257908      -0.02006425      -0.06906429
C        6.16582726      -2.41351079       3.24815522       0.00000000       0.00000000      -0.02422640      -0.03554877       0.04271602      -0.06929349
C        5.33100340      -2.66415058       4.50220722       0.00000000       0.00000000      -0.02287322      -0.00165440       0.04677893      -0.06914971
C        6.06450220      -2.69356566       5.84690080       0.00000000       0.00000000       0.00991901      -0.03435617       0.00736874      -0.01592894
C        7.16391704      -3.75518464       5.86180716       0.00000000       0.00000000      -0.01661840       0.00169982      -0.00858304      -0.11553191
C        5.03061838      -2.91512803       6.97500194       0.00000000       0.00000000       0.04641621       0.04677349      -0.03791223      -0.06824356
C        4.12239085      -4.14869499       6.81556247       0.00000000       0.00000000       0.03551200       0.01949622       0.01588559      -0.06710800
C        2.74970232      -3.82814497       6.21702139       0.00000000       0.00000000      -0.01816486       0.01696259      -0.01756355      -0.06082661
C        1.87903060      -5.05683983       5.91582275       0.00000000       0.00000000      -0.01499414      -0.01409664      -0.01342112      -0.01637312
C        2.54498101      -6.04762420       4.96196951       0.00000000       0.00000000       0.00182778      -0.00743686      -0.01638142      -0.10753844
C        0.54708310      -4.60235075       5.31062664       0.00000000       0.00000000      -0.00907386       0.01419156      -0.00347289      -0.10452243
H       -2.36354198       3.20519989      -1.08512574       0.00000000       0.00000000       0.00297731      -0.07668080       0.05852436       0.04754017
H       -1.90679025       1.47988612      -1.22605575       0.00000000       0.00000000      -0.05942236      -0.02242028       0.06973096       0.06940236
H       -3.45873096       1.96215001      -0.45698818       0.00000000       0.00000000       0.01636202       0.04995104      -0.01643197       0.05471091
H       -4.15896357       3.02658581      -2.64108155       0.00000000       0.00000000       0.00373676       0.03145680       0.06747683       0.05901891
H       -1.74936565       1.57101230      -3.75700227       0.00000000       0.00000000       0.07178912      -0.06714665      -0.02649789       0.03302441
H       -1.98353349       3.32180256      -3.65932927       0.00000000       0.00000000       0.05486902       0.03451768      -0.02832162       0.03568689
H       -3.00288310       2.34930307      -4.71550634       0.00000000       0.00000000       0.00772677       0.03256112       0.10673086       0.06047547
H       -4.66989857       0.85467136      -3.81643230       0.00000000       0.00000000       0.03064603      -0.02909563      -0.00637149       0.05829800
H       -5.25025977       1.07305576      -2.18288312       0.00000000       0.00000000      -0.05287313       0.00289141       0.05264927       0.04671671
H       -3.37562516      -0.30401855      -1.30816874       0.00000000       0.00000000       0.00937862      -0.02190078      -0.05738136       0.03829893
H       -2.86219338      -0.61965522      -2.98605572       0.00000000       0.00000000      -0.03369861      -0.05797671      -0.02763049       0.02648365
H       -4.95600077      -1.74660086      -3.48193683       0.00000000       0.00000000      -0.01519263       0.02104397       0.05657397       0.05479638
H       -5.71431343      -1.07602762      -2.05147748       0.00000000       0.00000000      -0.03636335      -0.04425001      -0.01897757       0.05250349
H       -5.49527468      -3.34571561      -1.67759236       0.00000000       0.00000000       0.03765175      -0.00765615      -0.00233312       0.05941246
H       -2.59125815      -3.26134281      -2.62011477       0.00000000       0.00000000      -0.03344826       0.02209699       0.00763515       0.01381055
H       -3.98131729      -4.01620704      -3.37762190       0.00000000       0.00000000      -0.00129389       0.04538098       0.01013840       0.06311192
H       -3.38483322      -4.64591796      -1.85892215       0.00000000       0.00000000       0.03144371       0.00996340       0.02763522       0.04748320
H       -3.25996111      -2.01970715      -0.07966829       0.00000000       0.00000000       0.02309025      -0.00420970      -0.00865432       0.02595194
H       -3.93526526      -3.61939295       0.22006524       0.00000000       0.00000000       0.03147661      -0.04398873       0.00035317       0.03957818
H       -6.18769378      -2.65013760       0.47027110       0.00000000       0.00000000      -0.02089395      -0.01283069       0.00332605       0.06470672
H       -5.54352412      -1.03342565       0.26350394       0.00000000       0.00000000       0.04257186       0.03456149       0.04209074       0.04750242
H       -4.69866905      -2.97767591       2.45593172       0.00000000       0.00000000      -0.01708245      -0.00700512      -0.00598245       0.06093752
H       -5.96376170      -1.77266295       2.63392725       0.00000000       0.00000000      -0.00493472       0.00319234       0.00251309       0.07172249
H       -4.36232339      -0.38190861       3.41370481       0.00000000       0.00000000       0.02495236       0.03805046      -0.08208897       0.08167014
H       -3.79036975      -0.24235350       1.73172084       0.00000000       0.00000000      -0.02664716      -0.00802351      -0.00578640       0.08125111
H       -3.72866027      -2.42867051       4.50371903       0.00000000       0.00000000      -0.04108169       0.00795720       0.00928666       0.11618200
H       -2.31392604      -1.53273200       5.04439931       0.00000000       0.00000000      -0.00604445       0.01184928      -0.04568359       0.08710414
H       -2.12978954      -3.09784531       4.21979807       0.00000000       0.00000000       0.03542703       0.00871406      -0.01831827       0.08440472
H       -0.06016207      -2.72651113       2.71914306       0.00000000       0.00000000      -0.03607890       0.00268182      -0.02779069       0.08891890
H       -0.31492468      -1.49894278       3.99359207       0.00000000       0.00000000       0.04195305       0.00341021      -0.02018805       0.09760659
H        2.16712937      -2.08076589       3.23858974       0.00000000       0.00000000       0.00436994       0.04564928      -0.05429593       0.09435680
H        2.75824578      -0.62239731       2.39032751       0.00000000       0.00000000       0.00230122      -0.00723806       0.03088968       0.11147934
H        2.63295230      -3.36425338      -1.11418965       0.00000000       0.00000000       0.00320149      -0.02229430      -0.00818136       0.08860935
H        3.10617017      -4.81970726      -0.20861673       0.00000000       0.00000000      -0.00729798      -0.06001614      -0.03996803       0.09302635
H        4.35439112      -3.69235624      -0.76163854       0.00000000       0.00000000      -0.02574318       0.02922159       0.00113338       0.09333019
H        4.74820440      -4.22213515       1.54801399       0.00000000       0.00000000      -0.01961259      -0.02665758       0.03669141       0.09386564
H        3.74134772      -3.50670319       2.80707188       0.00000000       0.00000000       0.00290762       0.01748341      -0.03422565       0.07500737
H        4.75953353      -1.23203466       2.12048388       0.00000000       0.00000000       0.02192992       0.02605704       0.02161340       0.03079701
H        5.89441676      -2.13591246       1.12830708       0.00000000       0.00000000      -0.01269731       0.00111412      -0.01650640       0.05483206
H        6.79356937      -1.53170415       3.38474235       0.00000000       0.00000000      -0.01786354      -0.02237969      -0.01561619       0.05752618
H        6.82070606      -3.26352077       3.06636767       0.00000000       0.00000000       0.01636606      -0.01981873       0.00244774       0.05798953
H        4.86077030      -3.64096740       4.40529906       0.00000000       0.00000000      -0.02479737       0.01195030      -0.00815146       0.04460226
H        4.55657866      -1.89139202       4.56109366       0.00000000       0.00000000       0.00967235      -0.00853773      -0.01177479       0.01607083
H        6.53976597      -1.72174042       6.02260701       0.00000000       0.00000000      -0.04311071      -0.00922965      -0.00106991       0.03476823
H        6.77694990      -4.73207107       5.58124174       0.00000000       0.00000000      -0.00425531       0.00468903       0.01649120       0.03852949
H        7.60150482      -3.83692335       6.85354246       0.00000000       0.00000000      -0.03994896       0.02643555      -0.02558552       0.05398431
H        7.95971450      -3.49300416       5.16800772       0.00000000       0.00000000      -0.03132676       0.00210296       0.03166603       0.04130137
H        4.40225698      -2.02299403       7.05651411       0.00000000       0.00000000       0.02363149      -0.02087859       0.00608415       0.02636055
H        5.58458354      -2.99347743       7.91091278       0.00000000       0.00000000      -0.02022231      -0.04106414      -0.02631526       0.05248421
H        3.95648427      -4.59880796       7.79298923       0.00000000       0.00000000       0.00643867      -0.00640293       0.04674211       0.04682926
H        4.63010988      -4.89386812       6.20803671       0.00000000       0.00000000       0.03454212      -0.01944412      -0.00075093       0.04609207
H        2.86348031      -3.25241040       5.29374549       0.00000000       0.00000000       0.01022621      -0.00168247      -0.00514419       0.00528793
H        2.20870115      -3.19361440       6.92387778       0.00000000       0.00000000       0.01630821       0.00229446      -0.00782089       0.03210853
H        1.67122679      -5.57457013       6.85494190       0.00000000       0.00000000       0.00732047       0.01134489       0.01759008       0.04972469
H        2.87986947      -5.55092643       4.04962905       0.00000000       0.00000000      -0.00482025       0.00113705       0.01543744       0.01220449
H        1.83748361      -6.82578701       4.68369233       0.00000000       0.00000000       0.01401376       0.01004658       0.00974744       0.04410542
H        3.39750586      -6.53357269       5.42463210       0.00000000       0.00000000       0.00453580       0.01898740       0.01093145       0.05237065
H        0.71037899      -4.20475344       4.30524523       0.00000000       0.00000000      -0.00091667       0.00058393       0.03158099      -0.00208457
H        0.08563858      -3.83010523       5.92329643       0.00000000       0.00000000       0.00068504      -0.01225645       0.00918544       0.02794552
H       -0.14432448      -5.43810011       5.23323965       0.00000000       0.00000000       0.02745516       0.00658083       0.01988681       0.04464418
C        0.49675535       1.96563798       5.49400689       0.00000000       0.00000000      -0.01978605       0.00635809      -0.00902858      -0.10413751
C        1.81124932       1.42234265       6.05388355       0.00000000       0.00000000       0.00597061       0.00246239      -0.00368215      -0.01529571
C        1.92319500      -0.07334060       5.77033833       0.00000000       0.00000000       0.00139925      -0.02317922       0.00024282      -0.10828553
C        3.02702658       2.19891218       5.53195931       0.00000000       0.00000000       0.01693734       0.00783178      -0.02741888      -0.07180498
C        3.27234897       2.11608805       4.02372786       0.00000000       0.00000000       0.03047015       0.02176599      -0.01628586      -0.05112770
C        4.41970649       3.04880507       3.63243194       0.00000000       0.00000000       0.01292983       0.00266144      -0.02952166      -0.07324980
C        4.65997782       3.23278510       2.12619374       0.00000000       0.00000000       0.00909013      -0.05574365      -0.00615718      -0.02081809
C        5.11398752       1.93524182       1.45105543       0.00000000       0.00000000      -0.00529835      -0.00498272       0.00030626      -0.10332096
C        3.45299744       3.79136608       1.35542587       0.00000000       0.00000000       0.03370088      -0.03752288      -0.00502744      -0.06249581
C        2.80538626       5.00927375       2.00795657       0.00000000       0.00000000       0.02652409      -0.02444616      -0.00419285      -0.06929333
C        1.85892749       5.76345897       1.07407618       0.00000000       0.00000000       0.01957745      -0.02052329       0.02609586      -0.07557696
C        0.75112386       4.90307222       0.44862837       0.00000000       0.00000000      -0.00876020       0.06462097       0.00906802      -0.02110585
N        1.06040460       4.31361633      -0.85793867       0.00000000       0.00000000      -0.00112495       0.00702483       0.04888254      -0.01220928
C        1.29723793       5.27447613      -1.91412563       0.00000000       0.00000000       0.01416832       0.01796299      -0.00406983      -0.08917164
C        1.01008066       3.01305137      -1.04339233       0.00000000       0.00000000       0.02616137       0.01505458      -0.02556692       0.25685919
O        0.89374441       2.17986054      -0.10529833       0.00000000       0.00000000       0.00303401       0.05046255       0.05664601      -0.39346531
C        1.07944979       2.42688108      -2.45125063       0.00000000       0.00000000      -0.05337065      -0.05415506      -0.07817329       0.03832999
O        0.26649715       1.24503170      -2.42903003       0.00000000       0.00000000       0.00718159      -0.03324059      -0.03316323      -0.22025794
C        0.57938781       0.35859109      -3.49910173       0.00000000       0.00000000       0.08995765      -0.00407469      -0.03712692       0.03418445
C        1.76001827      -0.50648719      -3.04784504       0.00000000       0.00000000      -0.00098727       0.01457197       0.10903601       0.24374042
O        2.01426492      -0.47248903      -1.81783073       0.00000000       0.00000000      -0.04327408      -0.05543031       0.01637172      -0.40943047
N        2.43274128      -1.21592670      -3.93529777       0.00000000       0.00000000      -0.08165914       0.03357551      -0.00141218      -0.03198488
C        3.59279589      -1.98412807      -3.52754843       0.00000000       0.00000000      -0.02318083       0.05764806      -0.00639436      -0.07656343
C        2.05114315      -1.31077968      -5.34030939       0.00000000       0.00000000      -0.05901441       0.03328726      -0.03080205      -0.03568569
C        0.78982097      -2.15963481      -5.57676568       0.00000000       0.00000000       0.01537915      -0.00137508       0.01283255      -0.07206956
C        0.08617658      -1.81970060      -6.89616739       0.00000000       0.00000000      -0.00125143       0.02378253      -0.03329701      -0.07446867
C       -0.45020522      -0.38889909      -6.97905899       0.00000000       0.00000000      -0.04672951       0.04044657      -0.01952830      -0.06558822
C       -1.48396588      -0.19916595      -8.09969820       0.00000000       0.00000000      -0.01850132       0.03017327      -0.03975887      -0.01675116
C       -0.90248846      -0.54983144      -9.46961264       0.00000000       0.00000000      -0.00029093       0.00501748       0.00093862      -0.11636891
C       -2.09201222       1.21891384      -8.07654077       0.00000000       0.00000000      -0.00197443      -0.04663671       0.02440530      -0.06744627
C       -1.12043256       2.38122740      -8.34056774       0.00000000       0.00000000      -0.01714846      -0.04278511      -0.00197088      -0.06850845
C       -0.66688816       3.10119922      -7.07048939       0.00000000       0.00000000       0.01773576      -0.02091134       0.02597761      -0.05912551
C        0.33002530       4.23921496      -7.32887585       0.00000000       0.00000000       0.02770518      -0.00040364       0.00454654      -0.01555699
C        1.59431654       3.75449941      -8.03524745       0.00000000       0.00000000       0.03361480      -0.00968785       0.00118073      -0.10947473
C        0.71069599       4.90816435      -6.00620825       0.00000000       0.00000000       0.00141988      -0.00876002       0.02597455      -0.10460222
H       -0.34743607       1.54321863       6.03370878       0.00000000       0.00000000      -0.00914684      -0.01650835      -0.01161789       0.03874785
H        0.39476919       1.70452529       4.43635925       0.00000000       0.00000000       0.00150997       0.00399634      -0.00009151       0.00127733
H        0.45500503       3.04680303       5.59620340       0.00000000       0.00000000      -0.00132070      -0.00569815      -0.00542546       0.04753816
H        1.79444707       1.56227054       7.13767578       0.00000000       0.00000000       0.00224174       0.01075551       0.02056150       0.05181912
H        1.73958359      -0.26625555       4.71584251       0.00000000       0.00000000       0.01006572      -0.00395723       0.00301653       0.01302514
H        1.19889679      -0.63200142       6.35864758       0.00000000       0.00000000      -0.01789018       0.00968832       0.00301922       0.03415475
H        2.91485963      -0.43604236       6.02547126       0.00000000       0.00000000       0.00117954      -0.00178774       0.02585255       0.04801574
H        3.91879698       1.83650981       6.04724587       0.00000000       0.00000000      -0.02169514       0.00185920      -0.00343994       0.04706054
H        2.90435888       3.24804162       5.80923856       0.00000000       0.00000000      -0.01049508      -0.01055828      -0.01113603       0.04385171
H        2.36723285       2.39779044       3.48103359       0.00000000       0.00000000       0.00051631      -0.01313324       0.00198026       0.01747394
H        3.53103257       1.09090190       3.74946354       0.00000000       0.00000000      -0.01241135      -0.00100426       0.00102133       0.01631375
H        5.34262750       2.66968602       4.07714857       0.00000000       0.00000000      -0.02417853       0.00835174      -0.01538289       0.04749906
H        4.24155940       4.02973697       4.07543356       0.00000000       0.00000000      -0.01501554      -0.01661060      -0.01410500       0.04639680
H        5.47649122       3.95768291       2.03725644       0.00000000       0.00000000      -0.02362276      -0.02709380       0.00341778       0.04815300
H        4.27298074       1.24414824       1.33671941       0.00000000       0.00000000       0.04782933       0.01589075       0.00944618       0.00769987
H        5.89691460       1.44986180       2.03022316       0.00000000       0.00000000      -0.04765156       0.02979175      -0.02494694       0.04967994
H        5.51064450       2.14758586       0.45924235       0.00000000       0.00000000      -0.02635705      -0.03340656       0.04297785       0.03722270
H        2.71042788       2.99458762       1.23369257       0.00000000       0.00000000       0.00089456       0.00484773      -0.00307315       0.02388948
H        3.80443101       4.06897160       0.35758891       0.00000000       0.00000000      -0.01550083      -0.01432948      -0.00349973       0.02680222
H        3.58659922       5.70575134       2.31534396       0.00000000       0.00000000      -0.01112646      -0.01123198       0.01029136       0.06324224
H        2.26487963       4.70483554       2.90467762       0.00000000       0.00000000      -0.01816542       0.01292835      -0.00845882       0.04557707
H        2.44294799       6.25463516       0.29881939       0.00000000       0.00000000       0.02750535      -0.00496815      -0.02577159       0.06205827
H        1.38292224       6.55828538       1.64885299       0.00000000       0.00000000      -0.03934050      -0.01504278       0.00086659       0.07213450
H       -0.13090483       5.53312116       0.29145496       0.00000000       0.00000000       0.01802122      -0.02536460      -0.00844335       0.07749971
H        0.48799364       4.08885998       1.12640003       0.00000000       0.00000000       0.01674481       0.01359969      -0.04377649       0.08131089
H        2.07405708       5.96408699      -1.59234757       0.00000000       0.00000000       0.02214256       0.07250344      -0.01277599       0.11131892
H        0.39958176       5.85878558      -2.11767045       0.00000000       0.00000000      -0.06248009      -0.02186164       0.02972591       0.09898865
H        1.63721624       4.80853217      -2.82964112       0.00000000       0.00000000       0.03776401       0.00608301      -0.03145588       0.08125873
H        0.68201012       3.09324924      -3.22455942       0.00000000       0.00000000      -0.01569932       0.01640844       0.02179029       0.09576045
H        2.12987794       2.18043040      -2.66825285       0.00000000       0.00000000      -0.06209255      -0.01450341      -0.00714073       0.09263050
H        0.78275056       0.91566121      -4.41846040       0.00000000       0.00000000       0.02322671       0.00814780      -0.00260557       0.09406830
H       -0.29908875      -0.27714510      -3.65578842       0.00000000       0.00000000      -0.01797536       0.07435914       0.02123624       0.12074598
H        3.76180273      -1.81159535      -2.46858463       0.00000000       0.00000000       0.05107915      -0.01809673       0.01669255       0.09075879
H        4.46696725      -1.65395316      -4.08895490       0.00000000       0.00000000      -0.00427161       0.00481563      -0.01092853       0.09471187
H        3.43279108      -3.04349590      -3.72399980       0.00000000       0.00000000      -0.01331121      -0.01352929       0.01944570       0.08729067
H        2.88907629      -1.75396996      -5.87782813       0.00000000       0.00000000      -0.00307904       0.03432156      -0.00131536       0.09539617
H        1.89225723      -0.30926113      -5.74317633       0.00000000       0.00000000       0.02229183       0.00897920       0.00840188       0.07380621
H        0.09228417      -2.02330123      -4.74765205       0.00000000       0.00000000      -0.01838266      -0.00276195      -0.01869927       0.02716643
H        1.06219215      -3.21510928      -5.59774205       0.00000000       0.00000000       0.02763309      -0.01086301       0.02330808       0.06017930
H       -0.74877979      -2.51080336      -7.01834305       0.00000000       0.00000000       0.00778637      -0.02565824       0.03288673       0.05998115
H        0.77291992      -1.99248278      -7.72228726       0.00000000       0.00000000       0.04134099      -0.02038018      -0.00720090       0.06154431
H        0.37002068       0.30646640      -7.15804173       0.00000000       0.00000000       0.01836700       0.00569350       0.01196083       0.03504079
H       -0.93608308      -0.12455704      -6.03495780       0.00000000       0.00000000       0.01084202      -0.01019236       0.02687649       0.01254937
H       -2.31293434      -0.89113922      -7.90658899       0.00000000       0.00000000       0.00492164       0.01508764      -0.00022672       0.03264245
H        0.05751652      -0.06797254      -9.63607723       0.00000000       0.00000000      -0.00523461       0.02706308       0.01573155       0.03975419
H       -1.57958269      -0.23607351     -10.25926582       0.00000000       0.00000000      -0.00584855       0.00802761       0.03252609       0.05550395
H       -0.76125784      -1.62333789      -9.56390230       0.00000000       0.00000000       0.00309955       0.01371292       0.00721246       0.04183455
H       -2.58246679       1.37329709      -7.11010993       0.00000000       0.00000000       0.00875679      -0.00823714      -0.02093461       0.02214487
H       -2.87786202       1.23724079      -8.83340832       0.00000000       0.00000000       0.04335763      -0.00099651       0.01386948       0.04978405
H       -1.60660278       3.11500241      -8.98274306       0.00000000       0.00000000      -0.01654709       0.00869840      -0.00563214       0.04549875
H       -0.25468800       2.00984963      -8.88187118       0.00000000       0.00000000       0.01546721      -0.03289181      -0.01597142       0.05024943
H       -0.21205513       2.38323213      -6.37960280       0.00000000       0.00000000       0.01822670      -0.00703056       0.00421989       0.00373421
H       -1.54580225       3.51970779      -6.57197242       0.00000000       0.00000000       0.01552410      -0.01610893      -0.01394118       0.02761961
H       -0.15292468       4.98724705      -7.96267099       0.00000000       0.00000000      -0.01691390      -0.01358879      -0.00017028       0.04709161
H        2.04182557       2.91637900      -7.49974461       0.00000000       0.00000000       0.00047947       0.01426795      -0.00290043       0.01867984
H        2.32668914       4.55637172      -8.08477452       0.00000000       0.00000000      -0.00870043      -0.00132552       0.00785752       0.04655237
H        1.38412971       3.44251178      -9.05313924       0.00000000       0.00000000      -0.00858328       0.00145924       0.00751080       0.04979705
H        1.25106845       4.20214177      -5.37019954       0.00000000       0.00000000      -0.01383830       0.00961944      -0.00221138       0.00099270
H       -0.17411560       5.25673408      -5.47655399       0.00000000       0.00000000      -0.00134258      -0.01240338      -0.00365879       0.02742296
H        1.35894089       5.76218382      -6.18532854       0.00000000       0.00000000      -0.02481538      -0.01409973      -0.00250342       0.04864990
O       -0.85673876      -1.62168470      -1.58288870       0.00000000       0.00000000      -0.03541410       0.02664946      -0.00452193      -0.51101065
H       -1.78701461      -1.93549029      -1.65311575       0.00000000       0.00000000       0.11281549       0.00719925       0.04237002       0.37026357
H       -0.31888707      -2.40185731      -1.36475931       0.00000000       0.00000000      -0.08187615      -0.07593386      -0.02530737       0.36134532
O       -0.84372056       1.59495513       1.81805893       0.00000000       0.00000000       0.03941498      -0.01532495      -0.01201702      -0.50670441
H       -1.66448420       2.09998777       1.76613138       0.00000000       0.00000000      -0.02658059       0.06217322       0.01527831       0.33986213
H       -0.41569694       1.85793554       2.64818505       0.00000000       0.00000000       0.00043064       0.02169542       0.00165704       0.34206102
