243
Properties=species:S:1:pos:R:3:initial_charges:R:1:initial_magmoms:R:1:forces:R:3:charge:R:1 energy=-7950.689987512582 free_energy=-7950.689987512582 dipole="1.7264496072750668 0.9576908304005477 -0.7512707453621416" pbc="F F F"
Tb      -0.32116687      -0.20574213       0.12971744       2.00000000       0.00000000      -0.00629426      -0.03959024       0.10773838       0.85991790
C        5.34940116      -8.00622723       3.54017225       0.00000000       0.00000000      -0.05225234       0.05594288      -0.00942442      -0.10781076
C        4.46370966      -6.77532240       3.38641989       0.00000000       0.00000000      -0.08897826       0.00749829       0.00998548      -0.05132308
C        3.17939132      -6.81531830       4.21839467       0.00000000       0.00000000       0.02218639      -0.00401933       0.00566278      -0.06549237
C        2.34467316      -5.54154965       4.00836189       0.00000000       0.00000000      -0.03011317      -0.09222861       0.03788282      -0.05882921
C        1.56725617      -5.16892518       5.26852888       0.00000000       0.00000000      -0.01384130       0.13476882      -0.02694975      -0.06690029
C        0.79131975      -3.84715988       5.21394794       0.00000000       0.00000000      -0.09190568       0.05742019       0.03419160      -0.06960259
C        1.60056438      -2.64369191       4.69477203       0.00000000       0.00000000       0.08059710      -0.14566368      -0.02456652      -0.06807833
C        1.28815886      -2.40258200       3.22368685       0.00000000       0.00000000       0.01480590      -0.04620770       0.11534747      -0.00887958
N        2.24900144      -1.58088593       2.46073780       0.00000000       0.00000000      -0.08275044       0.05590326      -0.08521102      -0.04227223
C        3.35233184      -0.87691537       3.10301401       0.00000000       0.00000000       0.00582052      -0.03327751       0.00574346      -0.02632369
C        4.72329088      -1.48989951       2.78309922       0.00000000       0.00000000      -0.01226442       0.02355368       0.01005717      -0.07011815
C        5.90870408      -0.64244093       3.26676664       0.00000000       0.00000000       0.06486410       0.04835225       0.03322228      -0.06925777
C        6.45220996       0.38271191       2.26364827       0.00000000       0.00000000       0.03358513       0.07791939       0.00028295      -0.06589789
C        6.97386917      -0.22308127       0.95925777       0.00000000       0.00000000       0.02299835      -0.00632747      -0.06362549      -0.06315875
C        7.41479362       0.84026087      -0.05066479       0.00000000       0.00000000      -0.00411147       0.02281032       0.00213620      -0.06354230
C        7.84600950       0.21905700      -1.38281006       0.00000000       0.00000000       0.00073233      -0.01043201       0.06171287      -0.05400285
C        8.35817766       1.24435029      -2.39091797       0.00000000       0.00000000      -0.01721151      -0.08132228       0.05330426      -0.10814514
C        1.93441360      -1.45727026       1.18385792       0.00000000       0.00000000       0.00446088      -0.04726334      -0.12231060       0.25259048
O        0.86163938      -1.94240752       0.73334896       0.00000000       0.00000000       0.06528711       0.06225819       0.09853394      -0.42598897
C        2.82883090      -0.80969894       0.09710062       0.00000000       0.00000000      -0.01916128       0.02576713      -0.02139423       0.09670213
C        3.35477979       0.59382920       0.38064537       0.00000000       0.00000000      -0.03045115       0.00064109      -0.02998417      -0.14382504
O        1.98576098      -0.66127602      -1.05046363       0.00000000       0.00000000       0.00720354      -0.05294545       0.04031869      -0.25887285
C        1.92136080      -1.75569739      -1.98777197       0.00000000       0.00000000       0.03828547       0.08303590       0.13383726       0.09331159
C        2.91556769      -1.47314404      -3.12312226       0.00000000       0.00000000      -0.05137663      -0.00699330       0.07498489      -0.12969590
C        0.45734658      -1.73660834      -2.47270364       0.00000000       0.00000000      -0.04900622       0.09180118       0.01777466       0.25853155
O       -0.22427401      -0.73727504      -2.13098713       0.00000000       0.00000000       0.03850753      -0.05431627      -0.00307798      -0.41470276
N       -0.02888988      -2.67982837      -3.25413749       0.00000000       0.00000000      -0.04497265       0.03399424       0.00122381      -0.03159361
C       -1.36526844      -2.50315509      -3.82045429       0.00000000       0.00000000      -0.04352249      -0.01853415      -0.03823079      -0.01740955
C       -1.25403877      -1.84106535      -5.20098482       0.00000000       0.00000000      -0.01932945       0.04752222      -0.02156224      -0.06556617
C       -2.56452607      -1.83392743      -5.99109816       0.00000000       0.00000000      -0.01879852       0.03028434       0.00559525      -0.06351923
C       -2.39076725      -1.23042321      -7.39307106       0.00000000       0.00000000      -0.03634653      -0.04288586       0.07517889      -0.06713546
C       -2.38173821       0.29945868      -7.44828018       0.00000000       0.00000000      -0.03719814      -0.03022061       0.02370689      -0.06226246
C       -3.76887778       0.93544168      -7.32465700       0.00000000       0.00000000      -0.06003076       0.04564512      -0.02310776      -0.06742663
C       -3.81037969       2.39408264      -7.81523740       0.00000000       0.00000000      -0.05236563       0.00926990      -0.17013669      -0.06021604
C       -4.60448598       3.31570834      -6.89218416       0.00000000       0.00000000       0.07369763       0.02267005      -0.04863451      -0.10314464
C        0.67881045      -3.87439952      -3.67044568       0.00000000       0.00000000       0.06765301      -0.04411700       0.00803244      -0.02316409
C        0.16046634      -5.17723066      -3.05010522       0.00000000       0.00000000       0.04403114       0.07171881      -0.05617568      -0.07377607
C        0.20529949      -5.20027794      -1.52311726       0.00000000       0.00000000      -0.01456051       0.02670412       0.05100421      -0.06370617
C       -1.07845985      -4.70656611      -0.86109116       0.00000000       0.00000000       0.00042064       0.03415716       0.04933102      -0.06407216
C       -0.98140939      -4.77362764       0.66546996       0.00000000       0.00000000       0.01286733      -0.01263508      -0.01083674      -0.06009466
C       -2.35843952      -4.81051298       1.32639463       0.00000000       0.00000000       0.02058196       0.01198260      -0.04277195      -0.06669971
C       -2.28869201      -4.47459433       2.81265131       0.00000000       0.00000000       0.02330015      -0.02352027      -0.01713691      -0.04811861
C       -3.67613932      -4.37295401       3.42889263       0.00000000       0.00000000      -0.00144299      -0.01144958       0.00385662      -0.11172418
H        6.27074203      -7.86240014       2.98041483       0.00000000       0.00000000      -0.01204955      -0.06232698      -0.03393466       0.03836218
H        4.84709223      -8.89296147       3.16429611       0.00000000       0.00000000      -0.00415742      -0.02161902       0.01886045       0.04088094
H        5.61590283      -8.17166949       4.58060237       0.00000000       0.00000000      -0.06995175       0.01586106       0.02923110       0.04230496
H        4.19681401      -6.65117773       2.33374038       0.00000000       0.00000000       0.03638666      -0.00501994      -0.03456234       0.02147105
H        5.03576301      -5.89657562       3.69391231       0.00000000       0.00000000       0.03795516       0.04169632      -0.02971583       0.02359010
H        3.45112015      -6.90337398       5.27169745       0.00000000       0.00000000       0.02101685       0.02727240       0.00673925       0.04060484
H        2.58265779      -7.69366809       3.96910470       0.00000000       0.00000000       0.06519612      -0.01071625      -0.04632138       0.03823474
H        1.65638363      -5.68137226       3.17012801       0.00000000       0.00000000       0.03383570       0.00933710       0.02243002       0.02241298
H        3.02789012      -4.73223282       3.75171979       0.00000000       0.00000000       0.03961185       0.06604194      -0.03074498       0.02240114
H        2.27132322      -5.10775024       6.09869217       0.00000000       0.00000000       0.06121076      -0.04165248       0.03496479       0.04299596
H        0.85429940      -5.96138287       5.49211107       0.00000000       0.00000000       0.01875201      -0.05826180       0.06393982       0.04769329
H        0.45674810      -3.63551924       6.23249009       0.00000000       0.00000000       0.00397993       0.00798118      -0.06073452       0.05082069
H       -0.10542271      -3.96002447       4.60523659       0.00000000       0.00000000       0.00620316      -0.03310653      -0.02165795       0.04469936
H        2.66158973      -2.85212330       4.84381754       0.00000000       0.00000000      -0.07015245      -0.02714182      -0.00253419       0.06262030
H        1.33271608      -1.76032794       5.27118646       0.00000000       0.00000000      -0.00556198       0.05946019       0.02881982       0.04312827
H        0.28948866      -1.94276428       3.14155082       0.00000000       0.00000000       0.16610092       0.04483597      -0.07452106       0.08441929
H        1.24130875      -3.36967596       2.71318331       0.00000000       0.00000000      -0.00180051       0.03084007      -0.00903898       0.08478974
H        3.18422685      -0.93479292       4.17564670       0.00000000       0.00000000       0.03386418       0.04706674       0.02735815       0.09606073
H        3.30285745       0.17745258       2.81918126       0.00000000       0.00000000       0.06327302      -0.13172679       0.02856063       0.06558786
H        4.82256867      -1.65368386       1.71333677       0.00000000       0.00000000      -0.04335548      -0.07646870      -0.01579268       0.03837219
H        4.78020901      -2.46726739       3.25995093       0.00000000       0.00000000      -0.04226437      -0.06063720       0.01757229       0.05396509
H        6.72559176      -1.31937080       3.52413859       0.00000000       0.00000000      -0.03124498       0.03855741      -0.00354926       0.05991984
H        5.62482998      -0.10782737       4.17613556       0.00000000       0.00000000       0.01853914      -0.08387065       0.00256638       0.04741212
H        7.27930700       0.90974941       2.74549059       0.00000000       0.00000000      -0.01892473      -0.04500986      -0.00256309       0.05243533
H        5.69897298       1.14596359       2.04773335       0.00000000       0.00000000      -0.00784026      -0.01721418       0.03168425       0.02067340
H        6.21197510      -0.84578707       0.48188898       0.00000000       0.00000000      -0.01207502       0.00602356       0.02870004       0.01491392
H        7.81931666      -0.87192556       1.19090347       0.00000000       0.00000000       0.00825153      -0.00859324      -0.02250435       0.04616899
H        8.24408571       1.40876601       0.37408771       0.00000000       0.00000000      -0.00650903      -0.00320675      -0.06330640       0.04472912
H        6.59174714       1.53993884      -0.22895556       0.00000000       0.00000000       0.02639809      -0.00439577       0.00919316       0.02192226
H        7.00289289      -0.32550913      -1.82221859       0.00000000       0.00000000       0.00902362       0.03230680       0.04230732       0.01577133
H        8.63490590      -0.50844285      -1.18693363       0.00000000       0.00000000       0.02140648      -0.01348806      -0.01539921       0.04029654
H        7.59933148       1.98863326      -2.62190338       0.00000000       0.00000000      -0.02882019      -0.01317462       0.02171938       0.03122396
H        8.64494764       0.74428159      -3.31330958       0.00000000       0.00000000      -0.03033750       0.02507702       0.00630407       0.04315339
H        9.23311817       1.75716639      -2.00539995       0.00000000       0.00000000       0.02393363       0.03404767       0.05953194       0.04611786
H        3.65966846      -1.49101174      -0.13964498       0.00000000       0.00000000      -0.06283913      -0.00817647       0.01677823       0.07002099
H        2.58912349       1.18862107       0.87779465       0.00000000       0.00000000       0.09529162      -0.04046262      -0.09864237       0.09023996
H        3.60319697       1.04773487      -0.57634544       0.00000000       0.00000000      -0.00227213       0.05071817      -0.00529547       0.08534006
H        4.25504969       0.56551825       0.97475471       0.00000000       0.00000000       0.06421120      -0.00811284       0.02282013       0.09769453
H        2.14562932      -2.70098835      -1.47728079       0.00000000       0.00000000       0.00564795       0.05892697      -0.01933374       0.06833921
H        2.62484123      -0.56550330      -3.64340206       0.00000000       0.00000000       0.02784184       0.02607434      -0.04482183       0.06944036
H        2.96913878      -2.28504766      -3.83850227       0.00000000       0.00000000      -0.02508116       0.01324441      -0.04085457       0.07181820
H        3.91215726      -1.33328793      -2.71193559       0.00000000       0.00000000       0.00302228       0.04272473       0.04802890       0.07687107
H       -1.95116450      -1.88380254      -3.13291697       0.00000000       0.00000000       0.04450075      -0.08120665      -0.08019535       0.08484596
H       -1.82934024      -3.49073992      -3.89594854       0.00000000       0.00000000       0.02085588       0.15770527      -0.05353974       0.08146550
H       -0.51352653      -2.38721714      -5.79200699       0.00000000       0.00000000      -0.01047319       0.06388087       0.01567658       0.04675443
H       -0.89447197      -0.81523595      -5.07516852       0.00000000       0.00000000       0.00554836      -0.09758136       0.00767149       0.03872835
H       -3.33390818      -1.28460870      -5.44468564       0.00000000       0.00000000       0.03612276      -0.04494882      -0.01995428       0.03928648
H       -2.91528999      -2.86118089      -6.10381316       0.00000000       0.00000000       0.02412713      -0.00232192       0.05066648       0.04481016
H       -3.19903944      -1.59721195      -8.02643780       0.00000000       0.00000000      -0.00585908       0.03822096      -0.01935720       0.05205083
H       -1.45553999      -1.59461005      -7.82302919       0.00000000       0.00000000      -0.00601303      -0.06398806       0.03653958       0.03833395
H       -1.94969463       0.58853488      -8.40492423       0.00000000       0.00000000      -0.01031582       0.04716741      -0.08492093       0.04320018
H       -1.72992085       0.68929120      -6.66251527       0.00000000       0.00000000       0.04998242       0.03127849      -0.04774077       0.01708991
H       -4.48743386       0.35101482      -7.90381187       0.00000000       0.00000000       0.07086992      -0.00906880       0.06134589       0.04135790
H       -4.09458843       0.90855969      -6.28630241       0.00000000       0.00000000      -0.03941689      -0.05751545       0.02648200       0.02863721
H       -4.26102061       2.41667643      -8.81167991       0.00000000       0.00000000       0.05976380       0.04122292       0.10074289       0.04207161
H       -2.79644281       2.78579958      -7.92042206       0.00000000       0.00000000       0.00703152      -0.00284924       0.05458791       0.02938062
H       -4.72273176       4.29890114      -7.34829759       0.00000000       0.00000000       0.02632411      -0.10579249       0.05207903       0.04296557
H       -4.08221905       3.44307571      -5.94329962       0.00000000       0.00000000      -0.07764156      -0.00712570      -0.02964362       0.02028832
H       -5.59517037       2.91076338      -6.69940697       0.00000000       0.00000000       0.01841510      -0.00679784      -0.01230814       0.04014519
H        1.72821132      -3.77752620      -3.40864336       0.00000000       0.00000000       0.02645452      -0.03855598      -0.00563411       0.06009108
H        0.60590920      -3.94655612      -4.75934380       0.00000000       0.00000000      -0.01845168      -0.01635179       0.00960513       0.07834457
H        0.81339888      -5.95719660      -3.44206696       0.00000000       0.00000000      -0.05242970      -0.07894555      -0.02515369       0.06665498
H       -0.85188818      -5.39129426      -3.38619104       0.00000000       0.00000000      -0.03676542      -0.03780682      -0.02303952       0.06195782
H        1.05225957      -4.60703353      -1.17029235       0.00000000       0.00000000       0.00581222      -0.03004214       0.05003999       0.02016408
H        0.36634643      -6.22693281      -1.19543213       0.00000000       0.00000000       0.04051508      -0.05317426      -0.00551725       0.05691153
H       -1.91058907      -5.32744468      -1.19834743       0.00000000       0.00000000       0.01161376      -0.01140615       0.00542343       0.04630976
H       -1.28789758      -3.67041040      -1.14015155       0.00000000       0.00000000      -0.03936919      -0.00584361      -0.05748814       0.03287882
H       -0.43171005      -3.89307737       1.01136314       0.00000000       0.00000000       0.01450966      -0.01382259       0.02123493       0.02841961
H       -0.41389486      -5.65939577       0.96442060       0.00000000       0.00000000      -0.03116477       0.01739130      -0.01096443       0.03302314
H       -2.79445286      -5.80221583       1.19794924       0.00000000       0.00000000      -0.02014700       0.00229123      -0.00701708       0.04245326
H       -3.01879237      -4.09527207       0.83221323       0.00000000       0.00000000      -0.00453352       0.02713561       0.01861766       0.04181714
H       -1.77295122      -3.51533701       2.92892933       0.00000000       0.00000000      -0.01369384      -0.00654292       0.04606899       0.01328173
H       -1.70377077      -5.24045857       3.32966178       0.00000000       0.00000000      -0.01741385       0.02184948      -0.00240234       0.02926348
H       -4.23867631      -3.58693932       2.93067526       0.00000000       0.00000000      -0.01527771      -0.01212724       0.03818806       0.05074092
H       -3.60872500      -4.14095352       4.48826718       0.00000000       0.00000000      -0.01145079       0.01964283       0.01497265       0.03908167
H       -4.21265948      -5.31170900       3.31902981       0.00000000       0.00000000      -0.00373504       0.00559280      -0.01261719       0.04374316
C       -7.56917304       6.47488176      -3.25668602       0.00000000       0.00000000      -0.00395631      -0.04106904      -0.01080064      -0.10745896
C       -6.76321613       5.18112219      -3.26467652       0.00000000       0.00000000      -0.00231178      -0.05879382       0.02738984      -0.05199897
C       -7.09501935       4.29119525      -2.06337966       0.00000000       0.00000000       0.01541213      -0.00257643       0.00816255      -0.06379712
C       -6.23441601       3.02510655      -1.97983525       0.00000000       0.00000000       0.00385298       0.04372785      -0.00896508      -0.06046304
C       -6.65118945       1.93847044      -2.97074985       0.00000000       0.00000000       0.02887106       0.06722021      -0.01585618      -0.06592594
C       -5.69150992       0.75031763      -3.02722965       0.00000000       0.00000000      -0.01518551      -0.07548624       0.01487320      -0.06674491
C       -4.27072791       1.13879331      -3.47809982       0.00000000       0.00000000      -0.05736301       0.04426954      -0.00310937      -0.06840129
C       -3.30724517       1.12968261      -2.30296405       0.00000000       0.00000000       0.01574037      -0.02266191      -0.00773604      -0.00608038
N       -1.98774779       1.75163655      -2.54257776       0.00000000       0.00000000       0.08403144      -0.06572900      -0.04093902      -0.04516138
C       -1.51510539       2.03871105      -3.89663411       0.00000000       0.00000000      -0.00977627      -0.00344525       0.01592416      -0.02690435
C       -1.39722260       3.53956527      -4.19845659       0.00000000       0.00000000      -0.03869759      -0.03224776      -0.00844946      -0.07049575
C       -0.71185609       3.85180689      -5.53671999       0.00000000       0.00000000       0.06236712      -0.00857903      -0.05621740      -0.06987483
C        0.81590925       3.97411362      -5.49425566       0.00000000       0.00000000       0.09855015       0.03107264       0.00371593      -0.06595810
C        1.32698683       5.10127119      -4.59225721       0.00000000       0.00000000       0.01387548       0.03979137       0.04047908      -0.06353800
C        2.85442038       5.12757484      -4.47872521       0.00000000       0.00000000      -0.04921780      -0.03715211      -0.02844139      -0.06363890
C        3.33126096       6.19616482      -3.49195008       0.00000000       0.00000000      -0.03074328      -0.01968462      -0.05033031      -0.05387301
C        4.85107634       6.30004574      -3.40542278       0.00000000       0.00000000      -0.07431322       0.01643289       0.00347217      -0.10810001
C       -1.24706326       1.86312897      -1.45397697       0.00000000       0.00000000       0.03889165       0.10180894       0.12833296       0.25389931
O       -1.66379831       1.43543440      -0.34366984       0.00000000       0.00000000       0.03509366      -0.00580457      -0.15435295      -0.42896675
C        0.13625040       2.56315379      -1.38338290       0.00000000       0.00000000      -0.02897203      -0.04438118       0.00281159       0.09707692
C        1.17464704       2.09765019      -2.39946173       0.00000000       0.00000000       0.03964107       0.05288005       0.00244604      -0.14485097
O        0.68391930       2.22257561      -0.10702462       0.00000000       0.00000000      -0.04331553      -0.00016969      -0.04356559      -0.25725757
C        0.40608188       3.10105798       0.99972312       0.00000000       0.00000000      -0.00711370      -0.00610617      -0.06714063       0.09348347
C        1.59264163       4.06237481       1.19244957       0.00000000       0.00000000      -0.09761664      -0.05302023      -0.02322683      -0.12953978
C        0.22728901       2.14064949       2.19458048       0.00000000       0.00000000       0.04071922      -0.16632698      -0.01810305       0.25745186
O        0.56664557       0.94783087       1.98709483       0.00000000       0.00000000      -0.01967864       0.12757312       0.05677086      -0.41193537
N       -0.19510985       2.56343047       3.37196315       0.00000000       0.00000000       0.04239276      -0.08759836      -0.04979525      -0.03247562
C       -0.13975869       1.64382178       4.50933721       0.00000000       0.00000000      -0.02372342      -0.00179815       0.05378356      -0.01738056
C        1.17350309       1.85416564       5.27634823       0.00000000       0.00000000       0.06254654      -0.01982144       0.00917484      -0.06586700
C        1.26661020       1.06753725       6.58484365       0.00000000       0.00000000       0.00594783      -0.02823130       0.02910250      -0.06342077
C        2.55626784       1.38118561       7.36021155       0.00000000       0.00000000      -0.08825044      -0.03344294      -0.02151806      -0.06701113
C        3.81020018       0.64826028       6.87547702       0.00000000       0.00000000      -0.03684454      -0.03225749       0.00744692      -0.06211539
C        3.86212380      -0.83018561       7.27224715       0.00000000       0.00000000       0.00549021      -0.05208894       0.02606834      -0.06702275
C        5.27396795      -1.43093266       7.16628441       0.00000000       0.00000000       0.08121960       0.04453346       0.10643431      -0.06015696
C        5.27495418      -2.87631896       6.67350829       0.00000000       0.00000000       0.03947761       0.01170666      -0.00167765      -0.10227843
C       -0.64354400       3.91264452       3.65882960       0.00000000       0.00000000      -0.01218364       0.10839383       0.00457296      -0.02265610
C       -2.14799228       4.06108772       3.92180039       0.00000000       0.00000000       0.09198887       0.01910071      -0.01463970      -0.07347680
C       -3.04367152       3.61649859       2.76563636       0.00000000       0.00000000       0.01381504      -0.02889626      -0.05295627      -0.06316236
C       -3.45291843       2.14797777       2.84135684       0.00000000       0.00000000       0.00464445      -0.02836289      -0.02237401      -0.06277498
C       -4.46198980       1.78373083       1.74994126       0.00000000       0.00000000       0.00827967       0.01347186       0.00158225      -0.05713246
C       -5.29449445       0.56261488       2.13076868       0.00000000       0.00000000       0.02470227      -0.00693596       0.01156236      -0.06906703
C       -6.15272738       0.06586590       0.97242436       0.00000000       0.00000000       0.00243630       0.00757698       0.00691796      -0.04859812
C       -6.85763253      -1.23813776       1.31803678       0.00000000       0.00000000      -0.00618408       0.01678225       0.00861332      -0.11046031
H       -7.31724825       7.08607622      -4.11910568       0.00000000       0.00000000       0.01142127      -0.00107319      -0.02227826       0.03929695
H       -7.36906560       7.05490821      -2.35979219       0.00000000       0.00000000       0.01532933      -0.01424421       0.04357761       0.03602564
H       -8.63278347       6.25874990      -3.29333228       0.00000000       0.00000000      -0.03569593      -0.00945778       0.01058984       0.04227911
H       -5.69637705       5.42401599      -3.25361124       0.00000000       0.00000000       0.00145996      -0.01062754       0.02618828       0.01868652
H       -6.96887314       4.64591679      -4.19302246       0.00000000       0.00000000      -0.00333815      -0.02988239      -0.00374711       0.03121105
H       -8.14897196       4.01279910      -2.09475180       0.00000000       0.00000000      -0.00964975       0.00630651      -0.02024193       0.04185277
H       -6.93712525       4.87145138      -1.15086023       0.00000000       0.00000000      -0.01511862       0.02696114      -0.01551289       0.03302964
H       -6.30003857       2.61569443      -0.96840132       0.00000000       0.00000000       0.01648462       0.00586708      -0.02589960       0.03025481
H       -5.19702355       3.31842779      -2.15695544       0.00000000       0.00000000       0.01969543      -0.01289338       0.01186295       0.01977965
H       -6.72265914       2.35733795      -3.97357152       0.00000000       0.00000000      -0.03364837       0.10450674      -0.04369032       0.04245813
H       -7.64115962       1.57215828      -2.69555968       0.00000000       0.00000000       0.00418705       0.01282440      -0.01043396       0.04766956
H       -6.10258094       0.02410043      -3.72965949       0.00000000       0.00000000      -0.00193915       0.00680178      -0.01790895       0.04844342
H       -5.65507361       0.25995445      -2.05451472       0.00000000       0.00000000       0.02261144       0.01290232       0.03382564       0.04313745
H       -4.31193234       2.12919712      -3.93397857       0.00000000       0.00000000      -0.00112133      -0.00604585       0.02802414       0.06241668
H       -3.93145748       0.42786510      -4.23075852       0.00000000       0.00000000       0.00512941      -0.04875323       0.01560827       0.04376935
H       -3.15055909       0.09031256      -1.97040263       0.00000000       0.00000000       0.10190800       0.11853933      -0.01851423       0.08142592
H       -3.75182483       1.67064977      -1.46051367       0.00000000       0.00000000      -0.00926356      -0.00533256      -0.06226228       0.08442559
H       -2.23393944       1.60357135      -4.58803465       0.00000000       0.00000000       0.01761713       0.03708643       0.00870046       0.09635485
H       -0.56485076       1.52316990      -4.05473280       0.00000000       0.00000000      -0.08301712       0.08147948       0.02900260       0.06546573
H       -0.85931144       4.04959828      -3.40339546       0.00000000       0.00000000      -0.06942371       0.00030781       0.05741814       0.03811664
H       -2.40297365       3.95649391      -4.22354880       0.00000000       0.00000000      -0.06046959       0.02547340       0.03455518       0.05495368
H       -1.10780459       4.79822558      -5.90400296       0.00000000       0.00000000      -0.01053266       0.02226001      -0.00227875       0.06034384
H       -0.97052124       3.08662294      -6.26970104       0.00000000       0.00000000      -0.07302102      -0.00755628       0.01636830       0.04871311
H        1.16444542       4.17316712      -6.51076320       0.00000000       0.00000000      -0.05069544      -0.00607257       0.03795244       0.05257887
H        1.27195963       3.02458175      -5.20021275       0.00000000       0.00000000      -0.03634543      -0.01903591      -0.02096214       0.02070383
H        0.91600505       5.01055052      -3.58186906       0.00000000       0.00000000      -0.00410864      -0.00978403      -0.04008081       0.01477054
H        0.97758283       6.05375486      -4.99538125       0.00000000       0.00000000       0.02997205      -0.01167214       0.02671378       0.04586082
H        3.27835818       5.32143563      -5.46502466       0.00000000       0.00000000       0.04267056       0.02039507       0.03949661       0.04505511
H        3.21288939       4.14608134      -4.15205170       0.00000000       0.00000000       0.00929422       0.02350883      -0.01501577       0.02176922
H        2.92808835       5.97830385      -2.49720102       0.00000000       0.00000000       0.00126287      -0.01595437      -0.03028263       0.01529784
H        2.92706007       7.16035759      -3.80277328       0.00000000       0.00000000       0.00806580       0.03225647       0.00780539       0.04058871
H        5.29708577       5.35800497      -3.09283646       0.00000000       0.00000000      -0.03644324      -0.01345883      -0.00434117       0.03089460
H        5.12891702       7.06816872      -2.68721155       0.00000000       0.00000000       0.00944308      -0.03105843      -0.00412873       0.04300654
H        5.27164652       6.57470503      -4.36777557       0.00000000       0.00000000      -0.00759991      -0.01999784      -0.04578583       0.04639440
H       -0.00492584       3.65087785      -1.43815350       0.00000000       0.00000000      -0.03214756       0.00505698      -0.02477681       0.06965061
H        1.10152095       1.02026689      -2.54567759       0.00000000       0.00000000       0.06223547       0.13939689       0.01940843       0.09177842
H        2.15779701       2.34420620      -2.00307695       0.00000000       0.00000000       0.02254784      -0.02217486      -0.00605662       0.08587142
H        1.05864036       2.61719388      -3.33949329       0.00000000       0.00000000       0.03498869       0.01362308      -0.02146637       0.09843746
H       -0.51711384       3.66065806       0.80535188       0.00000000       0.00000000       0.01346215      -0.04427532       0.01434628       0.06619903
H        2.49176671       3.52551068       1.48279937       0.00000000       0.00000000      -0.03235969      -0.04894406      -0.03630348       0.06808046
H        1.38517764       4.80947942       1.95094334       0.00000000       0.00000000       0.01922923      -0.01261595       0.00405680       0.07144154
H        1.78674606       4.58652191       0.25968807       0.00000000       0.00000000       0.02453602      -0.03724291      -0.03676442       0.07655267
H       -0.21258328       0.62034291       4.12600784       0.00000000       0.00000000       0.01233260       0.10963602       0.03879935       0.08527290
H       -1.00171234       1.84074910       5.15300611       0.00000000       0.00000000       0.13168270      -0.00574817      -0.04768235       0.08052706
H        1.27229921       2.91372536       5.52678754       0.00000000       0.00000000       0.02430017      -0.02878316      -0.06146618       0.04755771
H        2.00897091       1.58014464       4.62527745       0.00000000       0.00000000      -0.05852245       0.05355540       0.02141259       0.03809793
H        1.21122585      -0.00327143       6.38716122       0.00000000       0.00000000      -0.01661166       0.01269491       0.00634932       0.03881193
H        0.41412293       1.32411999       7.21797018       0.00000000       0.00000000       0.01272624       0.02271688      -0.06928367       0.04435010
H        2.39384155       1.12783613       8.40774781       0.00000000       0.00000000       0.02900811      -0.01241718       0.02605645       0.05194947
H        2.74731012       2.45555190       7.31495963       0.00000000       0.00000000      -0.06948739       0.00127427      -0.00427085       0.03850426
H        4.67213290       1.15601776       7.30614877       0.00000000       0.00000000       0.06664313      -0.00861938       0.05683073       0.04369698
H        3.88983692       0.73493698       5.78892847       0.00000000       0.00000000       0.04640240       0.03638316      -0.01038085       0.01699415
H        3.18885479      -1.40104451       6.63608020       0.00000000       0.00000000      -0.07864468      -0.02693846      -0.01303426       0.02691682
H        3.50926329      -0.94627537       8.29984682       0.00000000       0.00000000      -0.01344550       0.05009396      -0.08162037       0.04116478
H        5.74482333      -1.38941831       8.15205368       0.00000000       0.00000000       0.00869868      -0.00774338      -0.11445772       0.04212452
H        5.88761881      -0.82766169       6.49299464       0.00000000       0.00000000      -0.02452027      -0.01928520      -0.01386566       0.02917365
H        6.26831843      -3.31601151       6.77603774       0.00000000       0.00000000      -0.13122987       0.08141820      -0.01450730       0.04293722
H        4.99454987      -2.92128594       5.62021805       0.00000000       0.00000000      -0.01125213      -0.02227158       0.07069826       0.01912024
H        4.57512789      -3.48124484       7.24658120       0.00000000       0.00000000       0.03242859       0.02574201       0.00629066       0.04072705
H       -0.38714921       4.56179654       2.82573832       0.00000000       0.00000000      -0.03866094       0.00576091       0.00463598       0.05890769
H       -0.09955439       4.27246606       4.53725195       0.00000000       0.00000000      -0.02109077      -0.04271286       0.01485283       0.07720054
H       -2.29951839       5.12564875       4.10456459       0.00000000       0.00000000      -0.04061059       0.01066208       0.04790232       0.06547787
H       -2.44179439       3.53128576       4.82584480       0.00000000       0.00000000       0.01240611      -0.02313459       0.04445461       0.06167536
H       -2.55178125       3.81578794       1.80983962       0.00000000       0.00000000      -0.02908297       0.00156560       0.00029409       0.01923370
H       -3.95614905       4.21229364       2.78965132       0.00000000       0.00000000      -0.02240796       0.04783425       0.01076137       0.05651935
H       -3.90427280       1.96330214       3.81819751       0.00000000       0.00000000      -0.00138058      -0.00382134      -0.00643149       0.04524564
H       -2.58081330       1.49596578       2.73754416       0.00000000       0.00000000       0.01997336      -0.01729384       0.06003229       0.02985876
H       -3.91328028       1.58293178       0.82485467       0.00000000       0.00000000      -0.02789273       0.00909915      -0.02394171       0.01997305
H       -5.13094944       2.62830460       1.56511656       0.00000000       0.00000000       0.00913029      -0.00726777       0.01029851       0.03409931
H       -5.93483649       0.81132720       2.97837380       0.00000000       0.00000000      -0.01049370       0.00779311       0.00556501       0.04008002
H       -4.63078238      -0.24515230       2.44239633       0.00000000       0.00000000      -0.01405594      -0.01070425       0.00225430       0.05052226
H       -5.50248169      -0.09970897       0.10891280       0.00000000       0.00000000      -0.02726330      -0.01045493      -0.02905432       0.01629260
H       -6.88830483       0.82835832       0.70421926       0.00000000       0.00000000       0.00928285      -0.01669691      -0.00591401       0.03005444
H       -6.11724864      -2.00391258       1.53835796       0.00000000       0.00000000      -0.04816319      -0.00902998      -0.00541936       0.04617086
H       -7.47571086      -1.57058741       0.48793699       0.00000000       0.00000000       0.01390458      -0.02274196      -0.00148198       0.03915203
H       -7.49716605      -1.10897534       2.18789581       0.00000000       0.00000000       0.02143786      -0.00303466      -0.00547506       0.04238923
N       -2.33839893      -1.29960839       0.98969055       0.00000000       0.00000000      -0.01628617       0.02330221       0.02298587       0.80059586
O       -3.35898227      -1.74396718       1.39291073       0.00000000       0.00000000      -0.03529993      -0.04908677       0.01185433      -0.36850653
O       -2.02856686      -1.37278837      -0.21375695       0.00000000       0.00000000       0.03045058      -0.01941398      -0.01081420      -0.45489749
O       -1.52653502      -0.73754036       1.74871022       0.00000000       0.00000000      -0.07416973      -0.04435317       0.00032260      -0.45407364
