103
Properties=species:S:1:pos:R:3:initial_charges:R:1:initial_magmoms:R:1:forces:R:3:charge:R:1 energy=-4272.180973336422 free_energy=-4272.180973336422 dipole="3.478419487224872 0.36765631528641557 -0.35650083135275357" pbc="F F F"
Er      -0.32386558       0.08784704      -0.14563703       1.00000000       0.00000000      -0.02013145      -0.02091606      -0.03970182       0.77315588
C       -0.07595469       6.87297678      -3.77679774       0.00000000       0.00000000      -0.02115586       0.00057295      -0.00153734      -0.10618126
C       -1.40663651       6.62495628      -3.07171877       0.00000000       0.00000000       0.00473253       0.00282603      -0.04942683      -0.05850381
C       -1.29873705       6.62972028      -1.54694934       0.00000000       0.00000000       0.02406711      -0.02427782      -0.04281700      -0.06103015
C       -0.43307007       5.48000739      -1.04323090       0.00000000       0.00000000       0.00598300      -0.00964448       0.05944853      -0.05946519
C       -0.47347794       5.37313664       0.49007002       0.00000000       0.00000000      -0.01818337      -0.01124713       0.04105293      -0.07171925
C        0.36399842       4.23384062       0.95268026       0.00000000       0.00000000       0.03408252       0.04955321       0.02688042       0.09353833
N        0.11599724       3.06272014       0.39532148       0.00000000       0.00000000      -0.00384282       0.04295048       0.04565515      -0.09318763
N        0.69891396       1.96489467       0.81480899       0.00000000       0.00000000       0.08735700       0.02005245       0.09529026      -0.10782012
C        1.44613626       2.04091698       1.92877601       0.00000000       0.00000000      -0.04553469      -0.02862634      -0.11698566       0.16901425
C        1.80753787       0.75668250       2.53787946       0.00000000       0.00000000       0.05980847      -0.02498174       0.05614845       0.08923072
C        2.47437873       0.63162360       3.75477809       0.00000000       0.00000000       0.02498224      -0.01598661       0.02182533      -0.02143158
C        2.69791320      -0.64792273       4.23974270       0.00000000       0.00000000      -0.05922854       0.06354462       0.01185556       0.00184414
C        2.28957988      -1.74571939       3.49929403       0.00000000       0.00000000       0.01612712      -0.09181244       0.02747091      -0.02395453
C        1.69105710      -1.53001805       2.26090352       0.00000000       0.00000000      -0.05472108       0.03296486      -0.11853762       0.10220243
C        1.41084379      -2.57694906       1.25329393       0.00000000       0.00000000       0.05716755      -0.00224268       0.00717399       0.10013250
C        1.48841779      -3.95823152       1.43239953       0.00000000       0.00000000       0.02865416       0.04346627       0.07798222      -0.02519083
C        1.37551553      -4.77239236       0.31586825       0.00000000       0.00000000      -0.03582172      -0.05525438      -0.03433407       0.00228273
C        1.24943362      -4.21339221      -0.94840517       0.00000000       0.00000000       0.04495085       0.00676834       0.00631622      -0.01938796
C        1.17242812      -2.82755220      -1.03744241       0.00000000       0.00000000       0.02363727      -0.06936509       0.03616062       0.09386008
C        1.18048017      -2.02651505      -2.27400674       0.00000000       0.00000000      -0.10833886       0.10312101       0.03244146       0.17295052
N        0.79998799      -0.75221289      -2.09449725       0.00000000       0.00000000      -0.02321261      -0.04578461       0.02904765      -0.09306180
N        0.94837633       0.09450787      -3.07713314       0.00000000       0.00000000       0.04471536      -0.03107354      -0.05735357      -0.07832139
C        1.48912798      -0.28474575      -4.22349003       0.00000000       0.00000000      -0.02090541      -0.03501163      -0.03357848       0.08812478
C        1.65547773       0.81430991      -5.21950994       0.00000000       0.00000000      -0.03222349      -0.02742139      -0.01434053      -0.07631540
C        3.03571766       1.49777616      -5.16577596       0.00000000       0.00000000      -0.04327875      -0.05519380       0.00465469      -0.05722299
C        3.29449297       2.23987539      -3.85006965       0.00000000       0.00000000       0.01201461      -0.03988956       0.01572757      -0.06890408
C        4.00324228       1.39565046      -2.79040251       0.00000000       0.00000000      -0.00014760      -0.02682551      -0.04256514      -0.05013518
C        4.24853478       2.18877308      -1.51246559       0.00000000       0.00000000      -0.02113706      -0.05344924      -0.04329799      -0.10155243
C        1.80688218      -1.66089447      -4.42346242       0.00000000       0.00000000      -0.06752562      -0.01008638      -0.02648569       0.12575204
C        2.27094104      -2.23855453      -5.71491233       0.00000000       0.00000000      -0.03103419       0.02463343      -0.00081712      -0.07124802
C        3.43960578      -3.22651763      -5.57971756       0.00000000       0.00000000      -0.04385523       0.02580314       0.01449651      -0.06201663
C        4.74452596      -2.55389975      -5.15432800       0.00000000       0.00000000       0.00579649      -0.00540906       0.02458195      -0.06271312
C        4.84527669      -2.24422655      -3.66032590       0.00000000       0.00000000       0.00738832       0.04465867      -0.01416628      -0.04990625
C        4.80806539      -3.49042417      -2.78259961       0.00000000       0.00000000       0.00561175       0.06392781      -0.02476888      -0.10773098
N        1.62429382      -2.51235847      -3.41932104       0.00000000       0.00000000      -0.01921517       0.04964227      -0.02902477      -0.20920773
N        1.20122566      -2.05126872       0.04529322       0.00000000       0.00000000       0.02233414      -0.02974157      -0.01199074      -0.16162372
N        1.44479278      -0.29727176       1.81056446       0.00000000       0.00000000      -0.00032844      -0.01923780       0.08256749      -0.14711896
N        1.88424130       3.18811664       2.41852444       0.00000000       0.00000000      -0.05834983      -0.06144071       0.02326032      -0.20878371
C        1.44167870       4.31072201       1.88950328       0.00000000       0.00000000      -0.06765269       0.11163559      -0.05065395       0.12237081
C        2.12417562       5.56000085       2.31081959       0.00000000       0.00000000       0.02073092      -0.00654489       0.00342141      -0.07521154
C        2.75053971       6.33077536       1.13774663       0.00000000       0.00000000      -0.03656964       0.03784664       0.02534273      -0.06118737
C        3.83820581       5.53022997       0.42753090       0.00000000       0.00000000      -0.03504791       0.05008261      -0.00699818      -0.05839933
C        4.48354915       6.31807683      -0.71398038       0.00000000       0.00000000       0.02735963       0.01396314      -0.02106954      -0.05720458
C        3.55611275       6.54126110      -1.90522177       0.00000000       0.00000000       0.01200436      -0.00952298       0.02787751      -0.10491184
H       -0.23646688       6.97814102      -4.84703479       0.00000000       0.00000000      -0.00200494       0.00331735       0.01086255       0.03999259
H        0.61601891       6.04841306      -3.62338824       0.00000000       0.00000000      -0.01122194       0.00743579       0.00764354       0.03083989
H        0.38814547       7.78787335      -3.41328043       0.00000000       0.00000000      -0.01596461      -0.00946097      -0.00063805       0.03612557
H       -1.81563804       5.66386375      -3.39126632       0.00000000       0.00000000       0.00059407       0.03720210      -0.01175234       0.04240007
H       -2.11134590       7.40299994      -3.37069484       0.00000000       0.00000000      -0.00325587      -0.00734469       0.00777838       0.04225014
H       -2.30085622       6.52981691      -1.12572507       0.00000000       0.00000000       0.00958068       0.00438096      -0.01000174       0.04338790
H       -0.88689632       7.58527770      -1.21382457       0.00000000       0.00000000       0.00905524      -0.00578064       0.01478560       0.03610451
H        0.60162196       5.62403211      -1.35921595       0.00000000       0.00000000      -0.02627325      -0.01375575      -0.02035769       0.04389885
H       -0.79684860       4.54171587      -1.46505705       0.00000000       0.00000000       0.01969886       0.03419570      -0.01319083       0.06324113
H       -1.50769484       5.17848322       0.78755545       0.00000000       0.00000000      -0.00673713      -0.02682866      -0.01679356       0.08604132
H       -0.16190907       6.30941497       0.95300887       0.00000000       0.00000000       0.01160525      -0.03552911      -0.00355595       0.06253866
H        2.80204104       1.50254250       4.29757249       0.00000000       0.00000000      -0.04845874       0.05251133      -0.02828095       0.09415383
H        3.19050357      -0.78697358       5.18730780       0.00000000       0.00000000       0.02696597      -0.01931024       0.07279222       0.08682524
H        2.45216056      -2.74433843       3.87008888       0.00000000       0.00000000       0.02468109      -0.01355393      -0.00766835       0.08087611
H        1.63841800      -4.39862920       2.40626307       0.00000000       0.00000000      -0.02201794       0.07009127      -0.02208086       0.08085038
H        1.41916155      -5.84375913       0.43286069       0.00000000       0.00000000      -0.00850662      -0.03193329      -0.02884636       0.08716080
H        1.21790791      -4.82219518      -1.83395140       0.00000000       0.00000000      -0.00762100      -0.03695928      -0.08271173       0.09300694
H        0.90006641       1.56911062      -4.98927626       0.00000000       0.00000000       0.01487375      -0.05558001      -0.01962688       0.08617280
H        1.47546234       0.43327700      -6.22482608       0.00000000       0.00000000       0.03462492       0.01975587      -0.02326367       0.06361120
H        3.06239243       2.21369491      -5.98952191       0.00000000       0.00000000      -0.00458448      -0.03180539       0.02279286       0.05705382
H        3.82377398       0.76315028      -5.34131732       0.00000000       0.00000000       0.01213740      -0.00295871       0.02048687       0.04353378
H        2.34681602       2.60381863      -3.44831997       0.00000000       0.00000000       0.00728220      -0.01032226       0.00684158       0.04967879
H        3.92683469       3.10499964      -4.05812159       0.00000000       0.00000000      -0.01113172       0.02599181      -0.00096529       0.04831594
H        4.95973517       1.05306263      -3.19536268       0.00000000       0.00000000      -0.03304961      -0.00727272       0.05265952       0.03750899
H        3.40644465       0.51416299      -2.53826820       0.00000000       0.00000000       0.03447013       0.05534681      -0.03287596       0.01314558
H        4.85226209       3.06927604      -1.71574573       0.00000000       0.00000000      -0.01533342       0.01753461      -0.01041657       0.04820567
H        4.76994722       1.57750813      -0.78150288       0.00000000       0.00000000       0.02126996      -0.01459310       0.04490150       0.03341074
H        3.29883617       2.50152743      -1.08206404       0.00000000       0.00000000      -0.04858740       0.00303348       0.01046929       0.02293817
H        2.53972554      -1.45151887      -6.41661701       0.00000000       0.00000000       0.01073160       0.05107698       0.00345738       0.06493712
H        1.41654511      -2.78544430      -6.12839141       0.00000000       0.00000000       0.02494540       0.00126738      -0.01701458       0.08744279
H        3.58977055      -3.69497585      -6.55339617       0.00000000       0.00000000      -0.02457713       0.02956843      -0.00415572       0.05438302
H        3.16934462      -4.00732733      -4.87274291       0.00000000       0.00000000      -0.00061006      -0.01087964       0.00445019       0.06440662
H        4.86966468      -1.62667074      -5.72007684       0.00000000       0.00000000       0.01511428      -0.01713501      -0.00109827       0.03458456
H        5.57502548      -3.20796380      -5.42176241       0.00000000       0.00000000       0.01314052      -0.04559085      -0.00563846       0.05004422
H        4.03891857      -1.56806899      -3.36791217       0.00000000       0.00000000       0.04499453       0.00042584       0.00646730       0.01317227
H        5.78492016      -1.71491790      -3.48415288       0.00000000       0.00000000      -0.00303132      -0.02173168      -0.00823395       0.03608401
H        3.83929141      -3.97985878      -2.83747035       0.00000000       0.00000000      -0.00355779       0.00851831       0.01340898       0.03627318
H        4.99085431      -3.22105078      -1.74500810       0.00000000       0.00000000       0.00901204      -0.00832335       0.01876836       0.02754026
H        5.57463021      -4.19315531      -3.09820596       0.00000000       0.00000000      -0.00237736      -0.01282414       0.01519539       0.04862383
H        2.89545571       5.27012449       3.02643330       0.00000000       0.00000000       0.02551407       0.08288597       0.00057910       0.07880518
H        1.40415566       6.20604650       2.81835850       0.00000000       0.00000000      -0.01835891       0.01745098      -0.01459059       0.07935250
H        3.18441153       7.25042354       1.53371422       0.00000000       0.00000000      -0.00099338      -0.00303929      -0.00384162       0.05685331
H        1.97644549       6.60667661       0.42363286       0.00000000       0.00000000       0.01885555       0.01090597       0.00172355       0.05402503
H        3.41606486       4.60586082       0.02715687       0.00000000       0.00000000      -0.01969530      -0.02686726       0.01299517       0.02245356
H        4.60860351       5.25715666       1.15147976       0.00000000       0.00000000       0.00471382      -0.01208037      -0.00487950       0.03749633
H        5.36223748       5.76841000      -1.05507734       0.00000000       0.00000000       0.02598890      -0.01816067      -0.00643378       0.03609890
H        4.82877272       7.28250826      -0.33668945       0.00000000       0.00000000      -0.00383065      -0.00730970      -0.00150501       0.04092904
H        3.14076243       5.59397974      -2.24612941       0.00000000       0.00000000       0.00721482       0.01211081      -0.00800480       0.03144894
H        4.10902382       6.98816930      -2.72865016       0.00000000       0.00000000      -0.01989298      -0.02193574       0.02602913       0.04287877
H        2.73920754       7.21315023      -1.65407541       0.00000000       0.00000000       0.00644628      -0.01753730       0.00785395       0.03790859
N       -1.98921548      -1.53082771       0.62847635       0.00000000       0.00000000      -0.02386232      -0.08651145      -0.10775055       0.79365097
O       -2.90569046      -2.19394981       0.98257323       0.00000000       0.00000000      -0.03317132       0.02637979      -0.04163248      -0.37680030
O       -1.20854552      -1.01195528       1.44065225       0.00000000       0.00000000       0.07017723       0.08260145      -0.05558316      -0.43744004
O       -1.72851964      -1.37563847      -0.58429030       0.00000000       0.00000000       0.06370585       0.03702561       0.07828686      -0.45267544
N       -1.99191889       1.76056604      -0.91231722       0.00000000       0.00000000       0.04759216      -0.03229492       0.06790087       0.80021760
O       -2.77259966       2.57933536      -1.26947372       0.00000000       0.00000000      -0.01375680       0.05182156       0.04683846      -0.38270117
O       -2.08760051       1.19911978       0.19771250       0.00000000       0.00000000       0.08342309       0.02145928      -0.02260708      -0.44929630
O       -1.03155543       1.42308810      -1.62408016       0.00000000       0.00000000       0.03199099      -0.07611137       0.04379909      -0.40777663
