95
Properties=species:S:1:pos:R:3:initial_charges:R:1:initial_magmoms:R:1:forces:R:3:charge:R:1 energy=-4318.141627179911 free_energy=-4318.141627179911 dipole="1.1917406910618404 -1.123766077527705 3.7053439618466006" pbc="F F F"
Tm      -0.14969948      -0.06909370      -0.08968123       2.00000000       0.00000000      -0.16164918      -0.05169065      -0.03009467       0.82826898
C       -4.37514747       1.22353619      -1.69672672       0.00000000       0.00000000       0.05244973       0.01536964       0.01015021      -0.06582204
N       -4.11469549       1.14391285      -0.26936000       0.00000000       0.00000000      -0.03674817       0.01291813      -0.01514291      -0.01060304
C       -2.87616971       1.27428357       0.17609549       0.00000000       0.00000000       0.04686933       0.05609044       0.02953317       0.26434867
O       -1.87850482       1.38441277      -0.57979948       0.00000000       0.00000000       0.03383356       0.04736905      -0.11241335      -0.37217007
C       -2.55366024       1.36794236       1.64600206       0.00000000       0.00000000      -0.04635508      -0.02239582       0.08601341       0.08576769
C       -3.26104449       2.03135671       2.64766184       0.00000000       0.00000000       0.05076625       0.02572100       0.04948945      -0.02031733
C       -2.63748696       2.20606550       3.87757940       0.00000000       0.00000000      -0.01805640       0.00997018       0.08120456       0.00488801
C       -1.33909832       1.75483932       4.08654732       0.00000000       0.00000000       0.05599868      -0.03347441      -0.06320062      -0.02200584
C       -0.71548486       1.07441190       3.04294152       0.00000000       0.00000000      -0.01981776       0.00224518      -0.02832447       0.07793877
C        0.72548942       0.65649631       2.92124781       0.00000000       0.00000000       0.02068168       0.06892011       0.01415281       0.25817261
O        1.21072427       0.70335706       1.77238515       0.00000000       0.00000000      -0.07275516      -0.03164431      -0.08348650      -0.37396593
N        1.46699305       0.32073367       3.97523964       0.00000000       0.00000000      -0.01177252      -0.03158764       0.05031212      -0.03530156
C        2.90292118       0.16876408       3.79900808       0.00000000       0.00000000      -0.02324424       0.00980832      -0.01932280      -0.06382541
C        0.95222877      -0.00316250       5.25360571       0.00000000       0.00000000      -0.10008916       0.03444716       0.06031961       0.04727396
C       -0.21146143      -0.75690651       5.37823383       0.00000000       0.00000000      -0.02740180      -0.06064681       0.06614025      -0.04997194
C       -0.67225067      -1.10464401       6.63697591       0.00000000       0.00000000       0.07488524       0.05043929       0.06231721      -0.02428785
C        0.03459285      -0.71895729       7.76765631       0.00000000       0.00000000      -0.00742277       0.02659747       0.00586768      -0.02052840
C        1.19838985       0.02325790       7.64303167       0.00000000       0.00000000      -0.02125738       0.00219761      -0.01115798      -0.01818739
C        1.65250950       0.38713492       6.38849332       0.00000000       0.00000000       0.03188443      -0.01443172       0.00000534      -0.03932887
N       -1.32818566       0.89210580       1.87074134       0.00000000       0.00000000       0.00285107      -0.04342445      -0.04900131      -0.14576768
C       -5.22272989       0.82791303       0.56077244       0.00000000       0.00000000       0.05839080       0.04636724       0.07051158       0.04815356
C       -5.11602302      -0.17231940       1.52101740       0.00000000       0.00000000      -0.02585807      -0.04363540       0.02655924      -0.04237954
C       -6.21164585      -0.48021009       2.30968910       0.00000000       0.00000000      -0.01195728       0.02292504      -0.02163684      -0.02214451
C       -7.41290864       0.19000484       2.13237673       0.00000000       0.00000000       0.03319107      -0.01145369       0.00433670      -0.01941856
C       -7.52147086       1.16968110       1.15938495       0.00000000       0.00000000       0.00200313       0.00917230       0.00249220      -0.01783903
C       -6.42720751       1.49490900       0.37857974       0.00000000       0.00000000      -0.00165113       0.01485369      -0.02861823      -0.03671843
H       -3.42342532       1.16399679      -2.22067336       0.00000000       0.00000000      -0.01941307      -0.00772285      -0.07619580       0.10024173
H       -4.85326618       2.17572365      -1.93140762       0.00000000       0.00000000       0.02997212      -0.03299543      -0.06199462       0.09131297
H       -5.02499437       0.40535518      -2.00841297       0.00000000       0.00000000       0.05034184       0.03537054       0.06300770       0.09628690
H       -4.24881803       2.42885558       2.47615004       0.00000000       0.00000000       0.02161556      -0.01911161      -0.02454926       0.08896095
H       -3.15203468       2.71475892       4.68155945       0.00000000       0.00000000       0.00986660       0.01744587      -0.10867168       0.09718659
H       -0.82927214       1.95164549       5.01918181       0.00000000       0.00000000      -0.06166961      -0.03940183      -0.09058195       0.08526080
H        3.11486778       0.12341858       2.73265039       0.00000000       0.00000000       0.00702429      -0.01276669      -0.01898349       0.08999448
H        3.24014061      -0.74217669       4.29435418       0.00000000       0.00000000      -0.00286769       0.07486961       0.01740953       0.07901107
H        3.42054461       1.03192454       4.22146727       0.00000000       0.00000000       0.03448963      -0.06219464      -0.03626461       0.09005372
H       -0.74893755      -1.06775193       4.49450111       0.00000000       0.00000000       0.03452012      -0.00652145      -0.02249241       0.03039406
H       -1.57753847      -1.68474155       6.74652985       0.00000000       0.00000000       0.05656933       0.03610045      -0.05545775       0.05862033
H       -0.32472846      -0.99203190       8.74577593       0.00000000       0.00000000      -0.00912121      -0.03698064       0.02576588       0.07232563
H        1.76362327       0.32445987       8.51293296       0.00000000       0.00000000      -0.10791788      -0.03059793      -0.01368214       0.07385978
H        2.54440126       0.98240013       6.28672163       0.00000000       0.00000000       0.02256424       0.00549308       0.07188650       0.06292162
H       -4.18653336      -0.71500678       1.61979662       0.00000000       0.00000000       0.00376674      -0.02701583      -0.00484777       0.03849812
H       -6.14144677      -1.25697514       3.05474255       0.00000000       0.00000000       0.04273647      -0.01098837      -0.00691873       0.05913363
H       -8.26244126      -0.05760061       2.74807953       0.00000000       0.00000000      -0.01444272      -0.01485714      -0.01471513       0.07135560
H       -8.45659791       1.68183674       0.99884147       0.00000000       0.00000000      -0.00607082       0.00656074       0.04307276       0.07377245
H       -6.49991596       2.27090989      -0.36454513       0.00000000       0.00000000      -0.07676143       0.03078997      -0.01696163       0.06414365
C        2.97426888       1.98225703      -3.00693339       0.00000000       0.00000000       0.00577014      -0.00377182      -0.01659419      -0.06998052
N        3.43342150       0.79064802      -2.30607753       0.00000000       0.00000000       0.03144656      -0.00427863       0.00333838      -0.01655235
C        2.58677532       0.21565060      -1.45724463       0.00000000       0.00000000       0.02330869       0.04409750       0.08417891       0.26489388
O        1.52725299       0.80309047      -1.13378094       0.00000000       0.00000000      -0.02732926      -0.05491927       0.01282822      -0.35288635
C        2.80275237      -1.17590951      -0.90005269       0.00000000       0.00000000      -0.00519626      -0.06109785       0.03554904       0.08964685
C        3.63100791      -2.19606076      -1.37731407       0.00000000       0.00000000      -0.04218738      -0.09073753      -0.01134767      -0.01646322
C        3.55155775      -3.44893660      -0.77629237       0.00000000       0.00000000      -0.01026590       0.02837325       0.06949837       0.00454749
C        2.66334373      -3.68025395       0.26948603       0.00000000       0.00000000      -0.05313380       0.00846193      -0.06577941      -0.02053830
C        1.84011218      -2.62519054       0.65832933       0.00000000       0.00000000       0.00257342       0.05014376      -0.02726489       0.07695958
C        0.62116028      -2.67081310       1.54119667       0.00000000       0.00000000       0.00136951      -0.00535801       0.04318942       0.25907693
O       -0.28369362      -1.84932199       1.25026191       0.00000000       0.00000000       0.06220636       0.00703495      -0.03562207      -0.39096679
N        0.43127411      -3.54201003       2.53087108       0.00000000       0.00000000       0.03552513      -0.02381670       0.04988855      -0.02762121
C       -0.91487033      -3.63759729       3.08163955       0.00000000       0.00000000      -0.00500889      -0.01607055      -0.02093815      -0.06722275
C        1.44073304      -4.27590330       3.20056992       0.00000000       0.00000000       0.12512152      -0.03897456      -0.04591478       0.04846418
C        2.71259678      -3.73490133       3.36746843       0.00000000       0.00000000       0.08257398       0.00043186       0.03587748      -0.04888745
C        3.66750602      -4.41929461       4.09901025       0.00000000       0.00000000      -0.03442903      -0.07207558       0.01169926      -0.02263459
C        3.35187333      -5.62855758       4.70076070       0.00000000       0.00000000      -0.03464769      -0.00955627      -0.01221104      -0.01887057
C        2.08781182      -6.17101961       4.53474543       0.00000000       0.00000000      -0.01230640       0.00447212      -0.04796380      -0.01728076
C        1.14107105      -5.50690070       3.77459630       0.00000000       0.00000000      -0.03592200       0.00727708      -0.01120252      -0.03821801
N        1.93275293      -1.42542161       0.08001124       0.00000000       0.00000000      -0.04734653       0.02801876      -0.01615720      -0.14113840
C        4.80213156       0.45416823      -2.45251360       0.00000000       0.00000000       0.02263575      -0.10668783       0.01512783       0.04902601
C        5.56823891       0.12830906      -1.33540068       0.00000000       0.00000000       0.06937177       0.00152206       0.03707403      -0.04431009
C        6.92352799      -0.11175708      -1.47466897       0.00000000       0.00000000       0.01297415       0.00501222      -0.05648194      -0.02181223
C        7.53132840       0.00411812      -2.71547086       0.00000000       0.00000000      -0.03414006      -0.01168904      -0.00960857      -0.01899959
C        6.76661523       0.31356218      -3.82724269       0.00000000       0.00000000      -0.01562652      -0.00816599      -0.03932862      -0.01762841
C        5.40473695       0.52058909      -3.70217582       0.00000000       0.00000000      -0.02181327       0.02778598      -0.02046290      -0.03651751
H        1.96121900       2.20667939      -2.67938343       0.00000000       0.00000000       0.02606030       0.05432872      -0.01744012       0.10208680
H        2.96047345       1.79164981      -4.07886413       0.00000000       0.00000000       0.03990877       0.04169470      -0.01833162       0.09326055
H        3.62184876       2.83181206      -2.79326692       0.00000000       0.00000000       0.05034206      -0.05840726      -0.01657530       0.08989784
H        4.30146053      -2.04945013      -2.20935425       0.00000000       0.00000000      -0.03934021       0.04962727       0.01614991       0.09210588
H        4.16969820      -4.26487432      -1.12861014       0.00000000       0.00000000      -0.03529671       0.13491197      -0.00746436       0.09875579
H        2.59333130      -4.65613528       0.72744142       0.00000000       0.00000000      -0.01894356       0.06828344      -0.03080884       0.08607301
H       -1.51671590      -2.85132796       2.63026109       0.00000000       0.00000000      -0.06921285      -0.02392914       0.04916135       0.09492012
H       -0.90124200      -3.52402420       4.16606248       0.00000000       0.00000000       0.08076972      -0.07612641      -0.05772343       0.08309673
H       -1.34803300      -4.60168381       2.81591976       0.00000000       0.00000000      -0.03862780       0.00884720       0.04403785       0.09280278
H        2.95005003      -2.77917427       2.92687526       0.00000000       0.00000000      -0.00813614       0.05669831       0.01573231       0.02928387
H        4.66033266      -4.01089474       4.21225193       0.00000000       0.00000000      -0.05128595       0.04740355       0.00110725       0.06125423
H        4.08650811      -6.14346904       5.29756694       0.00000000       0.00000000       0.02303209      -0.01203383      -0.00701791       0.07394472
H        1.82550260      -7.11305063       4.99264480       0.00000000       0.00000000       0.07202746       0.03106749      -0.02856608       0.07494709
H        0.17245120      -5.94990097       3.61628849       0.00000000       0.00000000      -0.00444107      -0.05615806       0.07150335       0.06441053
H        5.10605003       0.07447959      -0.36104596       0.00000000       0.00000000      -0.02684931       0.06646769       0.01873673       0.03194431
H        7.51924427      -0.37518743      -0.61570547       0.00000000       0.00000000      -0.03118928       0.03725964       0.06252365       0.06137748
H        8.59416353      -0.14491929      -2.81186811       0.00000000       0.00000000       0.01139173      -0.01906259      -0.00938190       0.07215347
H        7.22144442       0.40169173      -4.80015858       0.00000000       0.00000000       0.05003022      -0.03916279      -0.01124584       0.07348465
H        4.80610072       0.72336954      -4.57409642       0.00000000       0.00000000       0.04997253       0.04816735      -0.06075709       0.06396667
N       -1.24331422      -1.38667084      -1.91897073       0.00000000       0.00000000       0.04034300      -0.17348854       0.07122917       0.78576915
O       -1.77548855      -1.82048702      -2.88529419       0.00000000       0.00000000      -0.06586746       0.11924764       0.03485063      -0.37043559
O       -1.85438863      -1.17953014      -0.85808252       0.00000000       0.00000000      -0.09782555      -0.00741689       0.12650917      -0.44081972
O       -0.01873414      -1.14671138      -1.89836494       0.00000000       0.00000000       0.05464262      -0.02015409      -0.03343190      -0.45592909
