69
Properties=species:S:1:pos:R:3:initial_charges:R:1:initial_magmoms:R:1:forces:R:3:charge:R:1 energy=-2688.9840434520024 free_energy=-2688.9840434520024 dipole="5.3245087220258895 4.944967529567982 3.4628947318715038" pbc="F F F"
Tm       1.98777409       1.37278800       1.39977504       3.00000000       0.00000000      -0.00490959       0.05693418      -0.10916682       0.67454138
C        4.67865924       2.81450465      -0.15059393       0.00000000       0.00000000       0.02337611      -0.02626938      -0.02907231      -0.10943268
C        3.88282417       2.27252629      -1.32531434       0.00000000       0.00000000      -0.00769678       0.06932401      -0.02498328       0.00609196
C        2.49166175       2.93769353      -1.54566226       0.00000000       0.00000000      -0.06131378       0.02980706       0.05151175      -0.05687770
C        2.04634331       2.41712569      -2.93150062       0.00000000       0.00000000       0.00238327      -0.02632240       0.00364554      -0.07277048
C        3.23229414       1.53064199      -3.38809054       0.00000000       0.00000000       0.10610439      -0.02899637      -0.03833370      -0.03368866
C        3.15274624       0.33855441      -2.48634613       0.00000000       0.00000000       0.03556450       0.01269972      -0.03862541       0.10162817
N        2.61401594      -0.85166587      -2.59048192       0.00000000       0.00000000      -0.03250800       0.07145672       0.05154602      -0.05209063
N        2.52677947      -1.59918670      -1.52369977       0.00000000       0.00000000       0.10695319       0.00547951       0.01941194      -0.08085616
C        2.78970635      -1.12673918      -0.33208311       0.00000000       0.00000000      -0.12050005      -0.02434122       0.03850523       0.16366033
C        2.33535364      -1.80411432       0.91325982       0.00000000       0.00000000      -0.07716438      -0.01099571       0.07358687       0.09940076
C        2.46164359      -3.13824158       1.27671370       0.00000000       0.00000000       0.06618813      -0.02834674       0.08164502      -0.00220276
C        1.98389212      -3.53589655       2.52683841       0.00000000       0.00000000      -0.02212994       0.04475552       0.03356173       0.02677930
C        1.29173398      -2.63702034       3.33609765       0.00000000       0.00000000       0.02635827       0.02016997      -0.02205051      -0.00228146
C        1.16222028      -1.33301712       2.88037621       0.00000000       0.00000000      -0.05570340       0.17261586      -0.03264598       0.09891435
C        0.38841068      -0.21777830       3.49422400       0.00000000       0.00000000       0.06515682      -0.05837629       0.08590450       0.16218952
N       -0.87630865      -0.38135791       3.78085576       0.00000000       0.00000000      -0.06937322      -0.00467659       0.01689323      -0.08588152
N       -1.67663760       0.64434877       3.89726815       0.00000000       0.00000000       0.01628215       0.06653417      -0.01731941      -0.05148169
C       -1.16067124       1.84616465       3.89766858       0.00000000       0.00000000      -0.03133835      -0.05484018       0.15747416       0.09586290
C        0.25164372       2.02171444       3.81983197       0.00000000       0.00000000      -0.03333867       0.03702062      -0.07408327       0.11380925
N        1.02735517       1.00833791       3.47020866       0.00000000       0.00000000       0.05613217       0.01892122      -0.04409283      -0.19590065
C        0.53861742       3.48412120       3.83314287       0.00000000       0.00000000      -0.03067487      -0.02253929       0.09709374       0.00780349
C        1.96767019       3.85620692       3.46999232       0.00000000       0.00000000      -0.05383114       0.02847910       0.10045945      -0.11168100
C        0.08390438       3.95225961       5.24946824       0.00000000       0.00000000      -0.06245206      -0.01321692       0.04106847      -0.07178514
C       -1.45414447       3.83484949       5.22620917       0.00000000       0.00000000      -0.00714814      -0.07274979      -0.05276768      -0.07197061
C       -1.74305009       3.21608538       3.83612911       0.00000000       0.00000000       0.03226563       0.07900093      -0.01159896      -0.03356825
C       -0.67538517       3.95954434       2.95413014       0.00000000       0.00000000      -0.05249437      -0.05481496      -0.02067170       0.02222221
C       -0.84836962       5.47099341       2.88578153       0.00000000       0.00000000       0.01624211      -0.06064202       0.03603415      -0.14151450
C       -0.58947269       3.43690685       1.51071111       0.00000000       0.00000000      -0.02730248      -0.03654812      -0.02386555      -0.12194375
N        1.71375255      -0.91715160       1.72282103       0.00000000       0.00000000       0.05431166      -0.14382549       0.06899597      -0.17823758
N        3.22755466       0.16460680      -0.10659432       0.00000000       0.00000000       0.03203912       0.01725618      -0.02302144      -0.18181850
C        3.52285270       0.82845152      -1.20576387       0.00000000       0.00000000       0.08123562       0.03889632      -0.00094383       0.11351921
C        4.45342604       2.30036105      -2.79598639       0.00000000       0.00000000       0.00602923      -0.00614063       0.00686635       0.02882269
C        4.68633495       3.70235460      -3.34455328       0.00000000       0.00000000      -0.01252985      -0.00533551       0.00950160      -0.14071735
C        5.73379924       1.49740416      -2.97283471       0.00000000       0.00000000       0.02085649      -0.03541867       0.03976062      -0.13088707
H        4.19679036       2.54284997       0.83685001       0.00000000       0.00000000      -0.03029285       0.06662158      -0.03724125       0.07792860
H        4.78263373       3.89717144      -0.20800376       0.00000000       0.00000000       0.02814797      -0.03651723      -0.00927810       0.11054955
H        5.67666940       2.37212792      -0.14173699       0.00000000       0.00000000      -0.03143156       0.08191859      -0.02490571       0.11711473
H        2.59839811       4.02204618      -1.54597660       0.00000000       0.00000000       0.04233929       0.02208641      -0.03877283       0.10687427
H        1.77075898       2.67906957      -0.71360123       0.00000000       0.00000000      -0.02322351      -0.08807551       0.01083461       0.06365108
H        1.92211097       3.22911172      -3.64666534       0.00000000       0.00000000      -0.01025292      -0.01930084       0.04622760       0.11718371
H        1.12011516       1.84758585      -2.90496191       0.00000000       0.00000000      -0.07868643       0.04359328       0.00937299       0.06496318
H        3.25086841       1.30864806      -4.44786405       0.00000000       0.00000000       0.00764287       0.02138676      -0.06684148       0.12024209
H        2.95640401      -3.84533371       0.63070441       0.00000000       0.00000000       0.01795138       0.00122023      -0.08397959       0.13745981
H        2.15373729      -4.54466430       2.88077896       0.00000000       0.00000000      -0.06871771       0.01531274      -0.11235062       0.14394332
H        0.89126983      -2.91958122       4.29978200       0.00000000       0.00000000      -0.02675763      -0.04195782      -0.10212651       0.13685947
H        2.63887121       3.41137684       4.21236291       0.00000000       0.00000000       0.05535187       0.04351426      -0.07953104       0.11206797
H        2.11298943       4.93661829       3.51438568       0.00000000       0.00000000      -0.05472993      -0.04510325      -0.04762808       0.12721945
H        2.25522559       3.51225224       2.42826182       0.00000000       0.00000000       0.00036911       0.04721451      -0.05448462       0.09626022
H        0.40681695       4.97763936       5.41549780       0.00000000       0.00000000       0.03986038      -0.02516748       0.03975794       0.10013860
H        0.52795312       3.32621266       6.02060855       0.00000000       0.00000000       0.02745872       0.03801708       0.06133908       0.07853250
H       -1.94984032       4.80235216       5.29460760       0.00000000       0.00000000       0.04409401      -0.06614545       0.04030227       0.10625744
H       -1.84809140       3.21891897       6.03146481       0.00000000       0.00000000       0.04752992      -0.06061187      -0.00699264       0.09362574
H       -2.78482145       3.25321364       3.53227577       0.00000000       0.00000000       0.03513417       0.08452334      -0.01032299       0.10776300
H       -0.90125271       5.93303549       3.86285388       0.00000000       0.00000000       0.01022841       0.04462473      -0.02272191       0.09561789
H       -1.77305575       5.70445872       2.36356250       0.00000000       0.00000000       0.03710001       0.03208227      -0.01381058       0.09396446
H       -0.01767360       5.92201055       2.34643150       0.00000000       0.00000000      -0.07992513       0.02450354      -0.02221959       0.06984811
H       -0.44030417       2.33630088       1.45947001       0.00000000       0.00000000      -0.01687132       0.00512372       0.01082707       0.06034457
H        0.18912624       3.97409720       0.94586219       0.00000000       0.00000000      -0.03784050       0.02110366       0.05203462       0.08827371
H       -1.53450348       3.64246929       1.00636603       0.00000000       0.00000000       0.01744413       0.02922141       0.00164952       0.11601113
H        3.86691473       4.39711155      -3.19900163       0.00000000       0.00000000      -0.05650237      -0.06352035      -0.03607774       0.06038966
H        4.88752456       3.65226252      -4.41126961       0.00000000       0.00000000       0.00291496      -0.05090527       0.01256685       0.09660827
H        5.56436111       4.13107396      -2.86998867       0.00000000       0.00000000       0.06102915      -0.00828677      -0.01888969       0.08167256
H        5.63288384       0.48172109      -2.59829104       0.00000000       0.00000000       0.03410337      -0.07894644      -0.00128939       0.04530627
H        6.57495012       1.96568460      -2.47094828       0.00000000       0.00000000       0.01567818       0.04666080      -0.00678677       0.07838123
H        5.96708805       1.44655804      -4.03336636       0.00000000       0.00000000       0.05559060      -0.04232560       0.02948508       0.09729997
O        0.07857113       0.63956161      -0.25171596       0.00000000       0.00000000      -0.04844684      -0.11277073       0.10564925      -0.51984897
H        0.08503919       0.12346986      -1.08078867       0.00000000       0.00000000       0.03149518       0.05572722       0.04874016       0.36744447
H       -0.84691914       0.54020281       0.03863538       0.00000000       0.00000000      -0.03285476      -0.03977632      -0.12275957       0.36239458
