124
Properties=species:S:1:pos:R:3:initial_charges:R:1:initial_magmoms:R:1:forces:R:3:charge:R:1 energy=-4577.110691282653 free_energy=-4577.110691282653 dipole="-0.07182785047761887 0.3260470489353907 0.16969879916582684" pbc="F F F"
Ce       0.00786245       0.01473295      -0.00988870       3.00000000       0.00000000      -0.01767662       0.00485361       0.03967836       0.89327722
C       -3.85511254       0.81986877       4.96940511       0.00000000       0.00000000      -0.00608795       0.01254400       0.00625903      -0.12806960
C       -3.86038897       1.65447043       3.69753491       0.00000000       0.00000000       0.01964330       0.06857879      -0.08506056      -0.02278917
N       -2.53590305       1.81261774       3.12157916       0.00000000       0.00000000       0.02103798       0.01392873      -0.04122333      -0.05058847
C       -1.61800154       2.68797203       3.84480408       0.00000000       0.00000000       0.02280717      -0.02050398       0.01679435      -0.01104528
C       -1.97498134       4.16468775       3.72792185       0.00000000       0.00000000       0.01057104       0.00598100      -0.00279866      -0.12556940
C       -2.12137214       1.22283947       2.01134785       0.00000000       0.00000000      -0.04879342      -0.03746835       0.08659204       0.25632994
O       -0.98320303       1.39902134       1.53819746       0.00000000       0.00000000       0.04177573       0.13231452       0.00212961      -0.40459431
C       -3.03401349       0.23592646       1.27776580       0.00000000       0.00000000      -0.10006555      -0.02220446       0.04758730       0.03878345
O       -2.46503309      -0.08041004       0.01714229       0.00000000       0.00000000      -0.09665625      -0.02140801      -0.01702135      -0.21974382
C       -3.11645245       0.47812620      -1.11423860       0.00000000       0.00000000      -0.14288262      -0.01765193      -0.03759444       0.04225998
C       -2.12947971       1.30335874      -1.94488769       0.00000000       0.00000000      -0.06034131      -0.03023158      -0.02614344       0.25981289
O       -0.94834796       1.37662255      -1.56316359       0.00000000       0.00000000       0.00668997       0.11706664       0.00387059      -0.39942230
N       -2.56882776       1.90957507      -3.03638730       0.00000000       0.00000000       0.04168231      -0.01716595       0.07632363      -0.05048785
C       -3.93469738       1.83614374      -3.52645096       0.00000000       0.00000000       0.07347267       0.09698978       0.08203886      -0.02328587
C       -4.06747212       0.87615604      -4.69927408       0.00000000       0.00000000      -0.01151883       0.01340287      -0.00335603      -0.12824743
C       -1.63746100       2.70757508      -3.82618498       0.00000000       0.00000000       0.01702021      -0.03368024      -0.02102757      -0.01102884
C       -1.78874030       4.20082559      -3.56645390       0.00000000       0.00000000       0.01402977       0.02730485       0.00672579      -0.12499902
H       -4.87549872       0.71283253       5.31844665       0.00000000       0.00000000      -0.05648089      -0.04732472       0.03636096       0.08689835
H       -3.43956239      -0.16707498       4.79091835       0.00000000       0.00000000      -0.00238818      -0.04273106      -0.01884172       0.04771211
H       -3.28743187       1.30365172       5.75555189       0.00000000       0.00000000       0.01931393       0.00363863       0.07811785       0.06992502
H       -4.50538997       1.19163573       2.95755228       0.00000000       0.00000000      -0.17342348       0.01377443       0.08958876       0.06000798
H       -4.23998448       2.65565929       3.90654658       0.00000000       0.00000000      -0.08484435      -0.00885564       0.08817537       0.09276211
H       -1.62743191       2.39428559       4.89611701       0.00000000       0.00000000       0.01322118       0.00346287      -0.01007026       0.07919104
H       -0.62669938       2.49237365       3.42938399       0.00000000       0.00000000       0.02555364       0.06598989       0.08082310       0.06353482
H       -2.94288274       4.37788280       4.17067322       0.00000000       0.00000000      -0.02013919      -0.01227430       0.00336458       0.07142207
H       -1.23988577       4.75110100       4.26982460       0.00000000       0.00000000       0.04345071       0.02132434      -0.00546913       0.07357704
H       -1.98858095       4.49382705       2.69299069       0.00000000       0.00000000       0.01376341      -0.03634498      -0.04661347       0.05442505
H       -3.06219942      -0.69993351       1.84627259       0.00000000       0.00000000      -0.02511149      -0.02160337       0.09520787       0.11987360
H       -4.05218632       0.61001818       1.16884900       0.00000000       0.00000000      -0.09389226       0.05393028      -0.10012100       0.08256654
H       -3.49933091      -0.35782279      -1.71026765       0.00000000       0.00000000      -0.05090131      -0.01090254      -0.12400898       0.10462634
H       -3.95092421       1.11449811      -0.81056716       0.00000000       0.00000000      -0.08022867       0.04445889       0.07035928       0.08330639
H       -4.58384822       1.53133961      -2.70967197       0.00000000       0.00000000      -0.14955829       0.03552340      -0.10917624       0.06024637
H       -4.21469093       2.84487398      -3.83106942       0.00000000       0.00000000      -0.11078520       0.00130014      -0.08581734       0.09370980
H       -3.73797067      -0.12203177      -4.42886386       0.00000000       0.00000000      -0.00692985      -0.04613194       0.03031227       0.04816086
H       -5.10563774       0.83372008      -5.00483965       0.00000000       0.00000000      -0.08415293      -0.04018444      -0.03292964       0.08706442
H       -3.48606249       1.21649938      -5.54843903       0.00000000       0.00000000       0.02081083      -0.00725525      -0.07545416       0.06876767
H       -0.63363277       2.36467100      -3.56258243       0.00000000       0.00000000       0.01691972       0.05608140      -0.06345829       0.06480690
H       -1.82084547       2.50027440      -4.88053228       0.00000000       0.00000000       0.00874183      -0.00777259      -0.02233938       0.08211556
H       -1.62117443       4.44147629      -2.52103142       0.00000000       0.00000000       0.01975698      -0.03501844       0.06510847       0.05115299
H       -1.07103296       4.74648649      -4.16927773       0.00000000       0.00000000       0.06110864       0.02046250      -0.02305394       0.07380922
H       -2.77652732       4.55422556      -3.84467349       0.00000000       0.00000000      -0.04051203      -0.01375147      -0.00309072       0.07044008
C        3.93387417      -0.50151931       3.37463246       0.00000000       0.00000000       0.02088507      -0.02294904      -0.00788584      -0.12252985
C        2.87017792       0.37370789       4.02459243       0.00000000       0.00000000      -0.01134249       0.03008415       0.01258548      -0.00667283
N        2.55200474       1.56688966       3.23938573       0.00000000       0.00000000      -0.00209735      -0.01830171      -0.02991869      -0.05308202
C        2.95191881       2.86526372       3.77341250       0.00000000       0.00000000      -0.10389455      -0.11130775      -0.00156510      -0.02244793
C        4.31658184       3.31646096       3.27387989       0.00000000       0.00000000       0.01234541       0.02561986       0.01362310      -0.12670988
C        1.96683318       1.40159510       2.06249993       0.00000000       0.00000000      -0.07998350      -0.05288040      -0.05530449       0.26199208
O        1.64049906       0.28236201       1.61985838       0.00000000       0.00000000       0.09333457       0.01881085       0.07509450      -0.39475786
C        1.65201883       2.63091757       1.20029361       0.00000000       0.00000000       0.05938309       0.11040392       0.02174236       0.04305880
O        1.09257065       2.17824705      -0.02092087       0.00000000       0.00000000       0.04213418       0.08163759       0.00977776      -0.21887258
C        1.71292399       2.58578915      -1.22844300       0.00000000       0.00000000       0.05943206       0.11779747      -0.01862291       0.04305098
C        1.99809005       1.33551998      -2.07266934       0.00000000       0.00000000      -0.00673430       0.07005352      -0.02782161       0.26319235
O        1.62768220       0.23193425      -1.63349015       0.00000000       0.00000000       0.06256541      -0.07664215      -0.01556671      -0.39069922
N        2.61248045       1.47798466      -3.23881134       0.00000000       0.00000000      -0.03323326      -0.02834914       0.08751327      -0.05345541
C        3.09474835       2.75651568      -3.74872137       0.00000000       0.00000000      -0.11332276      -0.09773888      -0.00903967      -0.02258219
C        4.49610775       3.08563530      -3.25536725       0.00000000       0.00000000       0.01262040       0.02967185      -0.01993552      -0.12642872
C        2.90246272       0.27783942      -4.02353303       0.00000000       0.00000000      -0.00466942       0.02978503      -0.02161030      -0.00689988
C        3.89037022      -0.66098926      -3.34358275       0.00000000       0.00000000       0.01812019      -0.02652066       0.00620352      -0.12253997
H        4.10468942      -1.37227972       3.99901993       0.00000000       0.00000000       0.04719269      -0.04177670       0.03099515       0.06888606
H        4.87588777       0.02617912       3.26869397       0.00000000       0.00000000       0.01218051       0.06464195       0.03028886       0.06973571
H        3.61198697      -0.83137590       2.39172279       0.00000000       0.00000000      -0.01280818       0.00795894      -0.06631405       0.05416236
H        3.22020771       0.71221355       4.99756800       0.00000000       0.00000000      -0.01159254      -0.05759124       0.06498007       0.08503713
H        1.94918739      -0.20633377       4.15909064       0.00000000       0.00000000       0.00541759       0.06484288      -0.06178027       0.05976995
H        2.98192769       2.76777192       4.85931674       0.00000000       0.00000000       0.00830078       0.04920344       0.01396418       0.09044909
H        2.19026562       3.60995559       3.53254691       0.00000000       0.00000000       0.01367444      -0.01120561      -0.04210154       0.05973449
H        5.09317918       2.61578268       3.55964647       0.00000000       0.00000000       0.01583687      -0.04072691       0.03926066       0.07459004
H        4.54554997       4.27704280       3.71881980       0.00000000       0.00000000       0.07722090       0.08597911       0.04127406       0.08692226
H        4.33617052       3.43094988       2.19562249       0.00000000       0.00000000       0.04014793      -0.00883640      -0.05804580       0.04375471
H        2.55334636       3.22396744       1.04432228       0.00000000       0.00000000       0.11398564       0.06091776      -0.08498900       0.08850266
H        0.90242739       3.26116459       1.69655854       0.00000000       0.00000000      -0.00459436       0.01502841       0.06265208       0.10203793
H        2.63962153       3.13134049      -1.04700836       0.00000000       0.00000000       0.11255339       0.06327847       0.07733735       0.08803262
H        1.01223077       3.24582878      -1.75622339       0.00000000       0.00000000      -0.00355035       0.02198159      -0.07834844       0.10060232
H        2.39331606       3.54638670      -3.47507835       0.00000000       0.00000000       0.01916014       0.00514538       0.02312875       0.05988822
H        3.10078269       2.68826551      -4.83731611       0.00000000       0.00000000       0.01763102       0.03627615      -0.01924391       0.08995346
H        4.53736060       3.15712855      -2.17349567       0.00000000       0.00000000       0.02595205      -0.01196914       0.05002891       0.04393245
H        4.79451162       4.03983034      -3.67147869       0.00000000       0.00000000       0.08252647       0.09089668      -0.03065896       0.08625012
H        5.21090211       2.33691282      -3.57816973       0.00000000       0.00000000       0.02077315      -0.03680244      -0.03588112       0.07440052
H        3.31085557       0.61125854      -4.97530216       0.00000000       0.00000000      -0.01002300      -0.06456289      -0.07022199       0.08568856
H        1.96040457      -0.25226397      -4.20681513       0.00000000       0.00000000       0.00353238       0.05910281       0.06131648       0.06089831
H        4.85079948      -0.18299903      -3.18131527       0.00000000       0.00000000       0.01498078       0.06307243      -0.02895116       0.06855166
H        4.04756818      -1.52527506      -3.98043661       0.00000000       0.00000000       0.04830883      -0.04557542      -0.02784907       0.06868342
H        3.50516053      -0.99453278      -2.38498923       0.00000000       0.00000000      -0.01395619       0.00462313       0.06451302       0.05491263
C        1.37017282      -3.47619073       5.13393298       0.00000000       0.00000000      -0.00659363      -0.00764198      -0.01642355      -0.12859780
C        0.69035699      -3.98248426       3.86764813       0.00000000       0.00000000      -0.11165412       0.01317663      -0.12301086      -0.02209740
N       -0.15785966      -2.96736890       3.25686989       0.00000000       0.00000000       0.00245867       0.03208796      -0.03570258      -0.05003531
C       -1.36279903      -2.60049404       3.99938307       0.00000000       0.00000000       0.01859881       0.00877486       0.01283306      -0.00907099
C       -2.62478706      -3.15387275       3.34754405       0.00000000       0.00000000      -0.01256130       0.00107958      -0.02087630      -0.12382266
C        0.06813476      -2.36814918       2.09889688       0.00000000       0.00000000       0.03367294       0.07174347      -0.01242822       0.25887651
O       -0.66749962      -1.46230018       1.66020018       0.00000000       0.00000000      -0.05463339      -0.06796219       0.03380546      -0.39890281
C        1.26203363      -2.79123394       1.23268073       0.00000000       0.00000000       0.07641084      -0.09751125       0.03489776       0.04187937
O        1.20079674      -2.08575233      -0.00124014       0.00000000       0.00000000       0.05205869      -0.07034319       0.00559424      -0.22179476
C        1.13695662      -2.86704861      -1.18791446       0.00000000       0.00000000       0.08241694      -0.11189036      -0.02696598       0.04241208
C       -0.04763817      -2.39261487      -2.04246647       0.00000000       0.00000000       0.08540017      -0.04426971      -0.05283673       0.26048869
O       -0.72704195      -1.43892283      -1.62356055       0.00000000       0.00000000      -0.09900877      -0.00672882       0.00323684      -0.39194571
N       -0.32102907      -3.01863511      -3.17688883       0.00000000       0.00000000       0.01456287       0.05875723       0.08812676      -0.05042280
C        0.46993347      -4.09299637      -3.76038861       0.00000000       0.00000000      -0.11300483       0.00930850       0.11375691      -0.02237240
C        1.20822045      -3.63662737      -5.01226527       0.00000000       0.00000000      -0.00387823      -0.01060116       0.01073315      -0.12860685
C       -1.50116981      -2.60187127      -3.93268380       0.00000000       0.00000000       0.02158002       0.00224523      -0.02100163      -0.00894062
C       -2.79720271      -2.97424611      -3.22348756       0.00000000       0.00000000      -0.01479899       0.00545973       0.01963429      -0.12342660
H        2.00324490      -4.26075596       5.53190732       0.00000000       0.00000000       0.06428702      -0.03991738       0.00841463       0.08809796
H        1.98194584      -2.60420127       4.92705757       0.00000000       0.00000000       0.04899988       0.02497774      -0.03577290       0.05106939
H        0.64983788      -3.21743527       5.90194340       0.00000000       0.00000000      -0.02038786       0.01357811       0.04870232       0.06878703
H        1.44208969      -4.29529415       3.14769920       0.00000000       0.00000000       0.03978856      -0.08570253       0.06587299       0.06248836
H        0.05328464      -4.83809175       4.10240962       0.00000000       0.00000000       0.03404278      -0.06333067       0.05070130       0.09070730
H       -1.25946369      -3.00985619       5.00158546       0.00000000       0.00000000      -0.07075325       0.06339089       0.04724551       0.08944837
H       -1.41173180      -1.50756003       4.05679168       0.00000000       0.00000000       0.01238712      -0.03472331      -0.02660627       0.06018235
H       -2.62673953      -4.23987031       3.34812159       0.00000000       0.00000000       0.04748581      -0.01832668       0.04014033       0.07056116
H       -3.49668904      -2.81634468       3.89924877       0.00000000       0.00000000      -0.02699593      -0.01951830       0.02776166       0.07068758
H       -2.70689565      -2.81515810       2.31874537       0.00000000       0.00000000       0.00874935       0.00711859      -0.06794099       0.05063694
H        2.20257478      -2.51872444       1.72635117       0.00000000       0.00000000       0.03751800       0.00650366       0.06713393       0.10746934
H        1.24203360      -3.87180698       1.07619425       0.00000000       0.00000000      -0.00040523      -0.10429130      -0.07859832       0.08568341
H        2.07849557      -2.72838175      -1.73236120       0.00000000       0.00000000       0.04888611      -0.01098851      -0.08741148       0.10299444
H        1.00791618      -3.92714914      -0.95742588       0.00000000       0.00000000      -0.00335678      -0.10719916       0.07440571       0.08545284
H        1.17966853      -4.45583553      -3.02156393       0.00000000       0.00000000       0.03814412      -0.08704650      -0.06950050       0.06169270
H       -0.21857774      -4.90444753      -4.00505613       0.00000000       0.00000000       0.02606181      -0.06883543      -0.05689705       0.09089595
H        1.87131049      -2.80612283      -4.79251225       0.00000000       0.00000000       0.04838538       0.02427300       0.03495787       0.05055072
H        1.79628049      -4.46115246      -5.39767624       0.00000000       0.00000000       0.06450325      -0.04829312      -0.01422279       0.08757066
H        0.51962230      -3.33168596      -5.79229926       0.00000000       0.00000000      -0.02045033       0.02242482      -0.05015031       0.06895970
H       -1.45246144      -1.51825288      -4.08397972       0.00000000       0.00000000       0.00468335      -0.02597238       0.02942080       0.06288480
H       -1.45400325      -3.10368964      -4.89639889       0.00000000       0.00000000      -0.06653464       0.06747245      -0.06015786       0.08915961
H       -2.84314553      -2.50416234      -2.24577497       0.00000000       0.00000000       0.00380832       0.00913575       0.07256007       0.05308992
H       -3.64181732      -2.63986864      -3.81763960       0.00000000       0.00000000      -0.03514287      -0.01656121      -0.02580938       0.06947723
H       -2.88322548      -4.04896557      -3.09368269       0.00000000       0.00000000       0.04887527      -0.02937628      -0.03299369       0.06814530
