120
Properties=species:S:1:pos:R:3:initial_charges:R:1:initial_magmoms:R:1:forces:R:3:charge:R:1 energy=-4793.240371660085 free_energy=-4793.240371660085 dipole="-0.313564604077498 0.5603311568195077 2.3591858674378448" pbc="F F F"
Ce      -0.27720882      -1.05023410      -1.09282733       3.00000000       0.00000000      -0.04735815       0.04007136       0.02415594       0.79924316
C       -3.22082156      -0.70722231      -4.88079815       0.00000000       0.00000000      -0.02386656      -0.01216107      -0.01456185      -0.11371232
C       -2.06264732       0.27250780      -4.74544372       0.00000000       0.00000000       0.00910669       0.06099140       0.02005144      -0.05063533
C       -2.53659814       1.65499090      -4.29098260       0.00000000       0.00000000       0.04614334       0.09240089       0.01841587      -0.06692825
C       -1.36064097       2.62406570      -4.08822636       0.00000000       0.00000000      -0.00707164       0.06964589       0.00264829      -0.06746067
C       -1.56537951       3.71544174      -3.02070216       0.00000000       0.00000000       0.02179081      -0.05665316      -0.08170861      -0.07225572
C       -1.13032830       3.31882306      -1.59913534       0.00000000       0.00000000       0.04352282       0.04733674      -0.16799868      -0.02945284
N       -2.16084885       2.61866107      -0.84333265       0.00000000       0.00000000       0.00212663       0.05531499      -0.02131471      -0.00955408
C       -2.90442530       3.25793446       0.13027925       0.00000000       0.00000000       0.05087098      -0.06831610       0.10471930       0.04012119
C       -2.15928402       4.28970895       0.88688978       0.00000000       0.00000000       0.05641765       0.00766498      -0.03899831       0.00746901
C       -1.68445373       3.79370736       2.11085854       0.00000000       0.00000000       0.03909267       0.03854243      -0.05348391      -0.04606477
C       -0.87478174       4.57378516       2.91238110       0.00000000       0.00000000       0.01986314      -0.02166756      -0.00371059      -0.02801476
C       -0.49381277       5.83890316       2.49298946       0.00000000       0.00000000      -0.02335016      -0.02323355       0.03897887      -0.01910421
C       -0.93471598       6.31646424       1.27154061       0.00000000       0.00000000       0.03601638       0.05410304      -0.00427662      -0.01958816
C       -1.76658111       5.55396411       0.46634161       0.00000000       0.00000000       0.01457537       0.07451578       0.01006453      -0.03200284
C       -3.99947888       2.64195571       0.74295996       0.00000000       0.00000000      -0.03501065      -0.04813413       0.00360007       0.00318786
C       -5.02611616       3.40027911       1.45658214       0.00000000       0.00000000       0.02159558      -0.05110659      -0.02324089       0.00784115
C       -6.30783569       2.83692123       1.56693193       0.00000000       0.00000000       0.04381537      -0.03233130      -0.05439307      -0.03033351
C       -7.33395759       3.52154603       2.18553310       0.00000000       0.00000000      -0.01295677       0.02812100      -0.08518247      -0.01795680
C       -7.12123009       4.79907821       2.68171406       0.00000000       0.00000000      -0.02176141      -0.04105843       0.01765148      -0.00603750
C       -5.86890350       5.37973615       2.56748940       0.00000000       0.00000000      -0.00465814      -0.01531605      -0.05613051      -0.01705788
C       -4.84005699       4.69823334       1.95457625       0.00000000       0.00000000       0.04558776      -0.10078890      -0.02907705      -0.03352975
C       -3.96931790       1.19805956       0.75644497       0.00000000       0.00000000       0.10624695       0.05276593       0.02445036       0.01317215
C       -4.48226667       0.41315305       1.81392041       0.00000000       0.00000000      -0.07324864       0.04595932      -0.14055044      -0.01101148
C       -3.91181727      -0.81914777       2.11142013       0.00000000       0.00000000      -0.03303893       0.03957292      -0.05154664       0.02448609
C       -4.17691273      -1.58384992       3.30346463       0.00000000       0.00000000       0.00021678       0.00990942      -0.04448914      -0.02534819
C       -3.23362133      -2.39066454       3.83886093       0.00000000       0.00000000       0.04643061       0.02160482       0.01980244      -0.02259307
C       -1.91076778      -2.44924728       3.26498069       0.00000000       0.00000000       0.14193034       0.02645526       0.04684095       0.02511544
C       -0.72941339      -2.65834955       3.98416716       0.00000000       0.00000000       0.14662302      -0.01717087       0.00315009      -0.00700392
C        0.50898332      -2.27488934       3.42898489       0.00000000       0.00000000       0.05540348       0.17603861      -0.05840699       0.01089231
C        1.70426267      -1.87988517       4.14314211       0.00000000       0.00000000       0.02742581       0.04362165       0.02485713       0.00005051
C        2.52294316      -2.67041542       5.03247991       0.00000000       0.00000000       0.02100886      -0.02039985       0.04765883       0.01839678
C        2.13154382      -3.79157232       5.77266502       0.00000000       0.00000000      -0.05606029      -0.10637339      -0.07774650      -0.02172932
C        3.06598942      -4.74258273       6.14646590       0.00000000       0.00000000       0.00070397      -0.00581282       0.02338952      -0.01359361
C        4.41332283      -4.59485482       5.83651755       0.00000000       0.00000000      -0.06554224       0.08184099       0.07851460      -0.00350206
C        4.83501669      -3.42176709       5.22432048       0.00000000       0.00000000      -0.00264707       0.04398556      -0.00635035      -0.01755434
C        3.91110069      -2.47619934       4.84578412       0.00000000       0.00000000       0.00568317      -0.05893909      -0.11557703      -0.02713622
C        2.23792304      -0.66514405       3.63773519       0.00000000       0.00000000      -0.11711965       0.02746143      -0.08410730       0.03990003
C        2.43791055       0.50974104       4.48902422       0.00000000       0.00000000       0.06204405      -0.07091920      -0.02877775       0.00459702
C        2.92215746       0.48232339       5.79947482       0.00000000       0.00000000      -0.00919642      -0.00052738       0.00411795      -0.02553600
C        2.94676201       1.63446352       6.56546893       0.00000000       0.00000000       0.03669274      -0.03106394       0.03938705      -0.01371532
C        2.53391822       2.84954696       6.04468134       0.00000000       0.00000000      -0.05120521      -0.03863743       0.01246424      -0.01149541
C        2.02116166       2.88474387       4.75933442       0.00000000       0.00000000      -0.04242975      -0.02974712      -0.03501610      -0.02601497
C        1.93945024       1.73301529       4.00587723       0.00000000       0.00000000       0.02145292      -0.01849197       0.02393967      -0.03983064
N        2.31924997      -0.46692742       2.25834358       0.00000000       0.00000000       0.05751582       0.05744719      -0.08513611      -0.02081068
C        3.39207249       0.44171131       1.80507074       0.00000000       0.00000000       0.10374379       0.03808139      -0.11921763      -0.01566728
C        4.00268978       0.09202456       0.44326836       0.00000000       0.00000000       0.04041330      -0.00364651       0.04269040      -0.07567178
C        4.64144357      -1.30478957       0.42961352       0.00000000       0.00000000      -0.02249792       0.12492187       0.05696942      -0.06512291
C        4.60535660      -1.95883422      -0.95378910       0.00000000       0.00000000      -0.02672145       0.09123646       0.11333997      -0.05790481
C        5.57811241      -3.13476509      -1.02957798       0.00000000       0.00000000      -0.02191601       0.02521620      -0.03326476      -0.06199456
C        5.30683978      -4.20558599       0.01838891       0.00000000       0.00000000       0.00960177      -0.02973837      -0.00381304      -0.10967208
C        1.58669209      -1.21105621       1.40671536       0.00000000       0.00000000      -0.06675599       0.06928698      -0.02581266       0.24258168
O        1.65106804      -1.15644444       0.13794217       0.00000000       0.00000000      -0.09518937      -0.16701477       0.05494902      -0.40090596
C        0.48892965      -1.91162779       2.05510464       0.00000000       0.00000000       0.04600840      -0.10874904      -0.09115795       0.05229350
N       -0.60901608      -1.92374719       1.29690588       0.00000000       0.00000000      -0.02287797       0.05972232      -0.01103413      -0.14961055
C       -1.79061770      -2.03422709       1.91113259       0.00000000       0.00000000       0.00385999      -0.13359600       0.00214114       0.08191351
C       -2.83813287      -1.25906547       1.29017059       0.00000000       0.00000000      -0.06239818      -0.10698506       0.05269751       0.08918182
N       -2.51198567      -0.66133998       0.14487794       0.00000000       0.00000000      -0.05357784      -0.05477157       0.10182555      -0.15970028
C       -3.02717835       0.55805107      -0.09030584       0.00000000       0.00000000      -0.02276115      -0.06401614      -0.02782923       0.05025992
C       -2.22056472       1.28707477      -1.03534414       0.00000000       0.00000000      -0.09728823       0.01837761      -0.00532672       0.24025242
O       -1.41317951       0.70062178      -1.81629882       0.00000000       0.00000000      -0.04785519       0.00859609       0.02129390      -0.38280087
H       -2.87403867      -1.66918804      -5.24699926       0.00000000       0.00000000       0.00624021      -0.04939227      -0.00066715       0.04374051
H       -3.95400933      -0.33196758      -5.58739917       0.00000000       0.00000000      -0.01563629       0.03523347      -0.04032315       0.06610631
H       -3.72202523      -0.85550698      -3.92589148       0.00000000       0.00000000       0.03002215      -0.00393986       0.04820001       0.03625709
H       -1.56131831       0.37975826      -5.70957532       0.00000000       0.00000000       0.04102293      -0.06246111       0.02263433       0.05273380
H       -1.33123429      -0.12711191      -4.00699781       0.00000000       0.00000000      -0.00240625      -0.04047117      -0.02022021       0.04138423
H       -3.11723909       1.54860574      -3.37333059       0.00000000       0.00000000       0.01552074       0.01539559      -0.01789707       0.03706423
H       -3.20398961       2.06284520      -5.05106420       0.00000000       0.00000000      -0.01314384      -0.02808859       0.02693711       0.06359693
H       -1.15575058       3.12249217      -5.03687891       0.00000000       0.00000000      -0.03214133      -0.02229543       0.00413064       0.06556216
H       -0.46010597       2.04534851      -3.84026834       0.00000000       0.00000000      -0.06099384       0.07352740       0.07228136       0.03083344
H       -2.60922118       4.03932516      -3.00862621       0.00000000       0.00000000       0.12956511       0.00689102      -0.05472424       0.07295894
H       -0.94037950       4.57046908      -3.29411960       0.00000000       0.00000000      -0.15556245      -0.03020850      -0.01009501       0.07310318
H       -0.83598420       4.20690811      -1.04070212       0.00000000       0.00000000      -0.03224977      -0.03280150      -0.05697423       0.08287068
H       -0.27661157       2.63690496      -1.68114031       0.00000000       0.00000000       0.05956580      -0.01883778       0.06046302       0.08268296
H       -1.97051454       2.79547086       2.42548152       0.00000000       0.00000000       0.02254771       0.09707795       0.01636495       0.01169001
H       -0.54286237       4.18403476       3.86074053       0.00000000       0.00000000      -0.01180176       0.01225709       0.05741037       0.05649555
H        0.13446239       6.45213389       3.11878809       0.00000000       0.00000000       0.00266483       0.00148534      -0.01220207       0.07409330
H       -0.61886969       7.28996297       0.94163334       0.00000000       0.00000000      -0.04332169       0.12276457      -0.04849441       0.07854269
H       -2.12576020       5.96267501      -0.46468394       0.00000000       0.00000000      -0.08804241       0.00287550      -0.00881374       0.06900165
H       -6.50976507       1.88418241       1.09700851       0.00000000       0.00000000      -0.04939377       0.05047525       0.04238539       0.04803480
H       -8.30845944       3.06529300       2.25606405       0.00000000       0.00000000      -0.02804563       0.03020814      -0.01627908       0.07179300
H       -7.92651544       5.35274960       3.12720191       0.00000000       0.00000000      -0.12995139       0.01065261       0.12187735       0.07954385
H       -5.68185143       6.37169924       2.94746908       0.00000000       0.00000000      -0.08046320       0.00722303      -0.00632279       0.06901851
H       -3.88883569       5.19104658       1.87557087       0.00000000       0.00000000      -0.00586528      -0.03449617       0.03758435       0.04906753
H       -5.20990556       0.83795813       2.48566726       0.00000000       0.00000000      -0.03587352      -0.02928499       0.07221564       0.10391864
H       -5.12850021      -1.45991983       3.79578726       0.00000000       0.00000000      -0.00535761       0.04199730      -0.00770075       0.10055976
H       -3.44809252      -2.91363584       4.75505510       0.00000000       0.00000000       0.12851392      -0.05707284       0.08565181       0.10001988
H       -0.77212138      -2.93359721       5.02595784       0.00000000       0.00000000      -0.08275003      -0.04597359       0.02208274       0.09632051
H        1.09481799      -3.93056525       6.03077272       0.00000000       0.00000000      -0.03325568      -0.06984983      -0.00822194       0.05616534
H        2.74341284      -5.62948224       6.66708387       0.00000000       0.00000000      -0.05911422       0.00161437       0.04716188       0.07843362
H        5.12994965      -5.37173262       6.06543469       0.00000000       0.00000000      -0.13317842       0.06957910       0.04820495       0.08356531
H        5.87567954      -3.26042774       4.98752348       0.00000000       0.00000000       0.00636067      -0.03427289       0.09493842       0.07205492
H        4.23092092      -1.60567496       4.29237196       0.00000000       0.00000000       0.10584485      -0.02717115      -0.03042801       0.04256177
H        3.28212885      -0.44057657       6.22459533       0.00000000       0.00000000       0.02502757      -0.01291547      -0.01274339       0.06676479
H        3.29547042       1.58857746       7.58213758       0.00000000       0.00000000       0.09248322      -0.04420671       0.06749288       0.08015354
H        2.57269156       3.74974982       6.63745870       0.00000000       0.00000000       0.06179205      -0.04235340       0.00126429       0.07846839
H        1.66881132       3.81168049       4.33798790       0.00000000       0.00000000      -0.02196458       0.06677516       0.01541049       0.05281691
H        1.42866361       1.77704181       3.05302645       0.00000000       0.00000000       0.00580834      -0.05681260      -0.00288548       0.00747812
H        4.17171671       0.41024836       2.57280417       0.00000000       0.00000000      -0.00466079      -0.01902543      -0.09693469       0.08881398
H        3.02376482       1.47044758       1.77308789       0.00000000       0.00000000      -0.02910004      -0.05605357      -0.05204007       0.06489914
H        4.76202467       0.84837892       0.22316489       0.00000000       0.00000000      -0.05846801      -0.06574532       0.07765920       0.06754597
H        3.22943607       0.16274247      -0.33094723       0.00000000       0.00000000       0.17029983       0.01213150       0.06555167       0.05710206
H        4.11481749      -1.95375610       1.13472773       0.00000000       0.00000000       0.06632025       0.03906000      -0.06653647       0.03730774
H        5.67828378      -1.22512561       0.76209448       0.00000000       0.00000000      -0.05525859      -0.00929295      -0.02336749       0.06122586
H        4.87986572      -1.22197359      -1.71473750       0.00000000       0.00000000       0.01862478      -0.03714409       0.04451358       0.03116969
H        3.57768754      -2.29603340      -1.15385793       0.00000000       0.00000000       0.02320634       0.02377703      -0.01571859       0.02334637
H        6.59109614      -2.75249548      -0.90134964       0.00000000       0.00000000       0.02196833      -0.03164045      -0.00423416       0.05312196
H        5.52111560      -3.57845501      -2.02240491       0.00000000       0.00000000      -0.00079179      -0.04440858      -0.07197197       0.04345283
H        5.49904264      -3.83224533       1.02026829       0.00000000       0.00000000      -0.01782036      -0.01198688       0.01884654       0.03532324
H        5.96109779      -5.05482500      -0.14557091       0.00000000       0.00000000       0.02082001      -0.04693054      -0.02632602       0.05864244
H        4.27740052      -4.55478554      -0.03616578       0.00000000       0.00000000      -0.01857924       0.00205558       0.00538507       0.02724975
O        0.32629050       1.11754184       0.35380638       0.00000000       0.00000000      -0.01215107       0.10371099       0.03729343      -0.52004370
H        1.19165080       1.47285768       0.09495000       0.00000000       0.00000000       0.01701829       0.02869726       0.04460410       0.35911300
H       -0.07000506       1.77763877       0.94051334       0.00000000       0.00000000      -0.03182749       0.10040866       0.06322352       0.33925213
O        0.66567860      -2.55506114      -2.96814198       0.00000000       0.00000000      -0.03534610       0.16239663      -0.03008797      -0.48426597
H        1.50516741      -3.04035779      -2.98388336       0.00000000       0.00000000       0.01071420      -0.03757426       0.11954777       0.35719675
H        0.31626507      -2.66840990      -3.86688776       0.00000000       0.00000000      -0.08141980      -0.00761842       0.01921777       0.35615803
O        1.29097761       0.34748792      -2.43919086       0.00000000       0.00000000       0.09823453       0.00266670       0.03835982      -0.48250038
H        2.25353581       0.21934283      -2.42975986       0.00000000       0.00000000       0.05438897      -0.03841508      -0.11429062       0.35993833
H        1.08530060       0.85073961      -3.24863258       0.00000000       0.00000000       0.01419065      -0.06563895       0.00207852       0.36515403
