340
Properties=species:S:1:pos:R:3:initial_charges:R:1:initial_magmoms:R:1:forces:R:3:charge:R:1 energy=-10774.81123119821 free_energy=-10774.81123119821 dipole="1.4368324269029689 -0.7228766224494416 -0.5219322096566612" pbc="F F F"
Nd      -0.08512255      -0.16110458       0.27802539       3.00000000       0.00000000       0.02455368      -0.02237318      -0.04272118       0.85259285
C        1.56267559       5.57101384      -3.92675738       0.00000000       0.00000000       0.02910891       0.02357938      -0.00677541      -0.10238583
C        1.87983640       6.54134350      -5.05932339       0.00000000       0.00000000       0.02177767       0.02478012      -0.01577934      -0.05857801
C        3.38275452       6.76143659      -5.25267218       0.00000000       0.00000000       0.01966601       0.02853676       0.03274198      -0.06353505
C        4.06794516       5.62064787      -6.00400442       0.00000000       0.00000000      -0.02729589      -0.01453558       0.00294262      -0.05680067
C        5.56370803       5.85202116      -6.22410407       0.00000000       0.00000000       0.01593856       0.00236800       0.01904768      -0.06472430
C        6.45171165       5.70339649      -4.98712315       0.00000000       0.00000000       0.02823112      -0.00976595       0.02806931      -0.06453904
C        6.53329962       4.26332551      -4.45338745       0.00000000       0.00000000       0.02349867      -0.02409363       0.00435672      -0.06353221
C        5.67237724       4.06747062      -3.20476623       0.00000000       0.00000000      -0.02716973      -0.02977445       0.00931668      -0.06390445
C        5.65700565       2.61537500      -2.70919382       0.00000000       0.00000000       0.00480666       0.00259005       0.08528517      -0.07316209
C        5.33252818       2.44351282      -1.21222767       0.00000000       0.00000000      -0.06465754       0.02339438       0.00439713      -0.02237550
N        3.91230091       2.53537206      -0.86703733       0.00000000       0.00000000      -0.01621263      -0.01291567      -0.01890417      -0.06546826
C        3.34794093       3.89005348      -0.91953939       0.00000000       0.00000000       0.00997260      -0.05143987      -0.04229699      -0.01145055
C        3.93886646       4.90722547       0.07231300       0.00000000       0.00000000      -0.07459555      -0.10227357      -0.00337585      -0.06937586
C        3.85412165       6.36028530      -0.44725399       0.00000000       0.00000000      -0.00009399      -0.06161896       0.01069919      -0.06580351
C        3.00123755       7.28498326       0.42471068       0.00000000       0.00000000      -0.00232412       0.00151675       0.01083657      -0.06810511
C        1.49998582       6.98022718       0.38101988       0.00000000       0.00000000      -0.00804443      -0.01920448       0.01540593      -0.06024519
C        0.77113583       7.68045743      -0.76695956       0.00000000       0.00000000       0.00711607      -0.00832469       0.00768705      -0.06805095
C       -0.60545120       7.08342649      -1.06786317       0.00000000       0.00000000      -0.03702975      -0.00775445       0.01060056      -0.05839408
C       -1.62563553       7.32085671       0.04629900       0.00000000       0.00000000      -0.03779030       0.00943373       0.02965483      -0.06270079
C       -3.06506055       6.96623373      -0.34224341       0.00000000       0.00000000       0.00653127      -0.01277548       0.00810546      -0.06247106
C       -3.35656162       5.46731277      -0.34706728       0.00000000       0.00000000       0.00878070       0.03946454      -0.00349608      -0.09652431
C        3.12066579       1.48222180      -0.65744350       0.00000000       0.00000000       0.05349892       0.03409404      -0.05321808       0.24946455
O        1.89593689       1.55404895      -0.43403155       0.00000000       0.00000000       0.03201549       0.04205418       0.00212413      -0.40137268
C        3.73487600       0.07835031      -0.68765645       0.00000000       0.00000000      -0.00712682       0.07709929       0.02505952       0.05115608
O        2.77431030      -0.85078587      -0.20931707       0.00000000       0.00000000       0.01046254       0.05553376       0.00187881      -0.23959462
C        3.17280762      -1.61309756       0.91946274       0.00000000       0.00000000       0.03328358       0.02082994      -0.02875404       0.04302675
C        2.17820218      -1.40377587       2.05564971       0.00000000       0.00000000       0.02088759      -0.00024916       0.01300877       0.26050743
O        1.29893970      -0.53255246       1.90216287       0.00000000       0.00000000      -0.04982394       0.00429557       0.09749883      -0.36784669
N        2.29017869      -2.12268843       3.16131152       0.00000000       0.00000000      -0.01573978       0.02250341      -0.02876444      -0.05184386
C        3.30117593      -3.15871941       3.32355565       0.00000000       0.00000000       0.00312181       0.04563012       0.03372535      -0.02493936
C        2.94305109      -4.48777936       2.64640371       0.00000000       0.00000000       0.03656219       0.02231162       0.03098057      -0.07218326
C        1.78688883      -5.22847568       3.30774312       0.00000000       0.00000000       0.00132166      -0.04861859       0.00293502      -0.06234805
C        1.68223935      -6.68517747       2.85239310       0.00000000       0.00000000      -0.03164594      -0.04846411      -0.02342139      -0.06775483
C        1.24336974      -6.87934209       1.39977957       0.00000000       0.00000000      -0.01546849       0.00090844      -0.00377534      -0.05891122
C       -0.22689410      -6.55475351       1.15416716       0.00000000       0.00000000       0.01394599      -0.00417339      -0.00255953      -0.10202288
C        1.22461187      -2.02517686       4.16126558       0.00000000       0.00000000      -0.00975339       0.01537547       0.00401603      -0.00923795
C        0.96071569      -0.61221725       4.70090464       0.00000000       0.00000000      -0.04425470       0.02818717       0.01592555      -0.06970444
C        0.24945928      -0.62262022       6.06211797       0.00000000       0.00000000      -0.01313271      -0.04205928       0.03645019      -0.06685891
C       -0.98419475      -1.52591171       6.16933656       0.00000000       0.00000000      -0.02902822      -0.06201473      -0.02714051      -0.07062862
C       -2.33022065      -0.94378344       5.73728010       0.00000000       0.00000000      -0.02328826       0.03266599      -0.00130050      -0.05964910
C       -2.41252861      -0.36891662       4.32596734       0.00000000       0.00000000       0.01225252      -0.00661358       0.00064747      -0.11098199
H        0.49470714       5.36300526      -3.88804523       0.00000000       0.00000000       0.02104815       0.00907212      -0.00953237       0.01538816
H        1.85844615       5.98925393      -2.96864537       0.00000000       0.00000000       0.00671695       0.05397991       0.00419295       0.03109215
H        2.09926771       4.63881801      -4.06860321       0.00000000       0.00000000       0.01321716      -0.01262748      -0.00949277       0.02266698
H        1.40089950       7.49688533      -4.84172493       0.00000000       0.00000000       0.00259097       0.01070045      -0.01043816       0.03984583
H        1.45455871       6.16395743      -5.99111822       0.00000000       0.00000000      -0.01771556       0.00898624      -0.00106533       0.03578566
H        3.85317944       6.90768757      -4.27909858       0.00000000       0.00000000       0.02048259       0.00043435       0.04792169       0.02990736
H        3.53019161       7.67975547      -5.82133527       0.00000000       0.00000000       0.00097220       0.00158783      -0.02103620       0.04510725
H        3.59546589       5.52695181      -6.98267411       0.00000000       0.00000000      -0.03184704       0.00265899      -0.05741475       0.03507725
H        3.91506065       4.67310454      -5.48525121       0.00000000       0.00000000       0.00422283      -0.04505534       0.02766750       0.01826251
H        5.70039646       6.85635935      -6.62650902       0.00000000       0.00000000       0.00156238       0.00058653      -0.03254706       0.04499459
H        5.91830685       5.14311927      -6.97512342       0.00000000       0.00000000      -0.00614031       0.02837234      -0.03855629       0.03955870
H        6.11575162       6.37211684      -4.19322714       0.00000000       0.00000000      -0.04862161      -0.00407352      -0.01209334       0.03639673
H        7.45183172       6.03684336      -5.26441901       0.00000000       0.00000000       0.01016437      -0.03596631      -0.03523503       0.04659221
H        7.56757960       4.02401809      -4.20638674       0.00000000       0.00000000       0.02176643      -0.01769201       0.02235112       0.03853113
H        6.21746659       3.56636898      -5.23217389       0.00000000       0.00000000      -0.00866658      -0.00276164       0.00985510       0.03912130
H        4.66385074       4.39375131      -3.45259510       0.00000000       0.00000000      -0.03750719       0.02067240       0.00943668       0.03928054
H        6.05476062       4.72215562      -2.41893144       0.00000000       0.00000000       0.01378641      -0.03525886      -0.00169638       0.04130447
H        6.65504148       2.19540339      -2.85106987       0.00000000       0.00000000      -0.00710356       0.03910684      -0.02211611       0.06283639
H        4.96384080       2.02299902      -3.30892349       0.00000000       0.00000000       0.08442889       0.05086190       0.02640840       0.04179685
H        5.86062235       3.22571459      -0.66187068       0.00000000       0.00000000      -0.02899221      -0.04591759      -0.00850670       0.08412209
H        5.72718155       1.48715561      -0.86984587       0.00000000       0.00000000      -0.02814043       0.07895014      -0.05391182       0.04943927
H        2.27218662       3.79497613      -0.76517065       0.00000000       0.00000000       0.05037963      -0.01872472       0.03616315       0.05265328
H        3.50353768       4.25652852      -1.93366661       0.00000000       0.00000000       0.02600427       0.01539745      -0.00962338       0.07870771
H        4.98112132       4.66994464       0.28180446       0.00000000       0.00000000      -0.02342279      -0.00194291      -0.06663750       0.04998770
H        3.41624324       4.82456785       1.02387378       0.00000000       0.00000000      -0.04307310       0.02347120       0.03526314       0.04578287
H        3.47092171       6.36921973      -1.46798884       0.00000000       0.00000000      -0.02932272       0.02291693       0.01872682       0.04213484
H        4.85955379       6.77807287      -0.48576729       0.00000000       0.00000000       0.01063001       0.01399373      -0.01110281       0.05189768
H        3.15971735       8.31240174       0.09990642       0.00000000       0.00000000       0.00482547       0.03449282      -0.01674454       0.05670236
H        3.36179096       7.22006266       1.45219081       0.00000000       0.00000000       0.00738605      -0.02834479       0.02909630       0.03872381
H        1.04752073       7.29749334       1.32085541       0.00000000       0.00000000      -0.00058110       0.01245310       0.00392160       0.03304240
H        1.36190369       5.89986436       0.29068976       0.00000000       0.00000000      -0.01213531      -0.01619763      -0.01113322       0.01066061
H        1.38043517       7.62510694      -1.66908725       0.00000000       0.00000000       0.00649795       0.00139541      -0.02463149       0.04063585
H        0.65142145       8.73607183      -0.52383211       0.00000000       0.00000000       0.02811938       0.01226171      -0.00848001       0.04942693
H       -0.49819486       6.01176422      -1.26267523       0.00000000       0.00000000       0.00394783      -0.02338124      -0.00968078       0.00431531
H       -0.98585616       7.54531277      -1.97989738       0.00000000       0.00000000       0.00402441       0.01238366      -0.02301331       0.04479046
H       -1.59686735       8.37776168       0.31214091       0.00000000       0.00000000       0.00426728       0.02515761      -0.02392996       0.04966531
H       -1.35163936       6.75722875       0.94216544       0.00000000       0.00000000       0.01536556       0.01029625       0.01356440       0.01421832
H       -3.28191975       7.37730473      -1.33003323       0.00000000       0.00000000      -0.00626789       0.00301501       0.03619734       0.04559158
H       -3.74386815       7.44303915       0.36751483       0.00000000       0.00000000       0.02525899      -0.01639704      -0.01986197       0.04728115
H       -2.76018906       4.95440031      -1.10258977       0.00000000       0.00000000      -0.02808718       0.02006045       0.02443339       0.01119789
H       -4.40619475       5.29538472      -0.57531128       0.00000000       0.00000000       0.03998535       0.00178465      -0.00631708       0.04568682
H       -3.15068923       5.02806556       0.63066254       0.00000000       0.00000000      -0.00707664       0.01319739      -0.04506163       0.02095659
H        4.62875355       0.05944687      -0.05956497       0.00000000       0.00000000       0.03365328      -0.05023389      -0.02315417       0.06925276
H        4.01622724      -0.19779914      -1.71520990       0.00000000       0.00000000      -0.05781107       0.03999465       0.05314180       0.08446896
H        4.17296481      -1.32980452       1.25867981       0.00000000       0.00000000       0.06755898      -0.02076810       0.01000600       0.08625235
H        3.18887990      -2.66258707       0.61673915       0.00000000       0.00000000       0.01097437      -0.04753991      -0.00185534       0.09868048
H        3.44486062      -3.32520752       4.39251284       0.00000000       0.00000000      -0.04394950      -0.00001857       0.01790257       0.08820568
H        4.25215140      -2.79150834       2.93146020       0.00000000       0.00000000      -0.01182315       0.00425039      -0.03061533       0.05839270
H        3.83320381      -5.11629591       2.69126648       0.00000000       0.00000000       0.00985095      -0.04042584       0.00936155       0.06870122
H        2.69679031      -4.31899523       1.59871283       0.00000000       0.00000000       0.01642670      -0.01875852       0.01153333       0.03852443
H        0.85223840      -4.71192126       3.09058737       0.00000000       0.00000000       0.01250269       0.00412938      -0.00265924       0.03295139
H        1.94257013      -5.23383530       4.38701528       0.00000000       0.00000000      -0.00745778       0.00811443       0.02686536       0.04325649
H        0.96779902      -7.19763820       3.49717530       0.00000000       0.00000000      -0.00714362      -0.01666835       0.01829101       0.05192464
H        2.64992169      -7.16980564       2.99845021       0.00000000       0.00000000      -0.01044213       0.03443564      -0.01811515       0.04632853
H        1.41372045      -7.92498094       1.13735075       0.00000000       0.00000000      -0.00342730       0.02483613      -0.01480943       0.04715276
H        1.85923263      -6.26659247       0.73974848       0.00000000       0.00000000       0.00924838      -0.02347065       0.01294098       0.02650999
H       -0.84935339      -7.12949184       1.83536433       0.00000000       0.00000000      -0.00802137       0.03315411       0.00203479       0.04430843
H       -0.50819782      -6.82804855       0.13872000       0.00000000       0.00000000       0.02051771       0.03149895      -0.00239438       0.03110487
H       -0.43023281      -5.49262434       1.29169080       0.00000000       0.00000000       0.00491693      -0.02794151       0.01251062       0.01775648
H        1.48714306      -2.69461641       4.97980449       0.00000000       0.00000000       0.00838948       0.05472151       0.03109945       0.08100874
H        0.31322655      -2.38396215       3.67609844       0.00000000       0.00000000      -0.04554472       0.01904110       0.04155825       0.07004165
H        0.35644398      -0.06615925       3.97758631       0.00000000       0.00000000       0.03542567       0.03671039      -0.07993756       0.07360660
H        1.91082688      -0.08569795       4.81948471       0.00000000       0.00000000      -0.00327319      -0.03731231      -0.01672491       0.04465831
H       -0.02756917       0.40135485       6.32156635       0.00000000       0.00000000       0.01905559      -0.02928160      -0.01015400       0.04872243
H        0.96488028      -0.95758331       6.81382079       0.00000000       0.00000000       0.05374539      -0.01896161       0.02323223       0.04686113
H       -1.10527468      -1.80627692       7.21774383       0.00000000       0.00000000       0.03785958       0.04365894       0.01977174       0.04831994
H       -0.80592707      -2.44659523       5.62131076       0.00000000       0.00000000       0.02333251      -0.08154205      -0.05929537       0.03671803
H       -2.61913655      -0.16984767       6.44811086       0.00000000       0.00000000      -0.02991558       0.05010385       0.00789814       0.04740230
H       -3.06738965      -1.74657865       5.83475420       0.00000000       0.00000000      -0.00726512       0.03777468       0.03827786       0.03099185
H       -3.45866707      -0.24571423       4.05400497       0.00000000       0.00000000       0.04679991      -0.00519754      -0.01631555       0.03837866
H       -1.95526404       0.60918622       4.26784227       0.00000000       0.00000000       0.00401912      -0.02655990       0.04458560       0.04482929
H       -1.91673408      -0.99433415       3.58498293       0.00000000       0.00000000      -0.04346865      -0.03073608       0.00067628       0.03802613
C        4.63662607       2.42081290      -8.98080172       0.00000000       0.00000000       0.03494278       0.00498431       0.01804162      -0.10190372
C        3.16434852       2.22891364      -9.33798976       0.00000000       0.00000000       0.06243449      -0.02150927       0.06470266      -0.05505515
C        2.79622286       0.73655428      -9.42596028       0.00000000       0.00000000      -0.01439674       0.04258620      -0.01174597      -0.06439577
C        1.40846733       0.43819540      -8.84555001       0.00000000       0.00000000       0.05341570       0.05246583       0.02805657      -0.05917580
C        0.81904801      -0.90704872      -9.28160038       0.00000000       0.00000000      -0.00485015       0.03635432       0.03012717      -0.06598534
C        1.24932185      -2.07507213      -8.38645699       0.00000000       0.00000000      -0.01720177      -0.05182552       0.04337359      -0.06348441
C        0.28600453      -2.22546440      -7.20232858       0.00000000       0.00000000      -0.00140491      -0.01064207       0.06379190      -0.05855708
C        0.76550869      -3.18479003      -6.11067297       0.00000000       0.00000000      -0.02609067      -0.01811731       0.04407780      -0.06589213
C       -0.14754207      -3.17262970      -4.87397741       0.00000000       0.00000000       0.00038188      -0.01896503       0.03119859      -0.06962028
C        0.22942578      -4.29001405      -3.87383159       0.00000000       0.00000000       0.03834429       0.02675766       0.00306502      -0.02651667
N        0.69022482      -3.82796669      -2.56496327       0.00000000       0.00000000      -0.03659382       0.03603163       0.03274058      -0.06773611
C        2.00532552      -4.26335136      -2.06100400       0.00000000       0.00000000      -0.04201729       0.13273344      -0.04227972      -0.00937340
C        2.35635041      -5.73212030      -2.31805925       0.00000000       0.00000000      -0.04223864       0.07477369       0.05654584      -0.07144752
C        3.85176766      -6.05805108      -2.17060937       0.00000000       0.00000000       0.04411091       0.02634405       0.02602422      -0.07178430
C        4.49249560      -5.94272767      -0.78339095       0.00000000       0.00000000       0.02381298       0.02555057       0.05737060      -0.07182060
C        4.96076479      -4.54454886      -0.34983413       0.00000000       0.00000000       0.00415318      -0.00538904       0.01404323      -0.06556779
C        6.40554124      -4.19846684      -0.72404416       0.00000000       0.00000000      -0.03047433      -0.00987511       0.01812672      -0.06857623
C        6.80101967      -2.79139354      -0.24644104       0.00000000       0.00000000       0.00757847      -0.02349248       0.00004337      -0.06091240
C        7.11094342      -2.76694945       1.25281119       0.00000000       0.00000000      -0.00736554      -0.03556664      -0.01314659      -0.06405420
C        7.71672989      -1.46363970       1.78456153       0.00000000       0.00000000       0.01716440      -0.05751076      -0.00653566      -0.06408626
C        6.70900977      -0.35265658       2.05892668       0.00000000       0.00000000       0.01398465      -0.01864287      -0.01705383      -0.09565633
C        0.01844361      -2.94177602      -1.82743217       0.00000000       0.00000000       0.02310537      -0.01847586       0.01652722       0.25412881
O        0.53576024      -2.28685747      -0.89683386       0.00000000       0.00000000       0.01534849      -0.05103027       0.03598625      -0.37693077
C       -1.48664689      -2.80698417      -2.05241314       0.00000000       0.00000000       0.00566443      -0.03306518       0.00002458       0.04348863
O       -2.03899392      -1.87190062      -1.13628862       0.00000000       0.00000000       0.07177779      -0.04373778      -0.00064179      -0.23828990
C       -2.98707756      -2.39254566      -0.22206017       0.00000000       0.00000000      -0.01065596       0.03393557      -0.03696362       0.04396508
C       -2.35265901      -2.62302899       1.14692490       0.00000000       0.00000000      -0.03434026       0.01773180       0.07571509       0.25252302
O       -1.30612265      -1.98568988       1.41999313       0.00000000       0.00000000      -0.01494420      -0.06742130       0.07725681      -0.38253416
N       -2.93891341      -3.48507429       1.97026133       0.00000000       0.00000000      -0.01375751      -0.04249246       0.01894554      -0.05326882
C       -4.25623858      -4.06224920       1.72210455       0.00000000       0.00000000      -0.07249005      -0.01971502       0.01194809      -0.03027501
C       -5.41364938      -3.05921840       1.60529206       0.00000000       0.00000000      -0.01850339       0.01524157       0.03335311      -0.07746343
C       -5.31265528      -1.92934036       2.62730126       0.00000000       0.00000000      -0.03689611       0.03259293      -0.01185439      -0.06526792
C       -6.41423673      -0.88255551       2.45435958       0.00000000       0.00000000      -0.01551446       0.04187520      -0.04441174      -0.06811477
C       -6.19855439       0.07377056       1.27791012       0.00000000       0.00000000       0.01712648       0.02469941      -0.00977199      -0.05808006
C       -4.99930330       1.00633564       1.44572306       0.00000000       0.00000000       0.01572509      -0.00450376       0.00425399      -0.10006971
C       -2.35197160      -3.73069977       3.29454594       0.00000000       0.00000000       0.00961334       0.02528642       0.03461747      -0.01430015
C       -2.49380856      -5.15987187       3.84496074       0.00000000       0.00000000       0.01206334       0.04884258      -0.07587568      -0.07328515
C       -1.40861587      -5.51425929       4.88434179       0.00000000       0.00000000      -0.01542327       0.00160619      -0.02999583      -0.06637065
C       -1.81587609      -5.39851053       6.35489468       0.00000000       0.00000000      -0.01925118       0.04208728       0.00174978      -0.06641136
C       -0.67351731      -5.77478357       7.30987362       0.00000000       0.00000000      -0.04977703      -0.00546200      -0.02485602      -0.06123811
C        0.49971379      -4.80063996       7.29575044       0.00000000       0.00000000      -0.04133564      -0.01430709       0.01151004      -0.10620373
H        4.97007030       3.43805113      -9.16715181       0.00000000       0.00000000      -0.08516704       0.04495813      -0.03154690       0.03825651
H        5.26129458       1.75163938      -9.56784762       0.00000000       0.00000000      -0.01024057       0.03990555      -0.02383070       0.04265369
H        4.80136153       2.20902360      -7.92534468       0.00000000       0.00000000       0.02219257      -0.06975525       0.00495381       0.02086472
H        2.95707369       2.71584991     -10.29305518       0.00000000       0.00000000      -0.01622881      -0.04179008       0.08576845       0.03977480
H        2.54756045       2.71820612      -8.57802291       0.00000000       0.00000000       0.02380165       0.00830994      -0.02653508       0.02007881
H        3.55666738       0.15551946      -8.89393725       0.00000000       0.00000000      -0.11946125      -0.02348306      -0.07661839       0.03320472
H        2.82679135       0.43487778     -10.47424053       0.00000000       0.00000000      -0.00949783      -0.05946083       0.07388902       0.04145214
H        0.72457375       1.23858291      -9.13552834       0.00000000       0.00000000       0.03351083      -0.01492969      -0.11069862       0.03089393
H        1.47725761       0.45236623      -7.75347458       0.00000000       0.00000000      -0.08449271       0.12203074      -0.07211149       0.01966681
H        1.10098810      -1.10339877     -10.31516932       0.00000000       0.00000000       0.01188909       0.00299111       0.01323581       0.04948599
H       -0.26947606      -0.83614244      -9.24519556       0.00000000       0.00000000      -0.03439239      -0.04540831      -0.10620920       0.03325892
H        2.26427743      -1.90596692      -8.02896451       0.00000000       0.00000000       0.02967920       0.01432932       0.02438302       0.03942259
H        1.27326421      -2.99498519      -8.97093288       0.00000000       0.00000000      -0.10594251      -0.04345919       0.07354948       0.04206652
H       -0.67747237      -2.57135665      -7.58451424       0.00000000       0.00000000       0.01189034       0.02053667       0.04457497       0.03875371
H        0.12748392      -1.24128017      -6.75117808       0.00000000       0.00000000       0.00071786       0.00148307      -0.02475084       0.02046057
H        1.76356876      -2.89650256      -5.77971726       0.00000000       0.00000000       0.06375814      -0.02278024      -0.09677296       0.04182433
H        0.82200749      -4.19280947      -6.52244224       0.00000000       0.00000000      -0.02530130      -0.00027585      -0.01716931       0.04782357
H       -1.18522952      -3.29711763      -5.18654484       0.00000000       0.00000000       0.01026484       0.00344490      -0.07123979       0.04729261
H       -0.05204510      -2.19588981      -4.39505972       0.00000000       0.00000000       0.02718213       0.01908555       0.00536238       0.03190117
H        1.06234917      -4.82678398      -4.32690518       0.00000000       0.00000000      -0.04053100      -0.05087162       0.10893391       0.09535340
H       -0.58950667      -5.00821132      -3.75220408       0.00000000       0.00000000       0.01146503       0.11734773       0.01901979       0.05921324
H        1.95719805      -4.07953062      -0.98404164       0.00000000       0.00000000       0.10268478       0.00702060      -0.04729239       0.06361390
H        2.77616319      -3.62134797      -2.48763660       0.00000000       0.00000000       0.03570401       0.01386850      -0.11012890       0.07396660
H        2.10694010      -6.01222712      -3.34156865       0.00000000       0.00000000      -0.00773166       0.01317536       0.03063797       0.05254780
H        1.75791062      -6.36667161      -1.66506929       0.00000000       0.00000000       0.04200142      -0.03814093       0.08312580       0.05055910
H        4.41228737      -5.45358786      -2.87957159       0.00000000       0.00000000       0.06725016       0.01879109      -0.01220657       0.05388195
H        3.95323385      -7.09774732      -2.48188296       0.00000000       0.00000000       0.03801224      -0.02591943      -0.03606914       0.05784284
H        5.36332898      -6.59945074      -0.76472070       0.00000000       0.00000000      -0.02579354      -0.01863431       0.00611137       0.05566430
H        3.79191581      -6.32870666      -0.04221201       0.00000000       0.00000000      -0.00632640      -0.02690189      -0.00279607       0.03745828
H        4.89403869      -4.49029593       0.73736917       0.00000000       0.00000000      -0.00170429       0.00380749      -0.02404986       0.02683196
H        4.29676829      -3.78647366      -0.76994743       0.00000000       0.00000000       0.02107109      -0.01771959       0.01021039       0.01779914
H        6.54521046      -4.27396835      -1.80319971       0.00000000       0.00000000       0.00298419      -0.01613855       0.03194025       0.04274838
H        7.07911017      -4.92490460      -0.26793763       0.00000000       0.00000000      -0.01571229      -0.00713839      -0.00530836       0.04855158
H        6.00411300      -2.08114779      -0.49101229       0.00000000       0.00000000       0.00941591      -0.03432722       0.00710229       0.00793602
H        7.69221468      -2.47514938      -0.79022109       0.00000000       0.00000000       0.03363391      -0.02392774       0.02499995       0.04553401
H        7.82692592      -3.56729005       1.44445956       0.00000000       0.00000000       0.00535445       0.01006979       0.02400661       0.05135708
H        6.20714758      -2.99860021       1.82382624       0.00000000       0.00000000       0.01815304      -0.01706664       0.01436639       0.01432250
H        8.47261544      -1.10246960       1.08653074       0.00000000       0.00000000       0.00394542      -0.00206487      -0.00666562       0.04734826
H        8.22364046      -1.69201530       2.72200679       0.00000000       0.00000000       0.01879623       0.01096157       0.02800085       0.05053619
H        6.27833871       0.02807761       1.13454522       0.00000000       0.00000000      -0.00616098       0.00151398      -0.04126448       0.00704448
H        7.20037119       0.47703084       2.55921331       0.00000000       0.00000000       0.02202716       0.01544750      -0.01653611       0.04885219
H        5.90831035      -0.70309020       2.70998902       0.00000000       0.00000000      -0.00554060      -0.00595364       0.01488029       0.01894486
H       -1.92514316      -3.80068234      -1.90996784       0.00000000       0.00000000       0.00352538      -0.03780337      -0.01661959       0.08315476
H       -1.73384637      -2.47413889      -3.06525614       0.00000000       0.00000000       0.08173973       0.01478227       0.01370478       0.08908114
H       -3.43566737      -3.30942594      -0.61056332       0.00000000       0.00000000      -0.03757324      -0.00433193      -0.01535758       0.08097708
H       -3.76478488      -1.62572882      -0.13868333       0.00000000       0.00000000       0.00004602       0.04981313       0.07951408       0.10735023
H       -4.45880389      -4.70246904       2.57558524       0.00000000       0.00000000      -0.03766790      -0.04920017      -0.00875792       0.09380728
H       -4.23147181      -4.69918983       0.83510992       0.00000000       0.00000000       0.01661699      -0.03151240      -0.00708168       0.06316719
H       -6.33430715      -3.61504521       1.78730706       0.00000000       0.00000000      -0.00367175      -0.02037769      -0.02284777       0.07169316
H       -5.49363161      -2.65026373       0.59785987       0.00000000       0.00000000       0.03997555      -0.00105918       0.05477901       0.03872022
H       -4.34380769      -1.43725268       2.53815730       0.00000000       0.00000000       0.00330554      -0.02886563      -0.01269851       0.03132778
H       -5.38857035      -2.35270291       3.63064549       0.00000000       0.00000000       0.01096873      -0.01416726      -0.01427762       0.04422487
H       -6.48804901      -0.28966886       3.36864641       0.00000000       0.00000000       0.00741538      -0.01494803      -0.02641000       0.04916534
H       -7.36870775      -1.39386023       2.31738302       0.00000000       0.00000000       0.00775933       0.02134095       0.03112454       0.04915038
H       -7.09546475       0.68894436       1.18964040       0.00000000       0.00000000       0.01461489      -0.00558837      -0.01500085       0.05100813
H       -6.10024819      -0.48463491       0.34316721       0.00000000       0.00000000      -0.01453220      -0.00488339       0.02455383       0.02188858
H       -5.04860683       1.50592956       2.41037592       0.00000000       0.00000000      -0.00780254       0.00036190       0.00500494       0.04371037
H       -5.01521115       1.77053030       0.67121038       0.00000000       0.00000000       0.01662940      -0.01840960      -0.00062644       0.03452988
H       -4.04174321       0.48230899       1.37994253       0.00000000       0.00000000       0.01109307      -0.01090631      -0.00512771       0.01978915
H       -1.29523544      -3.47839759       3.17995733       0.00000000       0.00000000      -0.02099803      -0.03755021       0.07707996       0.06454282
H       -2.80941950      -3.03509503       3.99730197       0.00000000       0.00000000       0.03762894       0.03196568       0.07519225       0.08223985
H       -2.41910361      -5.86080537       3.01428987       0.00000000       0.00000000       0.02458583      -0.02001516      -0.03653987       0.05024511
H       -3.47391920      -5.29337670       4.30414299       0.00000000       0.00000000       0.03613965      -0.00358902       0.04297599       0.05553168
H       -0.53993037      -4.88132405       4.72027319       0.00000000       0.00000000       0.01160664      -0.00417507      -0.01621585       0.03694677
H       -1.09856807      -6.54433852       4.71121106       0.00000000       0.00000000       0.01382934      -0.03648973       0.01188560       0.04935366
H       -2.65528551      -6.06644850       6.55850834       0.00000000       0.00000000       0.00800848       0.02277058      -0.07388280       0.04359358
H       -2.13971665      -4.38063989       6.57573953       0.00000000       0.00000000      -0.02177451       0.04695763      -0.00889594       0.03539426
H       -0.31015982      -6.77732864       7.07460067       0.00000000       0.00000000      -0.04632348       0.01628994      -0.04816740       0.04032189
H       -1.07639148      -5.80599497       8.32366419       0.00000000       0.00000000      -0.00488092      -0.01183687      -0.03224483       0.04954832
H        0.96799671      -4.75478916       6.31488278       0.00000000       0.00000000       0.00825998      -0.01864074       0.01026954       0.01591268
H        1.25219455      -5.11827832       8.01175424       0.00000000       0.00000000      -0.00062375      -0.01694045       0.00847580       0.04670982
H        0.16828262      -3.80431758       7.57216449       0.00000000       0.00000000       0.00311772       0.03782018       0.01228748       0.03689275
C        4.95483770      -2.60953308      -3.63937735       0.00000000       0.00000000      -0.01831370       0.12680120       0.04806391      -0.10735485
C        4.90048405      -3.57230234      -4.81390584       0.00000000       0.00000000      -0.03174168      -0.04345126      -0.04851494      -0.05389144
C        4.84597218      -2.94899721      -6.21188380       0.00000000       0.00000000       0.02178556       0.04813795      -0.08597098      -0.06353936
C        5.68096975      -1.67961848      -6.39551084       0.00000000       0.00000000       0.05022302      -0.01294073       0.01137571      -0.06326675
C        5.09332686      -0.36339777      -5.83933608       0.00000000       0.00000000       0.08245790       0.00909984      -0.00977675      -0.05754720
C        3.56991014      -0.32226016      -5.73782440       0.00000000       0.00000000       0.02789092      -0.02083512       0.11242233      -0.06501679
C        3.05471404       0.88128486      -4.95510088       0.00000000       0.00000000      -0.12731105       0.02421306      -0.08676221      -0.05386649
C        1.52860157       0.83507732      -4.77199113       0.00000000       0.00000000      -0.01517645       0.07695704       0.05353591      -0.05668955
C        0.99862096       2.23831327      -4.47950094       0.00000000       0.00000000      -0.14046510       0.05831890      -0.08500496      -0.07281698
C       -0.52904032       2.39783534      -4.54338066       0.00000000       0.00000000      -0.04102128      -0.03114687      -0.00454777      -0.02262356
N       -1.16666678       1.46998476      -3.62876405       0.00000000       0.00000000      -0.02291678       0.00792706       0.00867080      -0.05426890
C       -2.05912468       0.43901989      -4.15555098       0.00000000       0.00000000       0.06547687       0.02196461       0.02445019      -0.01452758
C       -3.39383439       1.08720140      -4.53532396       0.00000000       0.00000000       0.00558857       0.05301068      -0.00168373      -0.06935234
C       -4.50392105       0.11121117      -4.94261878       0.00000000       0.00000000       0.00707610      -0.04474058      -0.02873973      -0.06807900
C       -5.35512739      -0.41552193      -3.77924777       0.00000000       0.00000000      -0.02502466       0.00158208       0.01632720      -0.06865503
C       -4.94115408      -1.76685160      -3.19176685       0.00000000       0.00000000      -0.00132935      -0.03745070      -0.01017393      -0.05972082
C       -5.26858276      -2.94016416      -4.11828183       0.00000000       0.00000000       0.02251108      -0.03712284       0.00229417      -0.06841234
C       -4.68547565      -4.28505601      -3.66687264       0.00000000       0.00000000      -0.00365350       0.00402766      -0.00735203      -0.06120490
C       -5.27771369      -4.81993850      -2.36149704       0.00000000       0.00000000       0.00258629       0.03899764      -0.03387910      -0.06192163
C       -4.73940871      -6.19667061      -1.95873634       0.00000000       0.00000000      -0.02767557       0.02631901      -0.01574485      -0.06383834
C       -3.24968397      -6.24713502      -1.62858219       0.00000000       0.00000000      -0.01186264      -0.00396261      -0.01182351      -0.09802470
C       -0.92884597       1.49400386      -2.32773176       0.00000000       0.00000000      -0.10017332      -0.00364261      -0.02555187       0.26744150
O       -1.12882136       0.49332566      -1.60868903       0.00000000       0.00000000      -0.00435607      -0.04910102       0.03493378      -0.37814882
C       -0.53632565       2.78706526      -1.60787506       0.00000000       0.00000000      -0.03319034      -0.08093124      -0.04956693       0.05275639
O       -0.57305282       2.39245892      -0.25227274       0.00000000       0.00000000       0.00670144       0.07849191      -0.01281504      -0.21451190
C       -0.26181829       3.39573282       0.68813355       0.00000000       0.00000000      -0.01920731       0.06462164       0.01771739       0.04712960
C       -0.50700516       2.74196843       2.04901462       0.00000000       0.00000000       0.05847074      -0.00701709      -0.02377456       0.25975933
O       -0.80415553       1.52963922       2.06592241       0.00000000       0.00000000       0.02586214      -0.11870616       0.02948321      -0.36796580
N       -0.43029477       3.51974270       3.11720296       0.00000000       0.00000000      -0.02996748       0.07366911       0.12844261      -0.04888792
C        0.07537499       4.88590126       3.09560794       0.00000000       0.00000000      -0.00836552      -0.03368546       0.00174620      -0.02711270
C        1.58455861       4.95151634       3.36006411       0.00000000       0.00000000      -0.01317603      -0.01696667       0.04412415      -0.06703254
C        1.97217636       4.58207937       4.79244802       0.00000000       0.00000000       0.02904442      -0.01092304       0.02779924      -0.06351978
C        3.38923252       5.03360046       5.15843176       0.00000000       0.00000000      -0.00262958      -0.01269775      -0.01003690      -0.06650424
C        4.50264311       4.45859127       4.28145468       0.00000000       0.00000000      -0.00418210      -0.00474783       0.03064950      -0.05822801
C        4.60118984       2.93635883       4.33657420       0.00000000       0.00000000      -0.00731831       0.02478961      -0.01516704      -0.10316784
C       -0.99594046       3.09752954       4.39331483       0.00000000       0.00000000      -0.02500694      -0.00640761      -0.00413692      -0.01997578
C       -2.45630391       3.58091861       4.48542052       0.00000000       0.00000000      -0.01161946       0.00272097       0.03961284      -0.06750088
C       -2.85471877       4.03978182       5.89077850       0.00000000       0.00000000      -0.00437190      -0.00041219       0.02460112      -0.06629407
C       -2.99952364       2.90598011       6.91496515       0.00000000       0.00000000       0.04104504      -0.04148632      -0.00519313      -0.06500222
C       -4.45236350       2.53723604       7.22138374       0.00000000       0.00000000       0.00369601       0.01112891       0.02046502      -0.05970267
C       -5.24317277       2.02350413       6.02476265       0.00000000       0.00000000       0.01214315      -0.00146858       0.00584031      -0.10492702
H        5.18063221      -3.15471469      -2.73429383       0.00000000       0.00000000       0.00696670      -0.03838845       0.07436216       0.03895429
H        4.02367307      -2.07109990      -3.47501140       0.00000000       0.00000000      -0.08466844       0.04314242      -0.12833217       0.00991227
H        5.74535151      -1.88925350      -3.79969593       0.00000000       0.00000000       0.09742719       0.02980875       0.11809188       0.04657575
H        4.04057786      -4.23273023      -4.70843626       0.00000000       0.00000000      -0.09884864      -0.12038831       0.00622283       0.01898952
H        5.79205394      -4.19511707      -4.76094170       0.00000000       0.00000000       0.11161064      -0.03607983       0.00640921       0.03749510
H        5.22122285      -3.71437412      -6.89606946       0.00000000       0.00000000       0.00906797       0.12944821      -0.05939260       0.04216357
H        3.82065471      -2.74601340      -6.51825181       0.00000000       0.00000000      -0.01724253      -0.06011336       0.04278093       0.03174667
H        5.86685568      -1.56381078      -7.46149496       0.00000000       0.00000000      -0.09131074       0.05107144      -0.08801515       0.04299671
H        6.65258110      -1.84055668      -5.92922896       0.00000000       0.00000000       0.10403323       0.00298824      -0.05160075       0.04067278
H        5.42904605       0.45397468      -6.47920446       0.00000000       0.00000000      -0.03408431       0.00835503      -0.05872482       0.03675036
H        5.52701665      -0.16074025      -4.85956316       0.00000000       0.00000000      -0.07204852       0.01550831       0.11322430       0.01895593
H        3.20837237      -1.21265281      -5.22175469       0.00000000       0.00000000      -0.01089493       0.02863997      -0.13639207       0.03527369
H        3.15462222      -0.29237855      -6.74456436       0.00000000       0.00000000      -0.00506657      -0.08291737       0.11638195       0.05500434
H        3.34469890       1.79803301      -5.47730839       0.00000000       0.00000000      -0.04763929      -0.06614951       0.03856532       0.04023372
H        3.50428978       0.89965084      -3.95498521       0.00000000       0.00000000       0.02686700       0.00416879      -0.13934939       0.00907656
H        1.29994145       0.15843055      -3.94157193       0.00000000       0.00000000      -0.10021644       0.00383734       0.02265439       0.01457347
H        1.03837454       0.43652155      -5.66266407       0.00000000       0.00000000       0.14667076       0.09328424      -0.04019544       0.04758009
H        1.41840420       2.91655475      -5.21957131       0.00000000       0.00000000      -0.00825937       0.06246954      -0.06766902       0.07724916
H        1.35503739       2.54182577      -3.49124771       0.00000000       0.00000000       0.05178406      -0.03005084      -0.17136224       0.02915483
H       -0.90390364       2.18003964      -5.54742165       0.00000000       0.00000000       0.15225773      -0.01518537       0.08743818       0.09080981
H       -0.81394250       3.42961654      -4.30557405       0.00000000       0.00000000       0.08096623      -0.06710610      -0.00217291       0.06329809
H       -2.20950874      -0.28131812      -3.35526100       0.00000000       0.00000000      -0.02951406      -0.06282074       0.01811449       0.08377105
H       -1.59480259      -0.05146798      -5.01171609       0.00000000       0.00000000      -0.01875194       0.01020616      -0.06351162       0.06571203
H       -3.21583113       1.77987522      -5.35592331       0.00000000       0.00000000      -0.01030482       0.04044800      -0.09619229       0.05155287
H       -3.74263551       1.67406009      -3.68532444       0.00000000       0.00000000      -0.00369692       0.06452324       0.05012856       0.04669635
H       -4.07913061      -0.71367573      -5.51081797       0.00000000       0.00000000       0.04367667      -0.06808557      -0.02272078       0.04717957
H       -5.16675439       0.64966091      -5.61915332       0.00000000       0.00000000      -0.00744915       0.00917897      -0.00902388       0.06047482
H       -6.38727198      -0.51034546      -4.11542208       0.00000000       0.00000000      -0.02513806      -0.00142398      -0.03178552       0.05449184
H       -5.35002383       0.32828223      -2.98107276       0.00000000       0.00000000      -0.01853770       0.03134450       0.03904995       0.03515728
H       -5.48933182      -1.89566746      -2.25584909       0.00000000       0.00000000       0.02337355      -0.02320922       0.00432982       0.02689756
H       -3.87583667      -1.75711556      -2.95821430       0.00000000       0.00000000       0.00294791       0.00443183      -0.01842400       0.01751111
H       -4.87980197      -2.72801925      -5.11662718       0.00000000       0.00000000      -0.01844286      -0.00035966       0.01295770       0.03776767
H       -6.35314439      -3.02861284      -4.20582801       0.00000000       0.00000000       0.04614748      -0.01099736       0.00959615       0.04941827
H       -3.59856995      -4.18973532      -3.57713158       0.00000000       0.00000000      -0.04599885       0.01044542      -0.00412416       0.01030214
H       -4.88428186      -5.01780610      -4.45182213       0.00000000       0.00000000       0.01943831       0.00781145       0.01951439       0.04820312
H       -6.35823355      -4.90929702      -2.48590941       0.00000000       0.00000000       0.01152942       0.01027939      -0.01175352       0.05002300
H       -5.11166548      -4.10719687      -1.54899326       0.00000000       0.00000000       0.02295162      -0.00135606      -0.01248596       0.01114446
H       -4.93506656      -6.89891483      -2.76910213       0.00000000       0.00000000      -0.01328184      -0.01248499       0.00206879       0.05302913
H       -5.29949353      -6.53782651      -1.08597014       0.00000000       0.00000000      -0.01331594      -0.02717674      -0.00567079       0.04040085
H       -2.64371978      -6.01532025      -2.50166501       0.00000000       0.00000000      -0.00699057      -0.00449036      -0.02800024       0.02460732
H       -2.98633125      -7.24872823      -1.29992459       0.00000000       0.00000000       0.00191428      -0.02172659      -0.01211239       0.04906553
H       -2.98803425      -5.55961742      -0.82260208       0.00000000       0.00000000      -0.01048843       0.00283117       0.00275701       0.00562814
H       -1.29791198       3.55786345      -1.82597422       0.00000000       0.00000000       0.06054991      -0.08197081       0.05769410       0.07707671
H        0.45071288       3.18088461      -1.88646993       0.00000000       0.00000000      -0.09734052      -0.06167026       0.04582921       0.08432710
H       -0.94139487       4.24874973       0.56636802       0.00000000       0.00000000      -0.00242724       0.05276194      -0.04548287       0.08297227
H        0.78033746       3.72945832       0.59700157       0.00000000       0.00000000      -0.04059634      -0.03345863      -0.03277996       0.07833879
H       -0.44946565       5.44521607       3.87186310       0.00000000       0.00000000       0.00945637      -0.00000908      -0.00108043       0.08746321
H       -0.14260136       5.36072912       2.13923957       0.00000000       0.00000000      -0.01722959      -0.00100295       0.02765910       0.05695627
H        1.91067712       5.97394320       3.16315123       0.00000000       0.00000000      -0.02394892      -0.01091218       0.00898441       0.06566624
H        2.10047610       4.28832950       2.66260497       0.00000000       0.00000000      -0.03775214      -0.00206142       0.01374391       0.03402579
H        1.87989530       3.50379471       4.93133412       0.00000000       0.00000000       0.04292867      -0.00312161       0.01566812       0.03626947
H        1.29123554       5.07323591       5.49139291       0.00000000       0.00000000      -0.00391783       0.00950448      -0.03581198       0.04193564
H        3.57926600       4.75233718       6.19648011       0.00000000       0.00000000      -0.00245638       0.00478969      -0.03661187       0.05035581
H        3.43226861       6.12410770       5.10363001       0.00000000       0.00000000       0.01037963      -0.03494062      -0.00240465       0.04381914
H        5.44538458       4.87700113       4.63589971       0.00000000       0.00000000       0.01450869       0.00726978      -0.02597611       0.04803176
H        4.36847143       4.78663327       3.24742859       0.00000000       0.00000000       0.03082782      -0.02602702       0.04107899       0.02429045
H        4.66969335       2.60110531       5.36980495       0.00000000       0.00000000      -0.02324716       0.01461837      -0.05165106       0.04529489
H        5.49655537       2.60348095       3.81456930       0.00000000       0.00000000      -0.03396564      -0.00793391       0.00034159       0.03169983
H        3.73722837       2.46289385       3.86990226       0.00000000       0.00000000       0.01430749       0.00053700       0.02364673       0.01732642
H       -0.41046254       3.52129394       5.20773224       0.00000000       0.00000000       0.00772437       0.06811854      -0.06351193       0.08176250
H       -0.90962379       2.01381665       4.45201785       0.00000000       0.00000000      -0.02811259       0.05750098      -0.00052640       0.07401774
H       -3.12774544       2.79645457       4.13685073       0.00000000       0.00000000       0.00349511      -0.00963010       0.03349205       0.05509161
H       -2.58050233       4.43412469       3.81221536       0.00000000       0.00000000       0.01693560      -0.03483446       0.00681689       0.03780098
H       -3.80228209       4.57355156       5.81725216       0.00000000       0.00000000      -0.01318612       0.00981114       0.01961274       0.05823452
H       -2.11656955       4.76056731       6.24790088       0.00000000       0.00000000       0.02205650       0.00177725      -0.03660784       0.03640427
H       -2.53340331       3.20435605       7.85520849       0.00000000       0.00000000      -0.01598936       0.03782980      -0.00348338       0.04083884
H       -2.46080941       2.02578325       6.56489716       0.00000000       0.00000000      -0.00125117      -0.05502835      -0.06031667       0.02957062
H       -4.95167038       3.41675725       7.62746701       0.00000000       0.00000000      -0.04666242       0.01873005       0.01918246       0.04411330
H       -4.45751007       1.77188494       7.99913177       0.00000000       0.00000000       0.01068050      -0.00618145       0.02212129       0.03909538
H       -5.34305329       2.79251803       5.26262774       0.00000000       0.00000000       0.01314287      -0.02391532      -0.02777439       0.03221213
H       -6.24239085       1.73720957       6.34238188       0.00000000       0.00000000      -0.00617860       0.00950967       0.00108329       0.04336253
H       -4.76311694       1.14788416       5.59304814       0.00000000       0.00000000       0.02337920       0.00979220      -0.03045343       0.02648921
