119
Properties=species:S:1:pos:R:3:initial_charges:R:1:initial_magmoms:R:1:forces:R:3:charge:R:1 energy=-5008.07775039488 free_energy=-5008.07775039488 dipole="1.3709935239984679 -1.9614717211927009 -0.7720100712970788" pbc="F F F"
Ho      -0.02270720       0.07140055       0.08416122       2.00000000       0.00000000      -0.01401094       0.04249493       0.01711857       0.83169422
C       -4.93199988       1.18746554      -2.41880168       0.00000000       0.00000000       0.04272424      -0.01621380       0.01067941      -0.11541697
C       -3.55949805       1.54760136      -2.96626711       0.00000000       0.00000000       0.06597665       0.00392285       0.01074085      -0.00915834
N       -2.77680932       0.36770803      -3.35051017       0.00000000       0.00000000       0.01169652       0.05802788       0.00436818      -0.02961977
C       -1.74348722       0.01087278      -2.60118218       0.00000000       0.00000000      -0.05515551       0.06007973       0.05517587       0.26226453
O       -1.52160091       0.54558288      -1.48377106       0.00000000       0.00000000       0.01201172      -0.03629389       0.03631164      -0.41304963
C       -0.66927083      -0.93157938      -3.05436434       0.00000000       0.00000000      -0.06279105      -0.05541240      -0.13277885       0.08120391
C       -0.30629963      -1.16796532      -4.37909137       0.00000000       0.00000000       0.08436619       0.01115112       0.06188913      -0.02501046
C        0.91208305      -1.78722421      -4.59484943       0.00000000       0.00000000       0.04740769      -0.02203895      -0.03012234       0.00063373
C        1.68918935      -2.21924182      -3.52628707       0.00000000       0.00000000      -0.05165216      -0.00978536       0.06955110      -0.03110231
C        1.20109221      -2.05797298      -2.22721613       0.00000000       0.00000000       0.04019980       0.01434502      -0.10696698       0.07665587
C        1.81082929      -2.42389859      -0.88031060       0.00000000       0.00000000      -0.04313504       0.08796647      -0.00096308       0.25681157
O        1.29698344      -1.82159175       0.07809460       0.00000000       0.00000000       0.02044898       0.01991299       0.02827225      -0.35586773
N        2.80918042      -3.30649175      -0.72040801       0.00000000       0.00000000      -0.02447306      -0.01627891       0.00667433      -0.03619559
C        3.12351335      -4.26174673      -1.77615262       0.00000000       0.00000000       0.04443585       0.05362156       0.00752634      -0.01844446
C        4.45231250      -3.92715027      -2.45002465       0.00000000       0.00000000       0.01628409      -0.00681856       0.01838516      -0.12352266
C        3.54701632      -3.41245947       0.50456389       0.00000000       0.00000000      -0.05812675       0.05259416      -0.06071830       0.05926954
C        4.40002250      -4.49557524       0.72549816       0.00000000       0.00000000      -0.02684991       0.00008983      -0.04309118      -0.04448152
C        5.14436922      -4.59482324       1.88459031       0.00000000       0.00000000      -0.02148499      -0.02760439       0.04373802      -0.03468092
C        5.05311143      -3.64540400       2.88959334       0.00000000       0.00000000      -0.01647327       0.02909960       0.04873908       0.03087355
C        5.78710809      -3.79584858       4.17954690       0.00000000       0.00000000       0.02282587       0.01988746       0.02585956      -0.12079484
C        4.22598067      -2.55143595       2.65878969       0.00000000       0.00000000      -0.01245645       0.00231626      -0.00863651      -0.03876886
C        3.49514530      -2.42390216       1.49363886       0.00000000       0.00000000       0.03624308      -0.01984365      -0.02797320      -0.04555702
N        0.06821157      -1.36684188      -2.03048551       0.00000000       0.00000000      -0.01547400       0.03880854      -0.03808496      -0.15017669
C       -3.29110620      -0.43473416      -4.39752906       0.00000000       0.00000000       0.00955909      -0.06531026      -0.02207487       0.04500231
C       -3.36477012      -1.81425764      -4.22060920       0.00000000       0.00000000      -0.02562214      -0.00402723      -0.04695396      -0.04514143
C       -3.92273538      -2.61497361      -5.19828573       0.00000000       0.00000000      -0.04269332       0.01980320      -0.03198443      -0.03438379
C       -4.43762525      -2.06256039      -6.36783693       0.00000000       0.00000000      -0.03179386      -0.05526226      -0.02311312       0.03495646
C       -5.08755817      -2.90385281      -7.41740680       0.00000000       0.00000000       0.00138143       0.02282186       0.01607711      -0.12269064
C       -4.36791411      -0.67974121      -6.52647897       0.00000000       0.00000000      -0.04514931      -0.07151765      -0.08233077      -0.03312932
C       -3.80290190       0.12796489      -5.56270808       0.00000000       0.00000000      -0.01051472       0.04033119       0.00728800      -0.03922415
H       -5.44380274       2.09942925      -2.12780818       0.00000000       0.00000000      -0.01862217       0.00574702      -0.03902848       0.07741814
H       -4.84059508       0.56040932      -1.53828165       0.00000000       0.00000000       0.03774286      -0.06392590       0.06650811       0.05476231
H       -5.52742133       0.66658281      -3.16308646       0.00000000       0.00000000      -0.03357399      -0.00933859      -0.03467407       0.05658524
H       -2.99143167       2.10051208      -2.21560342       0.00000000       0.00000000      -0.00830705      -0.00729926       0.02307540       0.09810386
H       -3.66388705       2.17141052      -3.85616627       0.00000000       0.00000000      -0.01281241       0.01385468       0.03171956       0.07748524
H       -0.91736281      -0.83425729      -5.20035491       0.00000000       0.00000000      -0.00057695       0.01303791      -0.01440443       0.08359299
H        1.27665887      -1.92585382      -5.60009110       0.00000000       0.00000000      -0.00216789       0.00011648      -0.04494784       0.09084349
H        2.66069660      -2.63034756      -3.73799323       0.00000000       0.00000000      -0.04284448      -0.01706535       0.02426033       0.09410738
H        2.29157040      -4.26712480      -2.48150574       0.00000000       0.00000000       0.10471291      -0.05406487      -0.01301216       0.06031314
H        3.15967182      -5.25827653      -1.33078293       0.00000000       0.00000000       0.00386265      -0.00296755      -0.07322547       0.08554207
H        4.45682681      -2.90899471      -2.83466037       0.00000000       0.00000000      -0.00380606      -0.03986737      -0.02004581       0.04908972
H        4.64125230      -4.62083969      -3.26403762       0.00000000       0.00000000       0.00891522       0.01003951      -0.00725649       0.07232669
H        5.27072691      -3.99444456      -1.73815413       0.00000000       0.00000000      -0.00575807      -0.06749930      -0.01489419       0.06997334
H        4.51326621      -5.29413493       0.01422384       0.00000000       0.00000000       0.00637079      -0.01076713      -0.00856520       0.05935110
H        5.80706269      -5.43416066       2.01603717       0.00000000       0.00000000      -0.01281821      -0.09579684      -0.02514189       0.06241959
H        6.42850184      -4.67258874       4.17481676       0.00000000       0.00000000      -0.01963348       0.01017206      -0.03014359       0.06348353
H        5.07654751      -3.89301859       5.00009623       0.00000000       0.00000000       0.01958024      -0.00066043      -0.00001535       0.06468082
H        6.39854890      -2.91812778       4.37581782       0.00000000       0.00000000       0.02489148       0.03206677       0.01940634       0.06378959
H        4.15245254      -1.78510037       3.41765558       0.00000000       0.00000000      -0.02833447       0.02518115      -0.03536044       0.03752146
H        2.87621729      -1.55014512       1.37141442       0.00000000       0.00000000       0.04877606      -0.01330324      -0.01383814       0.06618678
H       -3.00724835      -2.24865896      -3.30018715       0.00000000       0.00000000       0.01746375      -0.04299784       0.07059954       0.03230951
H       -3.99107490      -3.67936009      -5.03335311       0.00000000       0.00000000       0.02086526      -0.00526989      -0.02318252       0.05777922
H       -4.97826828      -3.96691108      -7.21238515       0.00000000       0.00000000       0.01090020       0.08858829       0.01274794       0.06047845
H       -4.66647749      -2.68579954      -8.39843252       0.00000000       0.00000000       0.00152134      -0.01693893       0.04660610       0.07050230
H       -6.15084090      -2.66635207      -7.46520651       0.00000000       0.00000000       0.02276651      -0.03790241      -0.00214633       0.07550537
H       -4.77962472      -0.22723435      -7.41656217       0.00000000       0.00000000       0.03872491      -0.02778842       0.00239275       0.06770924
H       -3.77296658       1.19164113      -5.73159252       0.00000000       0.00000000       0.06027703       0.03533255       0.03333468       0.05907760
C       -0.75320830      -2.38132330       5.53908243       0.00000000       0.00000000      -0.01129000      -0.01161763       0.02551293      -0.12390749
C       -1.89399546      -1.56187048       4.93927311       0.00000000       0.00000000       0.03837970      -0.04048463       0.00571476      -0.01777253
N       -1.84375379      -1.58548183       3.48644582       0.00000000       0.00000000      -0.01165373       0.02531568      -0.00460705      -0.03032969
C       -0.87839206      -1.05629815       2.73630265       0.00000000       0.00000000      -0.03585643       0.00671273      -0.04384917       0.26777250
O       -0.86661041      -1.30388752       1.51001203       0.00000000       0.00000000      -0.00579128       0.03360219       0.00039162      -0.36316561
C        0.18945747      -0.07735283       3.22177654       0.00000000       0.00000000      -0.00401065       0.02118265      -0.00538353       0.08691349
C        0.35766624       0.57278147       4.44866625       0.00000000       0.00000000      -0.03583970       0.04154792      -0.03563977      -0.02497589
C        1.18404657       1.68949462       4.48625134       0.00000000       0.00000000       0.02830518      -0.06866473       0.00812798      -0.00012957
C        1.90505206       2.08553991       3.36947623       0.00000000       0.00000000       0.02277663       0.00480041      -0.00908718      -0.02821887
C        1.86054388       1.26295020       2.24102215       0.00000000       0.00000000       0.01190437       0.03368101       0.03315317       0.08232268
C        2.58677583       1.40097560       0.91026997       0.00000000       0.00000000      -0.00259062       0.03616164      -0.00681761       0.26401722
O        2.12397654       0.71607696      -0.03223865       0.00000000       0.00000000       0.01401504      -0.01282092      -0.00326358      -0.37830940
N        3.63717892       2.20239413       0.71058965       0.00000000       0.00000000      -0.04009991      -0.03741080      -0.03562759      -0.03329418
C        4.45074424       2.79421320       1.76276674       0.00000000       0.00000000      -0.03665715       0.02450195      -0.01245875      -0.01633325
C        4.22319287       4.30047608       1.86547183       0.00000000       0.00000000       0.01336423       0.00583663      -0.01805148      -0.12214671
C        4.00054438       2.51871752      -0.64319713       0.00000000       0.00000000      -0.01462334       0.03116677       0.03029065       0.05725723
C        5.32995658       2.65328647      -1.03391044       0.00000000       0.00000000       0.02422198       0.00387771       0.00724349      -0.03978536
C        5.64084809       2.99110583      -2.33777836       0.00000000       0.00000000      -0.04430457      -0.02772637      -0.03691463      -0.03598040
C        4.64698853       3.18025386      -3.29235453       0.00000000       0.00000000      -0.00616124      -0.00195974       0.01803897       0.03116847
C        5.00817086       3.49996914      -4.70377917       0.00000000       0.00000000       0.00108626       0.03411017      -0.01752517      -0.12152224
C        3.32082615       3.07562904      -2.88584535       0.00000000       0.00000000       0.04348276       0.01946906       0.01153038      -0.03581252
C        2.99722945       2.75926750      -1.58117673       0.00000000       0.00000000       0.00825740       0.02416051       0.01209058      -0.03606114
N        0.98435188       0.25528096       2.19864522       0.00000000       0.00000000       0.01614508       0.02541708       0.03646254      -0.14101641
C       -2.87460293      -2.33421481       2.82136685       0.00000000       0.00000000       0.01561125      -0.01311140       0.03259723       0.05622194
C       -3.23135946      -3.58172276       3.31911821       0.00000000       0.00000000       0.01654812       0.01878338       0.03200397      -0.04044898
C       -4.27284208      -4.28846143       2.75007714       0.00000000       0.00000000      -0.02611863       0.00963361      -0.02452176      -0.03413920
C       -4.98234434      -3.77253754       1.67360582       0.00000000       0.00000000       0.00846208       0.02048809       0.01585886       0.03194829
C       -6.16360823      -4.49642351       1.11697772       0.00000000       0.00000000       0.00656976      -0.00996792      -0.03717149      -0.12109666
C       -4.58581380      -2.54138468       1.15335360       0.00000000       0.00000000      -0.01387742       0.00164029       0.05325761      -0.03499504
C       -3.54936960      -1.81941451       1.71592015       0.00000000       0.00000000      -0.00351621      -0.03091097       0.04596129      -0.03098682
H       -0.78685278      -2.33088715       6.62269380       0.00000000       0.00000000      -0.00333700       0.02128809       0.03861919       0.07537586
H        0.21800913      -2.03416330       5.19591411       0.00000000       0.00000000      -0.01100810       0.02650200       0.02186526       0.04664582
H       -0.84921387      -3.42363727       5.24560812       0.00000000       0.00000000       0.01036973       0.00140795       0.03430575       0.06482260
H       -1.88721170      -0.52278630       5.27752910       0.00000000       0.00000000      -0.01663071      -0.06515048       0.03576065       0.06772370
H       -2.85090406      -1.99516926       5.23823703       0.00000000       0.00000000       0.02430463       0.05265295      -0.00074226       0.09194516
H       -0.13842871       0.27770991       5.35562919       0.00000000       0.00000000      -0.02863852       0.02012990      -0.03572700       0.09642197
H        1.26630146       2.26267612       5.39894963       0.00000000       0.00000000      -0.04920141      -0.02146533      -0.03743559       0.09659755
H        2.44249379       3.01723614       3.39591417       0.00000000       0.00000000       0.03040890      -0.02581645       0.01448812       0.09664485
H        5.50018438       2.61138650       1.52110473       0.00000000       0.00000000      -0.02436337       0.00752178       0.01703878       0.08600352
H        4.24285534       2.27607553       2.69879478       0.00000000       0.00000000       0.02603723       0.03894657      -0.00462765       0.06086534
H        4.49261154       4.78482999       0.92932564       0.00000000       0.00000000       0.01780528      -0.03036058       0.02398196       0.06874233
H        4.84425304       4.71403580       2.65536951       0.00000000       0.00000000      -0.01448562      -0.00945783      -0.00214487       0.07466636
H        3.18258747       4.54021607       2.07125646       0.00000000       0.00000000       0.00350919      -0.01391605      -0.00380941       0.05358740
H        6.14355306       2.49945461      -0.34262206       0.00000000       0.00000000      -0.02335424      -0.04535076      -0.00288673       0.05344736
H        6.67208694       3.11495848      -2.63315654       0.00000000       0.00000000       0.00735270      -0.06699259       0.07147446       0.06364925
H        5.46163557       4.48874049      -4.75497330       0.00000000       0.00000000      -0.01159487       0.01864392      -0.02395593       0.07479001
H        4.12955555       3.48608312      -5.34241602       0.00000000       0.00000000       0.02225077       0.02205639      -0.02599333       0.05557895
H        5.73901326       2.78929657      -5.08662964       0.00000000       0.00000000      -0.02062010       0.00452665       0.01704832       0.06485670
H        2.52929022       3.26769260      -3.59571040       0.00000000       0.00000000       0.01221081      -0.03065999       0.02103675       0.05125021
H        1.95786040       2.71055367      -1.29165243       0.00000000       0.00000000      -0.01223233       0.02713696       0.02058176       0.06789199
H       -2.70570247      -4.00672651       4.15944224       0.00000000       0.00000000      -0.00281719      -0.02767588      -0.02775809       0.05547571
H       -4.54718829      -5.25024934       3.15455218       0.00000000       0.00000000       0.01027062      -0.00227719       0.03247838       0.06267346
H       -6.41275851      -5.36362977       1.72259497       0.00000000       0.00000000      -0.00051930       0.03418654      -0.00103349       0.06264033
H       -5.97716385      -4.83577323       0.09953330       0.00000000       0.00000000       0.04463727       0.02481065      -0.02861494       0.06320827
H       -7.02024411      -3.82667600       1.08762571       0.00000000       0.00000000      -0.05050863      -0.02390888      -0.00873104       0.06777989
H       -5.12405273      -2.13640814       0.30848975       0.00000000       0.00000000       0.01567228       0.03238389       0.02177036       0.05102898
H       -3.28552629      -0.84903721       1.31496756       0.00000000       0.00000000       0.03628361       0.00951527       0.03379098       0.06143976
N       -1.21089061       2.14583626       0.31589611       0.00000000       0.00000000       0.08616790       0.09090851       0.08792871       0.81056671
O       -2.04606151       2.84739313      -0.14769464       0.00000000       0.00000000      -0.03911846       0.00755037       0.02777685      -0.39240041
O       -1.46270308       1.29000661       1.17776311       0.00000000       0.00000000      -0.04684654      -0.01106430      -0.08980631      -0.46767599
O       -0.01423200       2.25060595      -0.00564421       0.00000000       0.00000000      -0.10456419      -0.12503689      -0.04736733      -0.47732427
