149
Properties=species:S:1:pos:R:3:initial_charges:R:1:initial_magmoms:R:1:forces:R:3:charge:R:1 energy=-5046.63299574438 free_energy=-5046.63299574438 dipole="1.0076126968273367 1.5417360774631614 -0.5612514045654597" pbc="F F F"
Ho      -0.09601389      -0.15430661       0.24828835       3.00000000       0.00000000       0.03322666       0.05550807       0.00450408       0.82982985
C       -1.05596052      -2.18830810       2.53587028       0.00000000       0.00000000       0.02232795       0.02731021      -0.04982713      -0.14047977
C       -2.35609029      -2.94774358       2.79686545       0.00000000       0.00000000       0.06279240       0.00935046       0.02542888      -0.06680093
C       -3.35770622      -2.72592213       1.67276362       0.00000000       0.00000000       0.00770279      -0.00651119      -0.01003700      -0.07037948
C       -2.89540690      -3.42308742       0.39562582       0.00000000       0.00000000      -0.03646091      -0.02972351      -0.07530188      -0.08138581
C       -3.95785083      -3.46051300      -0.70198954       0.00000000       0.00000000      -0.06570186       0.04294767      -0.03546560      -0.02965644
C       -3.60892582      -4.52476446      -1.75387600       0.00000000       0.00000000      -0.05528595       0.02802570       0.00169271      -0.07176264
C       -2.19387517      -4.46698493      -2.32021543       0.00000000       0.00000000       0.00024858      -0.01156176       0.00074129      -0.11443152
C       -4.29440446      -2.05222474      -1.24281393       0.00000000       0.00000000      -0.03289915      -0.03590144      -0.02598867      -0.02789276
N       -3.38320966      -1.45367200      -2.22126311       0.00000000       0.00000000       0.00106170      -0.00731844       0.01950812      -0.01395876
C       -3.75607545      -1.53278277      -3.61995012       0.00000000       0.00000000       0.00004745      -0.02698358      -0.00545242      -0.08651117
C       -2.33139322      -0.76986810      -1.81901843       0.00000000       0.00000000       0.04986157       0.02294723       0.09727144       0.24786750
O       -2.00585041      -0.66832576      -0.60883693       0.00000000       0.00000000      -0.08511981       0.01212284      -0.05053557      -0.39348394
C       -1.45770113      -0.06896153      -2.86630246       0.00000000       0.00000000       0.04702982      -0.02995657      -0.05180108       0.03820841
O       -0.35375318       0.59240157      -2.24547957       0.00000000       0.00000000      -0.05654132      -0.03885617       0.02692731      -0.22808536
C       -0.25879783       2.00300309      -2.45028775       0.00000000       0.00000000       0.02046332      -0.06736356      -0.05163801       0.04462456
C       -0.76242643       2.73534123      -1.20066162       0.00000000       0.00000000       0.02352585      -0.09051619       0.08156372       0.24531928
O       -0.92522268       2.02333128      -0.18102686       0.00000000       0.00000000      -0.05168775       0.01336917       0.10120261      -0.40372772
N       -1.01709724       4.02847006      -1.22293245       0.00000000       0.00000000      -0.02202540       0.04089827      -0.07345106      -0.02327909
C       -1.72554924       4.63608687      -0.10988848       0.00000000       0.00000000       0.03592274       0.01292587      -0.02220183      -0.07212353
C       -0.74395528       4.90718422      -2.35356819       0.00000000       0.00000000      -0.02480380       0.06124767      -0.05955811      -0.03227222
C       -0.01371142       6.22513859      -2.01559351       0.00000000       0.00000000       0.04199801       0.02350816      -0.00200942      -0.02927286
C       -0.13169209       7.14659780      -3.24680589       0.00000000       0.00000000      -0.00671521       0.01877526       0.00093128      -0.06588703
C        0.42460338       8.55227371      -3.03037248       0.00000000       0.00000000      -0.01383757      -0.01528586      -0.00435473      -0.11527223
C        1.46004046       6.01885320      -1.65727546       0.00000000       0.00000000       0.02824979       0.00299176       0.00951797      -0.07835962
C        1.73283540       5.22300789      -0.38138630       0.00000000       0.00000000       0.00561456       0.01379725       0.00616127      -0.05867667
C        3.18257248       5.37432961       0.09445066       0.00000000       0.00000000       0.01202502      -0.00240319       0.00494278      -0.06085910
C        4.22340577       5.05904032      -0.97408689       0.00000000       0.00000000       0.01279679       0.00968866      -0.00687415      -0.10890987
H       -0.26509067      -2.57150855       3.17185377       0.00000000       0.00000000      -0.01513176       0.01901376       0.02827169       0.08321414
H       -0.72557565      -2.32454225       1.49238217       0.00000000       0.00000000      -0.02183875       0.01713298      -0.03307031       0.10870338
H       -1.19463198      -1.13134596       2.77233936       0.00000000       0.00000000       0.01380151      -0.02340361       0.00753743       0.10141240
H       -2.14785103      -4.01478222       2.88653389       0.00000000       0.00000000      -0.04874366      -0.00989816       0.01405127       0.06339067
H       -2.78643200      -2.61348285       3.74169086       0.00000000       0.00000000       0.01173164      -0.03657394       0.02132461       0.05800578
H       -4.32966847      -3.11642535       1.96801004       0.00000000       0.00000000      -0.04091835      -0.07745014       0.02409398       0.06138146
H       -3.46815845      -1.64986529       1.51258576       0.00000000       0.00000000      -0.00181442       0.04596844      -0.05119708       0.02824529
H       -1.99937695      -2.94270323       0.00186382       0.00000000       0.00000000       0.01098032       0.00848475      -0.00902494       0.05951699
H       -2.64467062      -4.45428794       0.64402744       0.00000000       0.00000000      -0.02206317      -0.04628264       0.04067860       0.06488031
H       -4.89458738      -3.78659983      -0.23590787       0.00000000       0.00000000      -0.00213401      -0.00942047      -0.00521430       0.06976405
H       -3.72388643      -5.49518974      -1.26765344       0.00000000       0.00000000      -0.02907868      -0.00116048      -0.04085339       0.06581277
H       -4.33729076      -4.49394692      -2.56382726       0.00000000       0.00000000       0.01248104       0.04948119      -0.04468848       0.05184333
H       -1.45808137      -4.61900102      -1.53549252       0.00000000       0.00000000      -0.00235823      -0.00980895       0.00850436       0.03813486
H       -2.07363150      -5.27010501      -3.04017687       0.00000000       0.00000000       0.00451283      -0.00512366      -0.06094816       0.06175951
H       -1.98542875      -3.52536293      -2.82035797       0.00000000       0.00000000       0.01368928       0.01795707      -0.00325923       0.01361612
H       -5.27596278      -2.08788466      -1.71427975       0.00000000       0.00000000      -0.00133942       0.00916138       0.00116228       0.08671805
H       -4.35187421      -1.37908679      -0.38330764       0.00000000       0.00000000      -0.00230518       0.01219713      -0.10245046       0.07974898
H       -4.61423746      -2.19006859      -3.72012693       0.00000000       0.00000000      -0.01291204      -0.01819722      -0.02442110       0.11761347
H       -4.02992480      -0.55253457      -4.01476771       0.00000000       0.00000000      -0.01076548      -0.01788272       0.01397613       0.08227733
H       -2.95019208      -1.94432862      -4.22599428       0.00000000       0.00000000       0.01808261       0.02046615      -0.03826685       0.08349598
H       -1.02702825      -0.81545995      -3.54682793       0.00000000       0.00000000      -0.06475394      -0.04646804      -0.07149025       0.09834297
H       -2.06731712       0.62556663      -3.45659301       0.00000000       0.00000000       0.02880568      -0.02291772       0.04084211       0.09023498
H        0.80580774       2.21063406      -2.61274816       0.00000000       0.00000000       0.02852251       0.04316520       0.01182520       0.10580977
H       -0.82329635       2.29526073      -3.33867028       0.00000000       0.00000000      -0.03393717       0.04815889      -0.03378418       0.08395872
H       -2.00645911       3.86324589       0.60074768       0.00000000       0.00000000      -0.03155408      -0.00157825      -0.04147130       0.07997897
H       -1.10357111       5.37330097       0.39059551       0.00000000       0.00000000       0.03058800      -0.01117696       0.04682168       0.09465006
H       -2.61590060       5.13896222      -0.48739351       0.00000000       0.00000000      -0.01497974      -0.02473770       0.00522935       0.09584576
H       -0.14973798       4.37510176      -3.09409747       0.00000000       0.00000000       0.04055327       0.00893045       0.00021392       0.06054162
H       -1.70047694       5.17035831      -2.81507982       0.00000000       0.00000000      -0.07271762      -0.00102986       0.01570292       0.07829595
H       -0.51544506       6.72966258      -1.18650062       0.00000000       0.00000000      -0.00646060      -0.02972576      -0.01712080       0.05792768
H        0.37830704       6.68814918      -4.09771772       0.00000000       0.00000000      -0.02406377      -0.00173220       0.03672971       0.04228294
H       -1.18836360       7.24285542      -3.50330942       0.00000000       0.00000000       0.00272112      -0.01539515      -0.02114956       0.04555466
H        1.50786258       8.55403751      -2.93664464       0.00000000       0.00000000      -0.05790947      -0.00162966       0.00070843       0.04759064
H        0.17052127       9.17077158      -3.88736108       0.00000000       0.00000000       0.00603358      -0.01479686       0.02643467       0.06438098
H       -0.00812263       9.01373776      -2.14506841       0.00000000       0.00000000       0.02005353      -0.04078354      -0.02125596       0.04970881
H        1.96596820       5.54857645      -2.50312379       0.00000000       0.00000000      -0.01554621       0.00868169       0.00769087       0.04064131
H        1.89520336       7.00732628      -1.51741209       0.00000000       0.00000000       0.02646939      -0.00548291      -0.02069195       0.07518658
H        1.08957254       5.58794737       0.42148706       0.00000000       0.00000000      -0.00956474       0.01302545      -0.00424450       0.03127553
H        1.49963144       4.16430707      -0.53474298       0.00000000       0.00000000      -0.01480156       0.00781957      -0.00243456       0.00134045
H        3.33970474       6.39827114       0.43366888       0.00000000       0.00000000      -0.01367306       0.00542338      -0.01397079       0.05823293
H        3.33606860       4.72469925       0.96158575       0.00000000       0.00000000      -0.00614550      -0.00368473      -0.00547600       0.01658634
H        4.23686494       5.82996055      -1.73795086       0.00000000       0.00000000       0.00266931      -0.00551557      -0.00926599       0.05876072
H        5.21458623       5.01933365      -0.53103953       0.00000000       0.00000000       0.01222601       0.00238493       0.01424373       0.04897355
H        4.02545250       4.10296843      -1.45942031       0.00000000       0.00000000      -0.00493228       0.01330355      -0.01702052       0.01052894
C        0.95620272      -5.34000719       3.43189326       0.00000000       0.00000000       0.00311220      -0.01397232       0.00220817      -0.10890591
C        1.22900873      -5.37926470       4.93426789       0.00000000       0.00000000       0.00292893      -0.01374354      -0.01356021      -0.06392893
C        1.86748963      -4.09388520       5.47263639       0.00000000       0.00000000       0.02654703      -0.01802685       0.01608879      -0.07099123
C        0.84121211      -2.99175199       5.75956400       0.00000000       0.00000000       0.00113419       0.00734717       0.00944947      -0.07686116
C        1.43025772      -1.57326307       5.84399346       0.00000000       0.00000000       0.01571901       0.03048422      -0.00014605      -0.02919243
C        0.37867396      -0.58266000       6.37400136       0.00000000       0.00000000      -0.01265738       0.03320885       0.01042167      -0.07253955
C       -0.81846569      -0.29716772       5.47718891       0.00000000       0.00000000      -0.01215788      -0.00032125      -0.04239441      -0.11414699
C        2.10021594      -1.25659540       4.47896317       0.00000000       0.00000000      -0.01903422       0.06151940      -0.01378004      -0.02859561
N        2.07688207       0.11352619       3.97075529       0.00000000       0.00000000      -0.01293124       0.04227293      -0.07115728      -0.01324284
C        2.57317539       1.17216148       4.82059915       0.00000000       0.00000000       0.03217558       0.02723170       0.07522649      -0.08567983
C        1.68616656       0.34883440       2.73462023       0.00000000       0.00000000       0.03348580       0.00678372       0.01214336       0.24162453
O        1.22190014      -0.53338256       1.96598777       0.00000000       0.00000000       0.02846721      -0.02358843       0.05859515      -0.40788404
C        1.77151578       1.76866243       2.15519751       0.00000000       0.00000000      -0.00312117       0.05153705      -0.02958064       0.03738485
O        1.64174767       1.71685246       0.73516159       0.00000000       0.00000000       0.02033611      -0.03296373       0.02315251      -0.23129817
C        2.86637056       1.66975268      -0.00892723       0.00000000       0.00000000      -0.01282560       0.08190876       0.01611393       0.03956758
C        2.94393201       0.38265116      -0.83583065       0.00000000       0.00000000      -0.07153910      -0.04262519      -0.01354889       0.24766882
O        1.93037342      -0.35689949      -0.83597034       0.00000000       0.00000000      -0.03114283      -0.10298172       0.01966048      -0.39792152
N        4.04837276       0.09137309      -1.49771275       0.00000000       0.00000000       0.00409423       0.02282012       0.01848898      -0.02269088
C        4.24732318      -1.24441239      -2.02918523       0.00000000       0.00000000       0.01459261      -0.01174962      -0.01617446      -0.07374658
C        5.16871251       0.99857440      -1.68158868       0.00000000       0.00000000       0.05703122       0.02619273      -0.01240899      -0.03380196
C        5.52477493       1.34535955      -3.14719696       0.00000000       0.00000000      -0.01259598       0.04193914      -0.02628145      -0.02954125
C        6.69469870       2.34952216      -3.06450518       0.00000000       0.00000000       0.01085616      -0.00445431      -0.01709512      -0.06630314
C        7.37209876       2.66051478      -4.39669501       0.00000000       0.00000000      -0.00975666      -0.01236765       0.01169962      -0.11466940
C        4.36355989       1.92843337      -3.96364677       0.00000000       0.00000000      -0.02342752      -0.00364634      -0.01181140      -0.07444428
C        3.30547302       0.92704937      -4.44335540       0.00000000       0.00000000       0.00782769       0.00070709      -0.00890834      -0.06057025
C        2.58211038       1.39107410      -5.71286478       0.00000000       0.00000000      -0.00456472       0.01015444      -0.00723428      -0.06235102
C        1.78754515       2.67947085      -5.54762894       0.00000000       0.00000000       0.00569164       0.02763405      -0.01477600      -0.10875507
H        0.64653951      -6.32215151       3.08492254       0.00000000       0.00000000      -0.00621420      -0.01546122       0.03636802       0.04760193
H        0.16272606      -4.63874302       3.18344169       0.00000000       0.00000000       0.04691516      -0.01405884       0.02294851       0.02107627
H        1.85866220      -5.06364202       2.88660689       0.00000000       0.00000000      -0.02057479       0.00930334       0.02780961       0.02495831
H        0.29882142      -5.57765984       5.46805343       0.00000000       0.00000000       0.03484841      -0.03921428       0.01660937       0.04747315
H        1.91093215      -6.20710865       5.12938332       0.00000000       0.00000000      -0.03300804      -0.00315323       0.01841714       0.05377984
H        2.39875828      -4.32805527       6.39395007       0.00000000       0.00000000      -0.00053826       0.02425616       0.05192452       0.05121582
H        2.61584411      -3.76372998       4.75104464       0.00000000       0.00000000      -0.00855905       0.04014226      -0.01061788       0.02756543
H        0.06347956      -3.01233020       4.99865329       0.00000000       0.00000000      -0.00387910      -0.01443016      -0.00280330       0.04131371
H        0.35196435      -3.21006543       6.70797128       0.00000000       0.00000000       0.02099366      -0.05691572       0.04063731       0.06246664
H        2.21629462      -1.59365370       6.60464380       0.00000000       0.00000000       0.02918372      -0.02220862      -0.00018818       0.05648728
H        0.00087446      -1.00230561       7.30737993       0.00000000       0.00000000       0.01604420      -0.02291266       0.00468322       0.06719080
H        0.85036275       0.36184873       6.64168094       0.00000000       0.00000000       0.02891525       0.01370119      -0.01641574       0.04096492
H       -1.37948971      -1.20515232       5.28532501       0.00000000       0.00000000      -0.01216602      -0.02094452      -0.00256866       0.05055728
H       -1.48329718       0.40014558       5.98226381       0.00000000       0.00000000       0.02985771      -0.01349575      -0.01105347       0.05125717
H       -0.51690474       0.14568809       4.52885776       0.00000000       0.00000000       0.00983338       0.01011529      -0.02757066       0.01416894
H        3.15388107      -1.54419437       4.56166449       0.00000000       0.00000000      -0.05289191       0.02771963      -0.07578122       0.07921758
H        1.63137022      -1.86093699       3.70168148       0.00000000       0.00000000       0.07427870      -0.01018614       0.01199318       0.09077856
H        2.86308995       0.73774437       5.77022098       0.00000000       0.00000000       0.06980351      -0.00213192       0.07149129       0.12026918
H        3.44632339       1.67453725       4.39974027       0.00000000       0.00000000      -0.01333407      -0.06512718      -0.02171276       0.07819958
H        1.78904990       1.90771359       4.99502884       0.00000000       0.00000000       0.04503771       0.09840139       0.05483731       0.08461623
H        0.91242410       2.35531647       2.51045993       0.00000000       0.00000000       0.03929522      -0.00479842       0.02298444       0.11056807
H        2.68985572       2.29355142       2.43616460       0.00000000       0.00000000       0.00371565      -0.05160984       0.04239301       0.08882633
H        2.85361896       2.54111301      -0.67205670       0.00000000       0.00000000       0.06385368       0.06551295      -0.05235449       0.10412457
H        3.73368864       1.73651083       0.65221708       0.00000000       0.00000000       0.00340062       0.01044368       0.04765510       0.08304928
H        3.37468245      -1.85464646      -1.81901055       0.00000000       0.00000000      -0.03262155      -0.00027168       0.03916780       0.08186791
H        4.41607587      -1.21831650      -3.10139301       0.00000000       0.00000000      -0.01951391       0.02724429      -0.03586645       0.09958255
H        5.12804314      -1.68319553      -1.55949417       0.00000000       0.00000000      -0.00659599      -0.01562442       0.03587635       0.09145213
H        4.97188697       1.92996374      -1.15628941       0.00000000       0.00000000       0.02129617       0.03092594      -0.00742270       0.05927993
H        6.05526901       0.54108762      -1.23393432       0.00000000       0.00000000       0.00015350      -0.05005516       0.03632062       0.08053250
H        5.89688727       0.45141705      -3.65610834       0.00000000       0.00000000      -0.03891221       0.01302949       0.02212459       0.05873714
H        6.34217747       3.28476455      -2.62192140       0.00000000       0.00000000      -0.00459661      -0.04085271      -0.00650153       0.03953580
H        7.44985231       1.92919801      -2.39733068       0.00000000       0.00000000      -0.00030333       0.02976087       0.00605470       0.04558138
H        6.73493022       3.24501300      -5.05597722       0.00000000       0.00000000       0.00537497      -0.04786770       0.02141296       0.04642787
H        8.26806101       3.24700971      -4.20788189       0.00000000       0.00000000      -0.02753604      -0.02881413      -0.01838482       0.06331500
H        7.66908529       1.74927388      -4.91019712       0.00000000       0.00000000      -0.02799036       0.01093321       0.02217759       0.05228599
H        3.89065837       2.73923262      -3.40395361       0.00000000       0.00000000       0.02407200      -0.00952115       0.01617297       0.02189555
H        4.80622420       2.36576792      -4.85830969       0.00000000       0.00000000      -0.00293753       0.03054909       0.02669191       0.07666629
H        3.79602307      -0.01323368      -4.69913620       0.00000000       0.00000000       0.02414936       0.00027285       0.00312787       0.03702819
H        2.56962639       0.72046976      -3.65769835       0.00000000       0.00000000       0.01516927      -0.00390932       0.00188613       0.00493240
H        3.31545556       1.53091156      -6.50751337       0.00000000       0.00000000       0.01882924       0.00132217       0.02619036       0.05644774
H        1.90576740       0.59642284      -6.03615787       0.00000000       0.00000000       0.00221917      -0.00183908      -0.00243476       0.03506079
H        2.43103615       3.50121510      -5.24697823       0.00000000       0.00000000       0.01069092       0.01209045       0.00406330       0.04283982
H        1.32308938       2.94889722      -6.49179099       0.00000000       0.00000000       0.00456463       0.00377552      -0.00960343       0.05485425
H        0.99975694       2.55717339      -4.80683693       0.00000000       0.00000000       0.01278085       0.01234333      -0.02331685       0.00534616
O       -1.75632252       0.85517123       2.04307072       0.00000000       0.00000000       0.10449876       0.01524349       0.00052932      -0.50321612
H       -2.61848309       0.43672079       1.91377150       0.00000000       0.00000000      -0.12879041      -0.06925487       0.03121913       0.35242749
H       -1.96558822       1.77800494       2.25203936       0.00000000       0.00000000       0.09238868      -0.05855655      -0.03433666       0.34064699
O        0.38987639      -2.58118470      -0.68743053       0.00000000       0.00000000       0.04348919      -0.05716687      -0.01492908      -0.49988630
H        0.52762011      -2.83977401      -1.61267814       0.00000000       0.00000000      -0.05824547       0.08042925       0.10544336       0.34243282
H        0.97724379      -3.16965411      -0.18509185       0.00000000       0.00000000      -0.08998475       0.07963406       0.00109147       0.34946829
