225
Properties=species:S:1:pos:R:3:initial_charges:R:1:initial_magmoms:R:1:forces:R:3:charge:R:1 energy=-7344.209860305846 free_energy=-7344.209860305846 dipole="-0.5803729089976134 0.6469576009415696 0.5949972223511282" pbc="F F F"
Ho       0.19786672      -0.00960146      -0.13224616       3.00000000       0.00000000      -0.05629812      -0.03326357      -0.02206550       0.84603188
C       -1.04899997      -0.37645725       4.53484277       0.00000000       0.00000000       0.01715902       0.02150274       0.01371735      -0.12270416
C       -1.76149934      -1.34205820       3.59671713       0.00000000       0.00000000       0.01704684      -0.01895857       0.03869341      -0.06759624
C       -3.27635353      -1.16903347       3.60831100       0.00000000       0.00000000      -0.06131018      -0.03281405       0.01414093      -0.06636975
C       -3.97557872      -2.35903885       2.96100599       0.00000000       0.00000000      -0.04495894      -0.01216816      -0.14455047      -0.07380635
C       -3.65624098      -2.55277220       1.47667124       0.00000000       0.00000000      -0.01629193       0.03701801      -0.11338860      -0.07149409
C       -4.45474517      -1.68049916       0.49496966       0.00000000       0.00000000       0.00075777      -0.03008740      -0.01503028      -0.01689505
N       -4.15292846      -0.23702856       0.42330671       0.00000000       0.00000000       0.08112707      -0.04909058      -0.08368802      -0.04189802
C       -5.19522375       0.68738798       0.87673892       0.00000000       0.00000000       0.03928129       0.00463099      -0.02415602      -0.03079911
C       -5.95211539       1.48288988      -0.20021310       0.00000000       0.00000000       0.00855211       0.03133324       0.02065279      -0.08183775
C       -6.51380871       2.79069500       0.39565420       0.00000000       0.00000000      -0.03218375       0.05056975       0.00648575      -0.01556725
C       -7.05803723       3.69620447      -0.70654349       0.00000000       0.00000000      -0.00701275       0.00265405      -0.01255413      -0.11703821
C       -7.58482280       2.48076716       1.44856754       0.00000000       0.00000000      -0.00682350      -0.03369396      -0.02049217      -0.07142916
C       -7.92073134       3.64247437       2.39601962       0.00000000       0.00000000      -0.03808561      -0.06611429      -0.08650813      -0.06403095
C       -6.85000507       3.97829104       3.39383511       0.00000000       0.00000000       0.00619416      -0.03982541       0.06454202      -0.06670989
C       -6.56864606       3.30591848       4.50596955       0.00000000       0.00000000      -0.02567914       0.04867198      -0.01527669       0.00357016
C       -7.20211545       2.00655346       4.89743606       0.00000000       0.00000000      -0.01058111      -0.02260250       0.01919464      -0.11440644
C       -5.59684795       3.82966810       5.52325185       0.00000000       0.00000000       0.01543033      -0.00233807       0.03560283      -0.11273715
C       -2.98037427       0.15487452      -0.05783164       0.00000000       0.00000000      -0.13373007      -0.06333966       0.09445576       0.25662278
O       -2.00745596      -0.62699866      -0.18877328       0.00000000       0.00000000       0.07381136      -0.14454189       0.06423911      -0.39220800
C       -2.75812805       1.58820068      -0.56757216       0.00000000       0.00000000      -0.00071317       0.02962993       0.02630416       0.04064078
O       -1.35055136       1.83770233      -0.56444031       0.00000000       0.00000000       0.00559448       0.13426598      -0.01623349      -0.22721506
C       -0.85571878       2.79667614      -1.49942242       0.00000000       0.00000000       0.03024532       0.03408196      -0.06824754       0.04095917
C        0.22061751       2.08658191      -2.33946212       0.00000000       0.00000000       0.02919462      -0.05267922       0.01024138       0.25538142
O        0.38449891       0.86015218      -2.10659973       0.00000000       0.00000000       0.02103707       0.00011131       0.00837106      -0.38862269
N        0.84814134       2.69178168      -3.32600629       0.00000000       0.00000000      -0.12134995       0.01289363       0.08308252      -0.02930307
C        1.50264851       1.82045584      -4.30824171       0.00000000       0.00000000      -0.00204430       0.08484510       0.08136830      -0.01455392
C        0.40755256       1.10008867      -5.10119843       0.00000000       0.00000000      -0.00521969      -0.01965939      -0.06512846      -0.06538317
C        0.89065640       0.38203013      -6.36085474       0.00000000       0.00000000       0.05465960      -0.09301932      -0.06898619      -0.06961701
C        1.65965956      -0.92240225      -6.14337052       0.00000000       0.00000000       0.02109120      -0.04750496       0.01522483      -0.07157491
C        0.83654870      -2.04092562      -5.50389819       0.00000000       0.00000000      -0.00170527       0.01848074       0.01235120      -0.04715031
C        1.53697007      -3.39151185      -5.60719776       0.00000000       0.00000000       0.00131520       0.01827950      -0.00513923      -0.11600831
C        0.85816900       4.13436893      -3.52044373       0.00000000       0.00000000       0.01652381       0.05259883       0.00800664      -0.02867672
C        1.65201650       4.88000295      -2.43585024       0.00000000       0.00000000      -0.00423693      -0.01062614       0.00690193      -0.07852972
C        3.05980398       4.33178512      -2.15331675       0.00000000       0.00000000       0.02271804       0.00043421      -0.00728256      -0.01453969
C        3.98908910       4.51987711      -3.34614311       0.00000000       0.00000000       0.01071930      -0.00354057      -0.02203697      -0.11930793
C        3.61596666       5.04779240      -0.91267989       0.00000000       0.00000000      -0.01516382      -0.02244469      -0.01047583      -0.06397795
C        4.96631284       4.50977771      -0.42424549       0.00000000       0.00000000      -0.04062642       0.07680488      -0.03913282      -0.06360439
C        4.90462847       3.06948090      -0.02570553       0.00000000       0.00000000      -0.07652464       0.12085708       0.03068748      -0.06377401
C        5.74486875       2.08384982      -0.30416009       0.00000000       0.00000000       0.05347593      -0.08123927       0.00870760       0.00788193
C        5.54351720       0.72352473       0.30398683       0.00000000       0.00000000      -0.00107974      -0.02831810      -0.00600845      -0.10563295
C        6.93491317       2.19168603      -1.19930028       0.00000000       0.00000000       0.02412968      -0.00274345      -0.00585160      -0.11780700
H        0.01061168      -0.38212207       4.30655012       0.00000000       0.00000000      -0.01798333      -0.02756158       0.05624149       0.03367825
H       -1.42211676       0.64367972       4.44830730       0.00000000       0.00000000      -0.03699476      -0.04514316       0.01395853       0.02615670
H       -1.17436664      -0.66999850       5.57193490       0.00000000       0.00000000      -0.02073928      -0.03082944      -0.04730644       0.07758801
H       -1.37802213      -1.23132124       2.57368150       0.00000000       0.00000000      -0.01691686       0.02856849      -0.00961500       0.03456327
H       -1.52368548      -2.35664420       3.91610101       0.00000000       0.00000000      -0.02319762      -0.06672989       0.03138752       0.04967438
H       -3.61479413      -1.10879468       4.64062804       0.00000000       0.00000000      -0.00901798       0.03878991       0.09598968       0.06387425
H       -3.56743544      -0.23842228       3.11159862       0.00000000       0.00000000       0.00961090      -0.01195194       0.00107265       0.01116321
H       -3.66995533      -3.26198660       3.49533308       0.00000000       0.00000000      -0.03083387       0.05253557      -0.02918462       0.05881735
H       -5.05404482      -2.26574871       3.08662395       0.00000000       0.00000000      -0.03414658       0.00760544      -0.00035261       0.05597013
H       -2.58845337      -2.42948321       1.28303243       0.00000000       0.00000000      -0.03417184      -0.01606542       0.02843694       0.05196494
H       -3.91916813      -3.58185900       1.21858166       0.00000000       0.00000000       0.00576139       0.05225678      -0.02701186       0.06851339
H       -4.29663953      -2.09681686      -0.50538098       0.00000000       0.00000000       0.01297738       0.09693856      -0.00812538       0.07236299
H       -5.51456031      -1.78393598       0.73100535       0.00000000       0.00000000       0.04894804       0.07938922      -0.05053650       0.08912892
H       -5.90477322       0.09966846       1.45899738       0.00000000       0.00000000       0.04663824       0.00057176      -0.05868452       0.09300907
H       -4.73953395       1.40113542       1.56789955       0.00000000       0.00000000       0.04165779       0.00121482      -0.01668972       0.06739380
H       -5.28326667       1.72805716      -1.02463871       0.00000000       0.00000000      -0.03962788      -0.00294810      -0.02455533       0.03077154
H       -6.77631017       0.90299759      -0.61760108       0.00000000       0.00000000       0.04750166      -0.04914448       0.08515101       0.06836307
H       -5.69727642       3.33178056       0.88848684       0.00000000       0.00000000       0.02366276      -0.02994061       0.01515648       0.02366160
H       -7.89301578       3.22925845      -1.22166478       0.00000000       0.00000000       0.01565605      -0.02266655       0.01645902       0.05398644
H       -7.40435511       4.63281174      -0.27889465       0.00000000       0.00000000      -0.02347221      -0.03563288      -0.02493251       0.06333380
H       -6.28841153       3.93325221      -1.43957622       0.00000000       0.00000000      -0.00341749      -0.03919757       0.00657389       0.02967619
H       -8.49930177       2.17205311       0.93879754       0.00000000       0.00000000       0.02826054       0.01473368      -0.02194073       0.04853243
H       -7.24599920       1.64586691       2.06107029       0.00000000       0.00000000      -0.05685552      -0.00170010       0.02961700       0.03259840
H       -8.15071503       4.53933215       1.82340789       0.00000000       0.00000000      -0.02814165      -0.02375375      -0.04654822       0.04711789
H       -8.83060651       3.35562946       2.92613627       0.00000000       0.00000000      -0.00086588       0.06105394       0.05358813       0.05490626
H       -6.31960538       4.90172105       3.20853428       0.00000000       0.00000000       0.00904390       0.06390843      -0.00731723       0.02324365
H       -8.00194199       1.72041293       4.22397867       0.00000000       0.00000000      -0.02374987      -0.01117380       0.02564536       0.04808403
H       -6.45130138       1.21402209       4.91146193       0.00000000       0.00000000      -0.01210482      -0.01285322      -0.01072364       0.02964955
H       -7.60627932       2.08241022       5.90485000       0.00000000       0.00000000      -0.02425689       0.00097826      -0.00232476       0.05904127
H       -5.16610226       4.78225547       5.21962289       0.00000000       0.00000000      -0.00790578      -0.03799903       0.01972230       0.03477842
H       -6.12330563       3.98852364       6.46405777       0.00000000       0.00000000       0.01743185       0.01245410      -0.01735920       0.06255662
H       -4.80166429       3.10817628       5.72008529       0.00000000       0.00000000      -0.00949165       0.02010214       0.01167236       0.03177825
H       -3.13953839       1.59205853      -1.59708910       0.00000000       0.00000000      -0.03135889       0.08712258      -0.00909670       0.09372382
H       -3.26998978       2.34883093       0.02720661       0.00000000       0.00000000      -0.08174726       0.02626298       0.02518492       0.10004753
H       -1.64529601       3.14094266      -2.17513228       0.00000000       0.00000000      -0.03452685       0.04170746      -0.01400094       0.09310321
H       -0.46089820       3.66015380      -0.94986893       0.00000000       0.00000000       0.00842409      -0.03658065      -0.01696867       0.10166759
H        2.11015327       2.43285900      -4.97011065       0.00000000       0.00000000       0.00320928       0.00093691      -0.01772311       0.08607662
H        2.15304943       1.12008300      -3.78228042       0.00000000       0.00000000      -0.01319379      -0.06671226       0.02129857       0.08838918
H       -0.10856822       0.39745774      -4.44566338       0.00000000       0.00000000      -0.01001144      -0.02229133      -0.00242217       0.03987898
H       -0.31883994       1.85273404      -5.41166213       0.00000000       0.00000000      -0.03651689       0.05832141      -0.03285360       0.04594669
H        0.01021202       0.16175987      -6.96637947       0.00000000       0.00000000       0.00224248      -0.01096628      -0.04512112       0.05751971
H        1.52083800       1.05711626      -6.94068796       0.00000000       0.00000000      -0.01472011       0.04244152       0.00535254       0.05387697
H        2.00031442      -1.26954710      -7.12067953       0.00000000       0.00000000      -0.00796034       0.02747153       0.03378919       0.06154030
H        2.54745579      -0.74339297      -5.53568176       0.00000000       0.00000000      -0.00254086       0.02238143      -0.02977482       0.03848951
H        0.66702781      -1.80724529      -4.44441741       0.00000000       0.00000000      -0.00393527       0.01720866       0.01409678      -0.00479227
H       -0.13630128      -2.09982372      -5.99626106       0.00000000       0.00000000      -0.00310596       0.00582906      -0.01599982       0.03735269
H        2.52742156      -3.34750257      -5.16295065       0.00000000       0.00000000       0.01780034      -0.01151678      -0.00227048       0.04082045
H        0.96981274      -4.17127616      -5.10348894       0.00000000       0.00000000      -0.01692588       0.01747359       0.00491400       0.03786729
H        1.65163346      -3.67451661      -6.64889835       0.00000000       0.00000000      -0.01198525      -0.00641753      -0.01527842       0.05826855
H        1.30732753       4.32795118      -4.49288285       0.00000000       0.00000000      -0.01555554       0.00471576      -0.00886708       0.09991097
H       -0.16325561       4.52846110      -3.54305084       0.00000000       0.00000000       0.01261141      -0.07083274      -0.00904494       0.06328978
H        1.73126987       5.92274412      -2.74999221       0.00000000       0.00000000       0.00472864      -0.05048232      -0.02049568       0.07931624
H        1.08642428       4.87055736      -1.50187064       0.00000000       0.00000000       0.01897093       0.03077131       0.01782226       0.02827555
H        2.98540991       3.26049093      -1.92341153       0.00000000       0.00000000       0.00455801       0.00460350       0.02464679       0.02505570
H        4.12381364       5.57679298      -3.56169372       0.00000000       0.00000000      -0.00395070      -0.01306101      -0.00377574       0.05626802
H        4.95993096       4.08673618      -3.12951126       0.00000000       0.00000000       0.01150737       0.00879991      -0.03205083       0.05858319
H        3.60622347       4.03060688      -4.23651109       0.00000000       0.00000000      -0.00685679       0.01845290      -0.02304999       0.03321092
H        3.72255913       6.11423507      -1.12920850       0.00000000       0.00000000      -0.02383903      -0.08983894       0.00314399       0.04860545
H        2.88648963       4.93963063      -0.10384364       0.00000000       0.00000000       0.02544739       0.04431104      -0.00801242       0.01776287
H        5.73010653       4.68763439      -1.17625330       0.00000000       0.00000000       0.00168956      -0.02137216      -0.00174312       0.05574552
H        5.24785476       5.09650685       0.45700814       0.00000000       0.00000000       0.02285984      -0.02244537      -0.00443757       0.05027762
H        4.06691528       2.83471736       0.62113529       0.00000000       0.00000000      -0.03567289      -0.03705538      -0.02894704       0.00381316
H        4.68279785       0.71444345       0.97642298       0.00000000       0.00000000       0.04329037       0.00739081      -0.05556920       0.00470246
H        5.38980779      -0.02272694      -0.47409793       0.00000000       0.00000000       0.03319868       0.00185469       0.01341983       0.04289691
H        6.43114726       0.43375956       0.86640014       0.00000000       0.00000000      -0.04056592       0.01876112      -0.01176402       0.05548356
H        7.07346069       3.19756325      -1.57497284       0.00000000       0.00000000       0.03884696       0.04574400      -0.01284962       0.05018289
H        7.83711782       1.89871122      -0.66914014       0.00000000       0.00000000       0.03731900      -0.00540992       0.04948567       0.06076958
H        6.82056981       1.51805753      -2.04527157       0.00000000       0.00000000       0.02086895      -0.03682399      -0.04032799       0.05372006
C       -3.28936162       3.38442586       2.89190463       0.00000000       0.00000000       0.00191192       0.01199970       0.04139074      -0.11713129
C       -2.04795861       4.19113229       2.53262503       0.00000000       0.00000000      -0.03228738      -0.02964708      -0.01633985      -0.06591008
C       -1.02221658       4.18211456       3.66886028       0.00000000       0.00000000       0.00565160      -0.01277091      -0.05283971      -0.06990276
C        0.21610918       5.00885561       3.32789359       0.00000000       0.00000000       0.02686343      -0.02310363      -0.00565646      -0.07632407
C        1.14083149       4.41219055       2.25431026       0.00000000       0.00000000       0.01324144      -0.01504990       0.03384916      -0.06947039
C        2.30482024       3.53797242       2.74397464       0.00000000       0.00000000       0.00704860       0.01450389       0.04890140      -0.02261811
N        2.00808887       2.15351777       3.13897288       0.00000000       0.00000000       0.01648718      -0.07793758      -0.08047201      -0.04253694
C        1.84651687       1.89978405       4.57530111       0.00000000       0.00000000       0.03334146      -0.00264483       0.02508714      -0.03381174
C        2.97023138       1.14545732       5.31499852       0.00000000       0.00000000       0.01179774      -0.00983757      -0.03128369      -0.08233431
C        2.39004594       0.29471853       6.46630321       0.00000000       0.00000000       0.01557102      -0.00985570      -0.00930251      -0.01777198
C        3.44602274      -0.66802987       7.00334260       0.00000000       0.00000000       0.00239246      -0.00769500       0.00492976      -0.11712715
C        1.85188332       1.21258154       7.57148931       0.00000000       0.00000000       0.02119567       0.00695452      -0.02090273      -0.07061721
C        0.94481603       0.53009891       8.60725015       0.00000000       0.00000000       0.07613092       0.03553733      -0.01015422      -0.06415184
C       -0.38240690       0.08386134       8.06802560       0.00000000       0.00000000      -0.10032561       0.09652186      -0.03663621      -0.06399362
C       -1.44702899       0.85460964       7.85949990       0.00000000       0.00000000       0.09017474      -0.08013932       0.04442657       0.00257639
C       -1.47273908       2.33802005       8.06168672       0.00000000       0.00000000      -0.01498541       0.03196862       0.00170915      -0.11406343
C       -2.76646443       0.28216146       7.42865216       0.00000000       0.00000000      -0.03364151       0.00804715       0.00341908      -0.11183019
C        1.82886388       1.22191919       2.20803805       0.00000000       0.00000000       0.00405990       0.13872924      -0.12913809       0.26226009
O        1.59773347       1.48282507       0.99850137       0.00000000       0.00000000      -0.01656523       0.07444854       0.05161084      -0.38650917
C        1.99780085      -0.27005193       2.52522223       0.00000000       0.00000000      -0.01831885      -0.08869380       0.02349500       0.03916515
O        0.92715607      -1.01865114       1.91977371       0.00000000       0.00000000       0.00809037      -0.05131391       0.00335705      -0.22706303
C        1.28408219      -2.36962787       1.61475508       0.00000000       0.00000000      -0.01155970       0.04230479       0.06648471       0.03332434
C        1.88569710      -2.38762594       0.20510129       0.00000000       0.00000000      -0.04152631       0.12256059      -0.14402354       0.25093199
O        1.96323096      -1.26890457      -0.36878714       0.00000000       0.00000000      -0.02294745      -0.16308278      -0.04597020      -0.38538904
N        2.27737744      -3.51355663      -0.34829894       0.00000000       0.00000000      -0.02176524       0.02403376       0.10072724      -0.02422874
C        2.93671128      -3.44287791      -1.65017642       0.00000000       0.00000000      -0.00648054      -0.02684807       0.01661326      -0.01644106
C        4.37871814      -2.96106993      -1.48131837       0.00000000       0.00000000       0.07244970      -0.00330227      -0.03417625      -0.06724489
C        5.18797243      -3.02192937      -2.77696938       0.00000000       0.00000000       0.01626321       0.04294255      -0.10051871      -0.06829384
C        4.82524061      -1.94876475      -3.80502992       0.00000000       0.00000000       0.00618612       0.06670332      -0.01344649      -0.06679028
C        5.22034939      -0.53406751      -3.37827557       0.00000000       0.00000000       0.00144375       0.02171365      -0.00838651      -0.05456127
C        5.17677537       0.44693916      -4.54562748       0.00000000       0.00000000       0.00701930      -0.01052054       0.00279799      -0.11039288
C        2.19924399      -4.80700776       0.31443962       0.00000000       0.00000000      -0.01091797      -0.12607965       0.00542479      -0.03230999
C        0.79211592      -5.42413478       0.39046132       0.00000000       0.00000000      -0.01705059      -0.00417712       0.00505378      -0.08145172
C       -0.00861220      -5.45274486      -0.92074942       0.00000000       0.00000000       0.00526773      -0.00545494      -0.02926496      -0.01940993
C        0.58544947      -6.43918197      -1.91966817       0.00000000       0.00000000       0.02370897      -0.01795999      -0.02633575      -0.12035579
C       -1.46785942      -5.82552692      -0.60748830       0.00000000       0.00000000       0.02383216       0.03891134       0.01212231      -0.06828420
C       -2.42043346      -5.66136581      -1.79675671       0.00000000       0.00000000       0.03554530      -0.04451783       0.06062210      -0.06572553
C       -2.55423436      -4.23719859      -2.23562970       0.00000000       0.00000000      -0.01864203       0.01416662      -0.03377415      -0.07095507
C       -2.53217895      -3.75769397      -3.47768537       0.00000000       0.00000000      -0.03127559       0.00122555       0.03692771      -0.00306669
C       -2.82177431      -2.30740587      -3.76819413       0.00000000       0.00000000      -0.00117403       0.02895664      -0.01837229      -0.12082634
C       -2.28498790      -4.57519627      -4.70432992       0.00000000       0.00000000      -0.00087443       0.00255170      -0.02984912      -0.12082117
H       -3.97773202       3.31317510       2.05245185       0.00000000       0.00000000       0.05846286       0.09308752       0.03093155       0.03194513
H       -3.04338746       2.37658861       3.23014887       0.00000000       0.00000000       0.01434646       0.01691089      -0.02036968       0.01244170
H       -3.81900929       3.87574542       3.69859829       0.00000000       0.00000000      -0.03191000      -0.00932245       0.02034677       0.07723116
H       -1.61101293       3.81948055       1.59825287       0.00000000       0.00000000       0.04182191      -0.01898218       0.02547898       0.00966272
H       -2.34310446       5.22491399       2.34594701       0.00000000       0.00000000      -0.02005142      -0.02188532       0.00196085       0.05730153
H       -1.49323080       4.62397737       4.54925637       0.00000000       0.00000000       0.01548082      -0.04626939      -0.02298991       0.06178861
H       -0.73844232       3.15856771       3.93298267       0.00000000       0.00000000       0.00964324      -0.01000817       0.01214138       0.01638340
H       -0.13718784       5.98191167       2.97979098       0.00000000       0.00000000       0.05983160      -0.02727734      -0.02164527       0.06065470
H        0.78712820       5.20066794       4.23711032       0.00000000       0.00000000       0.04722288      -0.04848680      -0.02665130       0.05508204
H        0.58007234       3.85666904       1.49650918       0.00000000       0.00000000      -0.00007286       0.03451455       0.05099093       0.03885687
H        1.62073215       5.25548733       1.75328473       0.00000000       0.00000000      -0.02447969      -0.03685698      -0.04071111       0.06640682
H        3.04604117       3.50524457       1.94092842       0.00000000       0.00000000      -0.10407888      -0.14046316      -0.00921683       0.08488594
H        2.79051734       4.02378596       3.59017485       0.00000000       0.00000000      -0.04515731      -0.05514916       0.06777509       0.08746335
H        1.69545956       2.87394799       5.03983580       0.00000000       0.00000000       0.06308601      -0.02362697      -0.02116581       0.09167278
H        0.91732499       1.34269268       4.70742018       0.00000000       0.00000000       0.03223924      -0.02478228       0.02388781       0.07136846
H        3.51885546       0.50539731       4.62267693       0.00000000       0.00000000      -0.00690751      -0.00739656      -0.01291991       0.03645957
H        3.70647442       1.83215252       5.73543800       0.00000000       0.00000000      -0.11074508       0.08639904      -0.05051907       0.06975542
H        1.55402236      -0.30447168       6.08603904       0.00000000       0.00000000      -0.00738725       0.01814731      -0.04100672       0.02418656
H        4.29144183      -0.12901100       7.42119998       0.00000000       0.00000000      -0.01155233       0.02404189      -0.01520767       0.05503104
H        3.01853189      -1.28751742       7.78526365       0.00000000       0.00000000       0.02677724       0.00744536       0.02883704       0.06137887
H        3.81317083      -1.33156217       6.22220282       0.00000000       0.00000000       0.00706824       0.03971228      -0.02524567       0.02906291
H        2.69804748       1.65934200       8.09662759       0.00000000       0.00000000      -0.00788451      -0.00236500      -0.03230525       0.04947702
H        1.27657204       2.01548892       7.10777473       0.00000000       0.00000000       0.01511561       0.02466300       0.06296927       0.03168605
H        1.44702834      -0.33046662       9.04667545       0.00000000       0.00000000       0.06216553       0.02408879      -0.02864755       0.04831190
H        0.79124424       1.25437641       9.40856705       0.00000000       0.00000000      -0.06044225      -0.04039812       0.04170487       0.05446167
H       -0.47581979      -0.97849550       7.88629303       0.00000000       0.00000000       0.00561062      -0.05401589       0.02977591       0.02079583
H       -0.54927805       2.71120339       8.48977666       0.00000000       0.00000000      -0.01757868       0.01236862       0.01150348       0.05027640
H       -1.64696681       2.84483163       7.11059104       0.00000000       0.00000000       0.00604208       0.00988696       0.00133998       0.02865481
H       -2.29499476       2.60217094       8.72395294       0.00000000       0.00000000       0.00990286       0.01835975       0.01430219       0.05855364
H       -2.71413613      -0.79556199       7.28749950       0.00000000       0.00000000      -0.01767228       0.03060349       0.00909079       0.03349788
H       -3.51104682       0.48444007       8.19724179       0.00000000       0.00000000      -0.00263481      -0.01548269      -0.00487081       0.06109559
H       -3.11359756       0.75468564       6.50798802       0.00000000       0.00000000      -0.02577206      -0.01264474       0.01983115       0.02752883
H        2.95220775      -0.52519911       2.04046875       0.00000000       0.00000000       0.02906580      -0.04797952       0.03444931       0.10159430
H        2.04598499      -0.53050881       3.58200979       0.00000000       0.00000000       0.01206037       0.09892967       0.13395129       0.09928417
H        1.98473233      -2.76741933       2.35703482       0.00000000       0.00000000       0.02382065       0.00272920       0.02633447       0.09793068
H        0.36266464      -2.96360594       1.65356428       0.00000000       0.00000000      -0.01084498       0.09099786       0.00018363       0.11750368
H        2.92360490      -4.43711184      -2.09162253       0.00000000       0.00000000      -0.01099295       0.00775043      -0.05670612       0.08430058
H        2.36866896      -2.76424555      -2.28890327       0.00000000       0.00000000       0.02715061       0.06924665       0.03137615       0.08479907
H        4.37344582      -1.94075177      -1.09749013       0.00000000       0.00000000      -0.01936702      -0.00435793       0.00170268       0.05127463
H        4.87230023      -3.59434013      -0.74347698       0.00000000       0.00000000      -0.00531979      -0.05125825       0.05549905       0.04773178
H        6.24325274      -2.91400007      -2.52071684       0.00000000       0.00000000      -0.00739835       0.00461429      -0.02280064       0.06003660
H        5.06894580      -4.00440609      -3.23737235       0.00000000       0.00000000      -0.02754808      -0.02034061       0.04639820       0.04755603
H        5.34770659      -2.18139392      -4.73541919       0.00000000       0.00000000      -0.02581164      -0.01587623       0.03785796       0.05448513
H        3.75271997      -1.97300775      -4.01094973       0.00000000       0.00000000       0.04717593      -0.02967131      -0.00416561       0.02609825
H        4.55061824      -0.17937886      -2.58834513       0.00000000       0.00000000       0.00891711      -0.00428027      -0.00956197       0.01788497
H        6.23690248      -0.56009344      -2.98108306       0.00000000       0.00000000      -0.01375478      -0.00238474       0.01430397       0.04105033
H        4.18374873       0.47961665      -4.98865611       0.00000000       0.00000000       0.02515264       0.01092497      -0.02038956       0.02567733
H        5.43913889       1.45155216      -4.22147102       0.00000000       0.00000000      -0.00402342      -0.02330802       0.02188220       0.04003580
H        5.88051023       0.14614163      -5.31667166       0.00000000       0.00000000       0.00196346       0.00254669      -0.00407426       0.05270159
H        2.85190209      -5.47956410      -0.23868187       0.00000000       0.00000000       0.02506628      -0.04623758       0.00655191       0.10041126
H        2.59405483      -4.73177657       1.33215799       0.00000000       0.00000000       0.01843654       0.01945757      -0.04046600       0.06400212
H        0.92526558      -6.44682142       0.74842713       0.00000000       0.00000000      -0.02594523       0.01791282      -0.02041879       0.08159449
H        0.19910822      -4.90097919       1.14235425       0.00000000       0.00000000      -0.00456198      -0.02539552       0.02015547       0.03108197
H        0.00443415      -4.44869988      -1.36144029       0.00000000       0.00000000       0.00553425       0.02914055       0.02361358       0.02947274
H        0.51325586      -7.45576654      -1.54288606       0.00000000       0.00000000       0.00526016       0.00508002       0.01610999       0.05830942
H        0.05013079      -6.38899729      -2.86213690       0.00000000       0.00000000       0.02141552      -0.01561611      -0.02224352       0.05458474
H        1.62956198      -6.22635341      -2.12566378       0.00000000       0.00000000       0.03259544      -0.01226148       0.00469098       0.03557056
H       -1.50746901      -6.86514846      -0.27323227       0.00000000       0.00000000       0.02264730       0.10373246       0.00772680       0.05460639
H       -1.82968778      -5.19311554       0.20925378       0.00000000       0.00000000       0.01069655      -0.03593863       0.02544529       0.02331850
H       -2.11095756      -6.31095612      -2.61046484       0.00000000       0.00000000       0.00682444       0.03039467      -0.00666811       0.05801330
H       -3.40871743      -6.00798130      -1.47846019       0.00000000       0.00000000       0.00296545       0.01930352      -0.00056075       0.05866195
H       -2.77163881      -3.55942547      -1.41443282       0.00000000       0.00000000      -0.00220606       0.04772914       0.03443723       0.00855491
H       -3.00577326      -1.72637247      -2.86103962       0.00000000       0.00000000       0.02339608      -0.02577459      -0.03754908       0.01527753
H       -2.01146055      -1.85081079      -4.33811372       0.00000000       0.00000000      -0.01403778      -0.00243559       0.00868666       0.04165144
H       -3.71268302      -2.24689697      -4.39397139       0.00000000       0.00000000       0.00791000       0.01482826       0.04518692       0.06769950
H       -2.09992053      -5.61694449      -4.47305066       0.00000000       0.00000000       0.00060491      -0.01509859      -0.03720863       0.05475112
H       -3.14742080      -4.52423771      -5.36567139       0.00000000       0.00000000      -0.03329241      -0.00680861       0.00982818       0.06692406
H       -1.43355731      -4.18450244      -5.25881495       0.00000000       0.00000000       0.00987622       0.02495915      -0.00680050       0.05363933
O       -0.92404824       1.16056968       1.89291986       0.00000000       0.00000000      -0.03523247      -0.04462462       0.01759979      -0.53291625
H       -0.80805056       2.08139963       2.18858943       0.00000000       0.00000000      -0.03237543      -0.08615111      -0.03789431       0.35366938
H       -1.67909755       0.81571770       2.39481575       0.00000000       0.00000000       0.05328321       0.02401642       0.05007969       0.34641806
O       -0.27933995      -1.95660833      -1.84141503       0.00000000       0.00000000      -0.06860944       0.15067221       0.10259675      -0.52191542
H       -1.10553479      -2.43667158      -2.06219012       0.00000000       0.00000000       0.15182416      -0.02459068       0.12224088       0.35087987
H        0.04668613      -1.63438225      -2.69784509       0.00000000       0.00000000       0.04754418      -0.05915754      -0.01179506       0.34202566
