95
Properties=species:S:1:pos:R:3:initial_charges:R:1:initial_magmoms:R:1:forces:R:3:charge:R:1 energy=-3417.1929753004124 free_energy=-3417.1929753004124 dipole="3.3010518720964184 -0.7662784291603871 3.761268164385849" pbc="F F F"
Yb      -0.33208711       0.27660382       0.70635851       3.00000000       0.00000000       0.08701818       0.01507556      -0.04400380       0.64450584
C       -0.72413741      -6.47835343      -1.36154026       0.00000000       0.00000000      -0.03045321      -0.00421917      -0.02234062      -0.11306225
C       -0.87198397      -7.19977132      -0.03189114       0.00000000       0.00000000      -0.00898631      -0.01717594      -0.05226442      -0.06433174
C       -0.14740769      -6.57169152       1.15623494       0.00000000       0.00000000      -0.03860432      -0.06244220      -0.03861695      -0.06741659
C       -0.69416499      -5.22822531       1.66868084       0.00000000       0.00000000       0.01538744       0.03900763      -0.03919740      -0.05350824
C       -0.12432941      -4.02675252       0.85985178       0.00000000       0.00000000       0.03138999       0.14179345      -0.07804783      -0.08078565
C       -0.42602214      -2.70821532       1.47691318       0.00000000       0.00000000      -0.03684816      -0.02414009       0.05784251       0.09458137
N       -1.29688990      -1.88384549       0.86064566       0.00000000       0.00000000      -0.15686560      -0.02916981      -0.00040137      -0.08356439
N       -1.90152864      -0.89480143       1.55792739       0.00000000       0.00000000      -0.11021403       0.06212003       0.02567539      -0.10859838
C       -1.34355856      -0.50405708       2.70147311       0.00000000       0.00000000      -0.03660718       0.03246983       0.11952045       0.18671339
C       -1.66231633       0.90444944       3.18633794       0.00000000       0.00000000       0.03296561      -0.00944928      -0.01234056       0.10111147
C       -2.49833228       1.47948264       4.12988880       0.00000000       0.00000000       0.03741116      -0.02233607      -0.00557075      -0.00226935
C       -2.37571700       2.85992948       4.32160106       0.00000000       0.00000000       0.04555386      -0.05421482      -0.06154588       0.02108994
C       -1.41555228       3.61168378       3.64635892       0.00000000       0.00000000      -0.00846988       0.02748695      -0.02465005      -0.00758390
C       -0.63842407       2.97815941       2.67830246       0.00000000       0.00000000      -0.01138127       0.00314501      -0.02089254       0.10857749
C        0.46359501       3.51299407       1.81572844       0.00000000       0.00000000      -0.02034670      -0.06434938       0.03287606       0.10331836
C        1.00637666       4.79710801       1.75192861       0.00000000       0.00000000       0.04709267      -0.07905694       0.08850769      -0.00735898
C        2.09324471       5.01671886       0.90882393       0.00000000       0.00000000      -0.00588577      -0.11649396      -0.01006052       0.01819729
C        2.65790719       3.97552134       0.16989812       0.00000000       0.00000000      -0.08847825      -0.03192746      -0.05377387      -0.00433972
C        2.05609586       2.72628155       0.27182910       0.00000000       0.00000000      -0.04620497      -0.05331361       0.08172234       0.09669927
C        2.38061928       1.39527343      -0.31946321       0.00000000       0.00000000      -0.04532764       0.13900168      -0.01503297       0.17861548
N        1.26011920       0.66970408      -0.54031701       0.00000000       0.00000000      -0.04112068       0.01643699      -0.03349098      -0.12326787
N        1.35932004      -0.55924866      -1.03329310       0.00000000       0.00000000      -0.01238934      -0.12006056       0.07652388      -0.08092906
C        2.53853963      -1.10656600      -1.31478317       0.00000000       0.00000000      -0.04636376      -0.00147578      -0.08640738       0.09794834
C        2.46874514      -2.21612346      -2.30002116       0.00000000       0.00000000      -0.02609607       0.06339844       0.05972503      -0.07645126
C        3.39775749      -3.41769768      -2.17248885       0.00000000       0.00000000      -0.00238260       0.08246819      -0.04909745      -0.07420520
C        3.17091857      -4.18463347      -0.87323351       0.00000000       0.00000000       0.00451358       0.03071454      -0.00753319      -0.05987168
C        4.36888687      -5.06522345      -0.52729798       0.00000000       0.00000000       0.00178733      -0.01156775       0.01525742      -0.06370823
C        4.25561227      -5.60430869       0.88872331       0.00000000       0.00000000       0.03375362      -0.03940295       0.05905297      -0.11130118
C        3.64677283      -0.48768128      -0.61268638       0.00000000       0.00000000      -0.04106415      -0.00881943      -0.12286185       0.12686724
C        4.80504365      -1.22213561      -0.06730707       0.00000000       0.00000000       0.00895033       0.01182220      -0.05281014      -0.07677692
C        6.08602948      -0.37225701      -0.05680026       0.00000000       0.00000000       0.03383866       0.00504612       0.01464813      -0.06388581
C        6.16697325       0.53645967       1.16340099       0.00000000       0.00000000       0.09706005       0.07223924       0.04856369      -0.06974590
C        7.35048458       1.49748538       1.07852304       0.00000000       0.00000000       0.07017984       0.12260988      -0.07407245      -0.06176295
C        7.10153096       2.62525194       0.09082246       0.00000000       0.00000000       0.00285638       0.01892818      -0.02036202      -0.11264371
N        3.53095405       0.78042858      -0.26979755       0.00000000       0.00000000       0.11858330       0.07893093      -0.09487798      -0.15422136
N        0.98580576       2.53811494       1.05812851       0.00000000       0.00000000      -0.14143978      -0.07510845       0.00446078      -0.14638565
N       -0.82319984       1.65971255       2.45895912       0.00000000       0.00000000      -0.10676323       0.07638620      -0.02415061      -0.14769221
N       -0.10785325      -0.92738184       3.02958812       0.00000000       0.00000000       0.07653896       0.05610253       0.05786886      -0.22528230
C        0.26948788      -2.14674544       2.59011749       0.00000000       0.00000000       0.04145433      -0.05546564       0.06095949       0.12135202
C        1.63148998      -2.64579297       2.97968524       0.00000000       0.00000000       0.07077643       0.02888528       0.01267121      -0.06624137
C        2.20519023      -1.99503400       4.24737852       0.00000000       0.00000000       0.04173606      -0.01569732      -0.12479808      -0.06700293
C        1.64237735      -2.59970087       5.53168268       0.00000000       0.00000000      -0.00444552       0.02837639      -0.04933881      -0.07508024
C        0.17736879      -2.26696308       5.81638420       0.00000000       0.00000000      -0.15331875      -0.04395365       0.00013341      -0.06485839
C       -0.83762396      -3.20548249       5.18207725       0.00000000       0.00000000      -0.01100080      -0.05959278      -0.02934650      -0.10352254
H       -1.03825972      -7.13456931      -2.16759031       0.00000000       0.00000000      -0.02679196      -0.02707280      -0.03591304       0.07529407
H        0.30788908      -6.18807424      -1.55259918       0.00000000       0.00000000      -0.02320869       0.01080909       0.04849853       0.03942560
H       -1.36779437      -5.60157946      -1.40529324       0.00000000       0.00000000       0.02856828       0.05004622      -0.01355520       0.05013300
H       -0.45192330      -8.20505466      -0.15551190       0.00000000       0.00000000       0.00554401       0.01521327       0.04050245       0.09406366
H       -1.93217837      -7.35054952       0.19072135       0.00000000       0.00000000       0.07385447       0.09969662       0.04350394       0.06989043
H        0.91907847      -6.48596780       0.93163423       0.00000000       0.00000000      -0.04801463       0.06135500      -0.01310081       0.05060975
H       -0.24000025      -7.28166168       1.97931130       0.00000000       0.00000000      -0.00438747       0.01906891       0.09847143       0.08067606
H       -0.41820384      -5.13622265       2.71858961       0.00000000       0.00000000       0.02896160       0.09907362       0.01696941       0.05477635
H       -1.78057684      -5.22228574       1.60670903       0.00000000       0.00000000      -0.05008935      -0.00388932      -0.01931925       0.07678744
H       -0.56492869      -4.04074037      -0.13662184       0.00000000       0.00000000       0.04358681      -0.01460156      -0.03475971       0.10691143
H        0.95599665      -4.17510349       0.79086027       0.00000000       0.00000000      -0.05989040       0.04579757       0.00643583       0.09189987
H       -3.22168465       0.90859511       4.69366403       0.00000000       0.00000000       0.06953564      -0.02393640      -0.02357536       0.12894308
H       -3.03499841       3.35672680       5.01844717       0.00000000       0.00000000       0.02384370      -0.03413251       0.06191386       0.13805311
H       -1.30450093       4.66167413       3.87951898       0.00000000       0.00000000       0.02576584      -0.05739278      -0.08928835       0.12513299
H        0.62685772       5.60789989       2.34973619       0.00000000       0.00000000      -0.11124789       0.03966300       0.01969860       0.11843216
H        2.50946793       6.01118180       0.83385043       0.00000000       0.00000000       0.01963180      -0.02939374       0.00064984       0.13090232
H        3.49753890       4.15419943      -0.48434458       0.00000000       0.00000000       0.01819796      -0.05419077       0.04696302       0.12144216
H        2.67912388      -1.72297393      -3.26023717       0.00000000       0.00000000       0.00717710      -0.04237980      -0.02482950       0.13425671
H        1.42580699      -2.55244477      -2.34463927       0.00000000       0.00000000       0.05773389       0.07991183      -0.00725052       0.09760473
H        4.43448745      -3.09911366      -2.25223498       0.00000000       0.00000000       0.08686672      -0.01570577      -0.04897391       0.06501547
H        3.20596879      -4.07320740      -3.01982058       0.00000000       0.00000000       0.02570206      -0.04391991      -0.03303763       0.08615513
H        2.27989954      -4.80792407      -0.96697309       0.00000000       0.00000000       0.01144549       0.00642430      -0.01061727       0.04633208
H        2.99291854      -3.47344983      -0.05459637       0.00000000       0.00000000       0.04386017       0.02094050      -0.00751953      -0.00026312
H        5.29269789      -4.49046957      -0.61782057       0.00000000       0.00000000       0.00332836      -0.00980678       0.01747298       0.04122535
H        4.42921104      -5.88684006      -1.23926188       0.00000000       0.00000000       0.00311729      -0.03243746       0.01808406       0.06500104
H        4.24718653      -4.79051239       1.61202349       0.00000000       0.00000000      -0.06096172       0.02317605       0.03427542       0.02354932
H        5.10475693      -6.23446615       1.12029764       0.00000000       0.00000000       0.05963731      -0.10666697      -0.00543457       0.07042987
H        3.35200153      -6.19633664       1.00546064       0.00000000       0.00000000      -0.00854492      -0.02507598       0.03636153       0.03944480
H        4.95419217      -2.15071978      -0.60355623       0.00000000       0.00000000       0.06518680      -0.08008849      -0.03354273       0.10393092
H        4.56617044      -1.46642465       0.97574968       0.00000000       0.00000000       0.06040785      -0.07128450      -0.01328040       0.09814679
H        6.13455771       0.22472668      -0.96657062       0.00000000       0.00000000       0.01281031      -0.03604470      -0.01243096       0.07120299
H        6.93134119      -1.05901254      -0.05558359       0.00000000       0.00000000       0.06549527       0.01150387      -0.00590293       0.08710632
H        6.26149232      -0.07456341       2.06046477       0.00000000       0.00000000       0.00629151      -0.08306007       0.06537123       0.05109157
H        5.24439599       1.11527446       1.24243675       0.00000000       0.00000000      -0.00019324       0.04021674       0.02951212       0.04660658
H        8.25829861       0.95351757       0.80651507       0.00000000       0.00000000      -0.03813514      -0.00744773      -0.02072257       0.07545449
H        7.54391515       1.93418181       2.06431715       0.00000000       0.00000000      -0.07588799      -0.04848792      -0.03357961       0.07964094
H        6.96552174       2.24070724      -0.92101131       0.00000000       0.00000000       0.05316854       0.04153415       0.04492617       0.05924481
H        7.94212304       3.31517775       0.07191000       0.00000000       0.00000000      -0.06593005      -0.03858833       0.02104917       0.07362297
H        6.19600807       3.17036799       0.36315994       0.00000000       0.00000000       0.08937803       0.03084769      -0.01232373       0.04001260
H        2.29330103      -2.42961167       2.12031007       0.00000000       0.00000000      -0.08668335      -0.05741066       0.11466941       0.05636651
H        1.62184437      -3.73425933       3.11194997       0.00000000       0.00000000      -0.06846644       0.14213714      -0.04723134       0.11057927
H        2.04462520      -0.91290013       4.21699256       0.00000000       0.00000000      -0.07470071      -0.08524144       0.03187720       0.05098585
H        3.28448860      -2.15893948       4.24957447       0.00000000       0.00000000      -0.02515330      -0.05672191      -0.03334890       0.06892315
H        2.24654634      -2.22133310       6.35327782       0.00000000       0.00000000       0.02846127       0.02898892       0.06267305       0.07367198
H        1.77779469      -3.68166947       5.50772750       0.00000000       0.00000000      -0.00413216      -0.02806140       0.02931684       0.06454871
H       -0.03225356      -1.23797546       5.50816559       0.00000000       0.00000000       0.02213890       0.02506570       0.01834573       0.04005702
H        0.02378313      -2.32277080       6.89362496       0.00000000       0.00000000      -0.03181019       0.06075224       0.06335634       0.08263354
H       -0.81621136      -3.16528810       4.08211311       0.00000000       0.00000000       0.04858517       0.00874485       0.09031961       0.02853919
H       -1.84578771      -2.94063635       5.50435134       0.00000000       0.00000000       0.10577446      -0.04914144      -0.05448457       0.06115372
H       -0.64300362      -4.23783250       5.46947852       0.00000000       0.00000000       0.00238315       0.04820169       0.00468229       0.07243370
