117
Properties=species:S:1:pos:R:3:initial_charges:R:1:initial_magmoms:R:1:forces:R:3:charge:R:1 energy=-4651.483434618163 free_energy=-4651.483434618163 dipole="2.0156996703053043 1.196592057978445 -1.6642970074246666" pbc="F F F"
Yb      -0.69233759      -0.46901809       0.15683827       3.00000000       0.00000000      -0.03632505      -0.00095140      -0.03165073       0.77275567
C        6.82702941       2.73524679      -1.96336475       0.00000000       0.00000000      -0.05171519       0.01400699       0.01020906      -0.10726065
C        5.55826516       2.92502745      -2.79091246       0.00000000       0.00000000      -0.04500450       0.00663752      -0.01178280      -0.05866027
C        4.32799301       3.28931653      -1.94866656       0.00000000       0.00000000      -0.05280263      -0.01750256       0.00146960      -0.06335302
C        3.08115483       3.52675250      -2.82017729       0.00000000       0.00000000      -0.00817386       0.00834697      -0.02939732      -0.06490790
C        2.04750874       4.49301583      -2.22289067       0.00000000       0.00000000       0.02484311      -0.01447693      -0.00054608      -0.07411801
C        1.08404643       3.89186079      -1.19388003       0.00000000       0.00000000       0.03279167       0.03094341       0.06524495      -0.01083156
N       -0.02079912       3.16734674      -1.80786927       0.00000000       0.00000000      -0.06655957       0.02275355      -0.00407579      -0.02188503
C       -0.92902085       3.74992196      -2.74205815       0.00000000       0.00000000      -0.00207713       0.09074927       0.01522668       0.04328354
C       -1.43438359       5.00951947      -2.16678194       0.00000000       0.00000000       0.01561231       0.02218748       0.02929183       0.00968442
C       -1.74783058       4.91596237      -0.79881661       0.00000000       0.00000000      -0.00586508       0.03669766      -0.00618428      -0.03798069
C       -2.16279375       6.01779011      -0.08818199       0.00000000       0.00000000      -0.04382245       0.04825714      -0.01009942      -0.02209055
C       -2.27469567       7.24008217      -0.73160061       0.00000000       0.00000000      -0.03226596       0.07851732      -0.08000485      -0.01073016
C       -2.05652454       7.32355092      -2.09766084       0.00000000       0.00000000      -0.01789871      -0.02526529      -0.05797169      -0.01320411
C       -1.62777047       6.21962489      -2.82121570       0.00000000       0.00000000       0.00031507      -0.00159740      -0.02354029      -0.02029059
C       -1.42248989       2.99389321      -3.76519666       0.00000000       0.00000000      -0.04435243      -0.02252576       0.07330929      -0.00264942
C       -2.66391313       3.40290058      -4.46464574       0.00000000       0.00000000       0.03741324      -0.11543200       0.05788719       0.00990669
C       -2.90869855       3.35085574      -5.83290959       0.00000000       0.00000000       0.06246611       0.04478403       0.02562089      -0.02647591
C       -4.14073499       3.75793879      -6.32638447       0.00000000       0.00000000       0.08098528       0.00142327      -0.02007169      -0.01589190
C       -5.13956628       4.20563142      -5.47642747       0.00000000       0.00000000       0.06153415       0.03000842      -0.05549570      -0.01118131
C       -4.91653216       4.21710204      -4.11042724       0.00000000       0.00000000       0.03493799       0.00429210       0.02103697      -0.01925288
C       -3.69991542       3.80246107      -3.61110940       0.00000000       0.00000000       0.03443768       0.02096908      -0.00395439      -0.03334837
C       -0.93815104       1.60084388      -3.76280077       0.00000000       0.00000000      -0.00737464       0.03247165      -0.04784116       0.02468308
C       -0.42571879       0.75419137      -4.74309440       0.00000000       0.00000000      -0.01105979      -0.04573943       0.03159211       0.00126007
C        0.25170798      -0.42672606      -4.33675917       0.00000000       0.00000000       0.09630317       0.05774239       0.08625139       0.03110551
C        1.31698971      -1.05257763      -5.06724767       0.00000000       0.00000000      -0.01593584      -0.06954659       0.02844662      -0.01929124
C        2.25818395      -1.81100518      -4.44015726       0.00000000       0.00000000       0.10802290       0.12516629       0.03552572      -0.01906513
C        2.25647205      -2.02625282      -3.01498821       0.00000000       0.00000000      -0.06414973      -0.16222234       0.00989496       0.03114010
C        3.37046190      -2.35638868      -2.22313876       0.00000000       0.00000000      -0.09662033      -0.04319672       0.06199736       0.00418466
C        3.30405246      -2.15748597      -0.82584449       0.00000000       0.00000000      -0.00087694       0.13711412       0.00383761       0.02178130
C        4.39194727      -2.06839058       0.10629712       0.00000000       0.00000000      -0.01721010       0.10418963      -0.05941882       0.00482928
C        5.76552306      -2.57303807      -0.09916281       0.00000000       0.00000000      -0.06634331      -0.03241675      -0.10210690       0.00094874
C        6.07546339      -3.86824508       0.30068535       0.00000000       0.00000000       0.02072931       0.04183476       0.05267365      -0.02860185
C        7.40097728      -4.24503335       0.40802242       0.00000000       0.00000000       0.06280922      -0.02409936      -0.09688793      -0.01694674
C        8.40745976      -3.34490003       0.09659566       0.00000000       0.00000000       0.04053291       0.01420912      -0.05509202      -0.01521626
C        8.09353329      -2.08290266      -0.38346794       0.00000000       0.00000000      -0.00850900      -0.03242387      -0.07503334      -0.01891561
C        6.77186142      -1.69574213      -0.48858139       0.00000000       0.00000000      -0.02235977       0.01853255       0.09984438      -0.03254427
C        4.21093143      -1.39337339       1.29172779       0.00000000       0.00000000      -0.03431453      -0.01551553      -0.00711463       0.06015174
C        5.22594184      -1.33461788       2.36048848       0.00000000       0.00000000       0.03709906      -0.03615983      -0.04629166       0.00099497
C        5.09848077      -2.30975876       3.34817244       0.00000000       0.00000000       0.01908886       0.02745014       0.06882603      -0.02652157
C        5.89232394      -2.24697755       4.47701838       0.00000000       0.00000000       0.12384389      -0.01669840      -0.00330973      -0.01742382
C        6.80732706      -1.21678272       4.62416743       0.00000000       0.00000000       0.04534854       0.01993317       0.02873372      -0.01435807
C        6.96675532      -0.27669185       3.61801435       0.00000000       0.00000000       0.07909744      -0.05182202      -0.02197492      -0.01883536
C        6.18101849      -0.33295168       2.47908703       0.00000000       0.00000000      -0.00117060       0.00595959       0.06859529      -0.03147190
N        3.00238302      -0.82221459       1.65310810       0.00000000       0.00000000       0.05018292      -0.08910298       0.05046831      -0.00117456
C        2.93536452       0.31925664       2.58185852       0.00000000       0.00000000      -0.00696112      -0.09323876      -0.04396730      -0.01578821
C        2.14491952       0.14306066       3.89466352       0.00000000       0.00000000      -0.01474440       0.02640571      -0.08339214      -0.06296572
C        3.00685388       0.14885234       5.16388709       0.00000000       0.00000000      -0.05948514      -0.06928789      -0.06199421      -0.07107673
C        3.93066770       1.35334799       5.37863581       0.00000000       0.00000000       0.02114666      -0.10512619      -0.03103570      -0.06893767
C        3.28533051       2.74318209       5.39393790       0.00000000       0.00000000      -0.00034687      -0.03689859       0.03991289      -0.06387699
C        3.18268643       3.41692832       4.03097137       0.00000000       0.00000000      -0.00658721       0.01560055      -0.04117784      -0.10750793
C        1.89015246      -1.21641982       1.02647301       0.00000000       0.00000000       0.00130243      -0.09153489       0.00403599       0.24233612
O        0.73550981      -0.88919992       1.46807818       0.00000000       0.00000000       0.00819062       0.07663236       0.15061702      -0.39303084
C        2.03315272      -1.84532576      -0.27148982       0.00000000       0.00000000       0.02263406       0.05179254      -0.00070988       0.05718659
N        0.90818408      -1.77464619      -1.00715264       0.00000000       0.00000000       0.05431261       0.10821045      -0.02215862      -0.16660118
C        1.03867007      -1.72303174      -2.34194434       0.00000000       0.00000000      -0.00662863       0.06583910      -0.02066700       0.09499162
C        0.06595157      -0.87956620      -3.00776943       0.00000000       0.00000000      -0.01043713       0.00844288       0.01354840       0.09139037
N       -0.65369785      -0.16493356      -2.11886582       0.00000000       0.00000000       0.03039717       0.04163889      -0.00404929      -0.16795667
C       -0.89172702       1.11441381      -2.42615560       0.00000000       0.00000000       0.02405881       0.01253633      -0.01595375       0.05604832
C       -0.41346839       1.98634521      -1.34858768       0.00000000       0.00000000      -0.09396393       0.02821511      -0.10045610       0.25522479
O       -0.14421676       1.52886866      -0.18919259       0.00000000       0.00000000       0.11770477      -0.05276575      -0.12684998      -0.40086371
H        7.67507195       2.55042839      -2.61908934       0.00000000       0.00000000      -0.06894696      -0.03334450       0.02074315       0.05659458
H        6.73537678       1.89587048      -1.27513785       0.00000000       0.00000000      -0.03251348       0.00949206      -0.00908673       0.02121578
H        7.04872113       3.62888638      -1.38580909       0.00000000       0.00000000      -0.04489275       0.00991463       0.01050948       0.04986517
H        5.35875273       2.01726982      -3.36532605       0.00000000       0.00000000      -0.03134172      -0.03058803       0.00923362       0.02433606
H        5.73659531       3.72980744      -3.50428794       0.00000000       0.00000000      -0.01450328       0.01705054      -0.02138937       0.05161712
H        4.56672459       4.19657086      -1.38967695       0.00000000       0.00000000      -0.06670491      -0.00754387      -0.03085667       0.05188494
H        4.13088214       2.49475418      -1.22320158       0.00000000       0.00000000       0.00757389      -0.01115572       0.05197727       0.00915059
H        2.60241353       2.57293297      -3.06826191       0.00000000       0.00000000       0.03068973      -0.00513911      -0.00254503       0.00721871
H        3.42182042       3.97201814      -3.75502168       0.00000000       0.00000000      -0.00230921      -0.00500233      -0.04103996       0.06654253
H        1.45651155       4.94826559      -3.02073451       0.00000000       0.00000000       0.03243767      -0.03345455       0.01193159       0.06280989
H        2.59795698       5.29382371      -1.72578863       0.00000000       0.00000000      -0.09590097       0.03267245      -0.02401672       0.08198382
H        0.69447810       4.69561105      -0.56908851       0.00000000       0.00000000      -0.02019309       0.04840416       0.07060913       0.09419824
H        1.59788897       3.16670485      -0.56224802       0.00000000       0.00000000       0.03979551      -0.00129766       0.10842599       0.07389612
H       -1.67765380       3.96133467      -0.29069163       0.00000000       0.00000000      -0.03855821       0.01984536      -0.00114384       0.01086266
H       -2.40405895       5.91891245       0.95911321       0.00000000       0.00000000       0.03391316       0.06432996      -0.00238149       0.06052052
H       -2.53031599       8.12041084      -0.16663833       0.00000000       0.00000000      -0.11111763       0.04618579      -0.02396210       0.08084631
H       -2.22926696       8.25989396      -2.60334192       0.00000000       0.00000000       0.10090115       0.01086059      -0.03444849       0.08235100
H       -1.43858722       6.29810725      -3.88091727       0.00000000       0.00000000       0.02355030       0.00409698       0.03440479       0.06364478
H       -2.13635127       3.03534520      -6.51867604       0.00000000       0.00000000      -0.00347753       0.02332127       0.02626239       0.05163834
H       -4.31991496       3.74651734      -7.38869041       0.00000000       0.00000000       0.03958192      -0.04444642      -0.05405730       0.07599519
H       -6.08326215       4.54970887      -5.86933053       0.00000000       0.00000000       0.02568706      -0.04034879      -0.04507545       0.07928207
H       -5.68145756       4.56149331      -3.43349844       0.00000000       0.00000000      -0.04176777      -0.05265136       0.01814726       0.06620063
H       -3.53748362       3.76434014      -2.54586558       0.00000000       0.00000000      -0.09418389       0.05846598       0.03861342       0.02538255
H       -0.37246997       1.06808983      -5.77732839       0.00000000       0.00000000      -0.00948381      -0.00413937       0.07325666       0.11630299
H        1.43248400      -0.82264519      -6.11574178       0.00000000       0.00000000      -0.05828022      -0.05197082      -0.00798910       0.11021104
H        3.10032023      -2.16440696      -5.01314328       0.00000000       0.00000000       0.06541092      -0.07879657       0.03077601       0.11084318
H        4.30673186      -2.65610273      -2.68097656       0.00000000       0.00000000      -0.08702588       0.10510584       0.05197907       0.11810762
H        5.28000342      -4.55063997       0.56107567       0.00000000       0.00000000       0.04411307      -0.00474720       0.04021214       0.04265779
H        7.64719034      -5.23977240       0.74270775       0.00000000       0.00000000       0.01372206      -0.01239891       0.00366966       0.07441637
H        9.44174223      -3.62183700       0.21547484       0.00000000       0.00000000       0.01717916      -0.06228907      -0.00142236       0.07613687
H        8.87448428      -1.39446094      -0.66491230       0.00000000       0.00000000       0.02414685      -0.02614274      -0.00792855       0.06975280
H        6.50358147      -0.71164707      -0.84666656       0.00000000       0.00000000       0.05913218       0.00301923       0.03369868       0.03242712
H        4.37467625      -3.10275224       3.23269044       0.00000000       0.00000000      -0.00314168       0.01824332       0.00024295       0.04027709
H        5.80186463      -3.00619956       5.23700594       0.00000000       0.00000000      -0.02562567       0.01164986       0.03511326       0.07493276
H        7.39444681      -1.14279018       5.52656817       0.00000000       0.00000000       0.02673780      -0.03566138      -0.05378758       0.07903933
H        7.71199326       0.49600644       3.72054576       0.00000000       0.00000000      -0.02924233       0.03427731      -0.00561445       0.07319569
H        6.28686392       0.40512160       1.69764000       0.00000000       0.00000000       0.02969103      -0.00787151       0.02157173       0.04367999
H        2.47398411       1.12778696       1.99433054       0.00000000       0.00000000       0.05377811      -0.12424745       0.03592330       0.07068942
H        3.96090677       0.59624167       2.83064104       0.00000000       0.00000000      -0.08279213      -0.02075043      -0.10113765       0.11044077
H        1.56844124      -0.78553910       3.86940353       0.00000000       0.00000000       0.06956466       0.03419429      -0.03107248       0.05216324
H        1.44106979       0.97261719       3.96240375       0.00000000       0.00000000      -0.06481007      -0.02881337       0.01715481       0.05871258
H        3.61649896      -0.75620808       5.18341499       0.00000000       0.00000000       0.05594585       0.01409866      -0.00832617       0.04266399
H        2.32007075       0.08716671       6.00993407       0.00000000       0.00000000      -0.01107082       0.02147877       0.00038027       0.06303871
H        4.73836876       1.34161736       4.64576262       0.00000000       0.00000000       0.05287520       0.02348061      -0.05434989       0.02940769
H        4.40176559       1.19215115       6.34881208       0.00000000       0.00000000       0.00015191      -0.01153459       0.01647512       0.05916866
H        3.90572492       3.38184565       6.02049413       0.00000000       0.00000000       0.03573940       0.02719862       0.04040870       0.05846316
H        2.30522569       2.69713909       5.86576984       0.00000000       0.00000000      -0.07630039      -0.03689693       0.01279002       0.04310177
H        4.13215888       3.35580243       3.50731692       0.00000000       0.00000000       0.06099004      -0.00778747      -0.03554832       0.03461739
H        2.94528828       4.46856350       4.15441399       0.00000000       0.00000000      -0.03357881       0.05570333       0.05035594       0.05088943
H        2.41158749       2.97927996       3.40370130       0.00000000       0.00000000      -0.05377869      -0.06065621      -0.03725779       0.01166033
O       -1.75710123       0.33455777       2.05880186       0.00000000       0.00000000       0.02199024       0.04665908       0.04069048      -0.45005610
H       -2.34613057       1.04312644       2.37284409       0.00000000       0.00000000      -0.01552674      -0.07726899      -0.04583301       0.37064712
H       -1.18885899       0.12776982       2.82509171       0.00000000       0.00000000      -0.07789552      -0.01888805       0.01115782       0.38486321
O       -2.39392889      -2.09247321       0.06367392       0.00000000       0.00000000      -0.06984381      -0.07022604      -0.07422261      -0.46382057
H       -3.35545467      -2.04129848      -0.07498264       0.00000000       0.00000000      -0.10077531       0.11071924       0.04357490       0.37013650
H       -2.23612113      -3.05284272       0.04792158       0.00000000       0.00000000       0.10408400      -0.05935285       0.06236354       0.37239125
