111
Properties=species:S:1:pos:R:3:initial_charges:R:1:initial_magmoms:R:1:forces:R:3:charge:R:1 energy=-4160.914198176054 free_energy=-4160.914198176054 dipole="1.2989981414778897 -0.027603968805859143 1.5058224996998737" pbc="F F F"
Yb      -0.05653547      -0.06982331       0.21706552       2.00000000       0.00000000      -0.06595003       0.04626714      -0.13681414       0.84062993
C       -3.13326470       0.62820444       5.46324440       0.00000000       0.00000000       0.01001751      -0.03218686      -0.01691648      -0.11454254
C       -2.56326881      -0.48648654       4.59355546       0.00000000       0.00000000       0.02588281      -0.01282226       0.00945560      -0.06602241
C       -3.36644287      -0.70606674       3.30776850       0.00000000       0.00000000       0.01988042       0.03696310       0.02640136      -0.01636796
N       -3.47416798       0.51799737       2.51785041       0.00000000       0.00000000      -0.02340556       0.04953778       0.02901879      -0.02931283
C       -4.79966853       1.11970094       2.40555608       0.00000000       0.00000000       0.04907342       0.01406002      -0.04194387      -0.02962789
C       -5.62955437       0.44691347       1.29808849       0.00000000       0.00000000       0.01072885      -0.01757579       0.02662934      -0.06541795
C       -6.93071418       1.18748727       1.00282227       0.00000000       0.00000000       0.00822791       0.02824913      -0.00385174      -0.11752173
C       -2.38599090       0.93423245       1.89815412       0.00000000       0.00000000      -0.05952027      -0.02335703      -0.05319540       0.26150014
O       -1.29377271       0.31865343       1.97660665       0.00000000       0.00000000      -0.03794041       0.01602500      -0.01431992      -0.36200941
C       -2.44787434       2.21722941       1.05457468       0.00000000       0.00000000      -0.03453760       0.00963287      -0.03138347       0.04326849
O       -1.33929110       2.25356967       0.16452321       0.00000000       0.00000000      -0.01842519      -0.03318405       0.00861848      -0.22951836
C       -0.45815167       3.36494169       0.25824151       0.00000000       0.00000000      -0.01699898       0.06696516      -0.02087793       0.03744720
C        0.82605775       2.91004371       0.95538517       0.00000000       0.00000000       0.00944795       0.00875327      -0.08232849       0.25793632
O        1.05732465       1.68087038       0.96077166       0.00000000       0.00000000       0.01912028      -0.00215833       0.05220665      -0.37100753
N        1.64620536       3.78068033       1.52059461       0.00000000       0.00000000      -0.03104314       0.01215384      -0.01313430      -0.04034169
C        2.75894812       3.22853057       2.29700019       0.00000000       0.00000000      -0.03997738      -0.00031508       0.00611595      -0.01433632
C        2.29469480       2.45180328       3.53437678       0.00000000       0.00000000      -0.00629570      -0.03989526       0.02809542      -0.06339703
C        1.65741010       3.32614029       4.60760786       0.00000000       0.00000000      -0.00297669      -0.01052608      -0.00505782      -0.11384085
C        1.65601979       5.20687061       1.20422725       0.00000000       0.00000000       0.00535240      -0.03490590      -0.00267172      -0.02466378
C        1.17808558       6.11800349       2.33720966       0.00000000       0.00000000      -0.01998340      -0.04484663      -0.01243757      -0.07015623
C       -0.31735750       5.99621642       2.59541432       0.00000000       0.00000000      -0.04903610       0.01682046       0.01879768      -0.11268344
H       -2.54819553       0.71094588       6.37442457       0.00000000       0.00000000      -0.02949481       0.02064802       0.01889480       0.06076974
H       -4.16292144       0.41653888       5.73953738       0.00000000       0.00000000       0.00087656      -0.00828584       0.01900104       0.05277452
H       -3.10021232       1.58722207       4.95021275       0.00000000       0.00000000       0.00240421      -0.00708019       0.00237772       0.03183190
H       -2.57234916      -1.42167674       5.15482665       0.00000000       0.00000000       0.00590922       0.00532549      -0.01831011       0.06518613
H       -1.52705339      -0.26105093       4.33476399       0.00000000       0.00000000      -0.01649789       0.00005796       0.00648489       0.05457740
H       -4.37244732      -1.03623574       3.55314263       0.00000000       0.00000000      -0.06235327      -0.03245157      -0.00730406       0.08344579
H       -2.87431223      -1.46173214       2.68967517       0.00000000       0.00000000       0.03569705      -0.06519129      -0.00160821       0.07455027
H       -4.71508125       2.19312134       2.22101221       0.00000000       0.00000000      -0.00430379      -0.08014170       0.01086084       0.06289924
H       -5.30484487       0.98321944       3.36496668       0.00000000       0.00000000       0.03065358       0.06833384      -0.03816160       0.09295698
H       -5.87236960      -0.57036512       1.60590437       0.00000000       0.00000000       0.03044523      -0.03071017       0.00844264       0.05705371
H       -5.03429699       0.37610112       0.38667238       0.00000000       0.00000000       0.05256497       0.02664861      -0.02527355       0.04639092
H       -7.53541955       1.30164647       1.89841848       0.00000000       0.00000000       0.04756715      -0.02424197       0.03234995       0.05651865
H       -7.51100730       0.62365294       0.27709437       0.00000000       0.00000000       0.01673141       0.00345989       0.01926024       0.06646909
H       -6.75001755       2.17488842       0.58498386       0.00000000       0.00000000       0.06998028       0.00275123       0.04476387       0.04706966
H       -2.44983172       3.09156168       1.71528465       0.00000000       0.00000000      -0.05980583      -0.01264043       0.03999786       0.08498375
H       -3.35930842       2.21611938       0.44298469       0.00000000       0.00000000       0.04345484       0.02246332       0.01538358       0.10451525
H       -0.93482332       4.19856783       0.77900896       0.00000000       0.00000000       0.03136896       0.02640062      -0.06399616       0.09383221
H       -0.21247819       3.65495006      -0.77354935       0.00000000       0.00000000      -0.06067176       0.00124846       0.02562268       0.10924340
H        3.40886500       4.04620721       2.59936351       0.00000000       0.00000000      -0.01110445       0.09080440      -0.00415219       0.08237489
H        3.31744000       2.54988250       1.64564686       0.00000000       0.00000000       0.03133328       0.00184880      -0.02051731       0.06135864
H        3.16977249       1.95734509       3.95922180       0.00000000       0.00000000       0.03694149       0.03587629      -0.02644775       0.05831232
H        1.59517729       1.66930700       3.22847134       0.00000000       0.00000000       0.00004347      -0.01033480       0.01266200       0.05613526
H        2.32310833       4.13735628       4.89316205       0.00000000       0.00000000       0.00577867      -0.02835635       0.00852588       0.05275009
H        1.45458301       2.73097675       5.49485947       0.00000000       0.00000000       0.01249128       0.01850361      -0.02968587       0.05704477
H        0.71632841       3.74981366       4.26906414       0.00000000       0.00000000       0.00552840       0.01114298      -0.01339952       0.03970927
H        1.04569854       5.37355616       0.31288448       0.00000000       0.00000000       0.05503128       0.01276800       0.08386734       0.06298012
H        2.68913935       5.46547843       0.95052447       0.00000000       0.00000000      -0.03174599      -0.01078724       0.01803980       0.08073645
H        1.40737950       7.14538291       2.05148546       0.00000000       0.00000000      -0.00587653      -0.02657638       0.00297234       0.07293244
H        1.72791727       5.90101799       3.25241646       0.00000000       0.00000000       0.01113751      -0.02874022      -0.02252372       0.06763330
H       -0.88337688       6.28069846       1.70973951       0.00000000       0.00000000      -0.00014005       0.01384083       0.02653063       0.04054807
H       -0.60704420       6.66318316       3.40168316       0.00000000       0.00000000      -0.01001175       0.00704988       0.01986911       0.06824204
H       -0.58684524       4.98081811       2.88680275       0.00000000       0.00000000       0.02246963       0.04854860       0.01326813       0.02564407
C        6.74920106      -1.95647936      -2.53188690       0.00000000       0.00000000      -0.00681819       0.00446120       0.05325279      -0.11888338
C        5.84429885      -1.98712724      -1.30413292       0.00000000       0.00000000      -0.01047448       0.00240759       0.00796479      -0.06203516
C        5.37003487      -0.56998567      -0.95097745       0.00000000       0.00000000      -0.00761140      -0.04611566       0.01473192      -0.02816428
N        4.28623718      -0.53344170       0.02321466       0.00000000       0.00000000      -0.03297803      -0.03763081       0.02509984      -0.04407292
C        4.63920152      -0.18037531       1.39410759       0.00000000       0.00000000       0.02594341       0.00538616       0.04119644      -0.01724385
C        5.45141091      -1.24643531       2.12913017       0.00000000       0.00000000       0.01465345      -0.03712368       0.01946299      -0.06520689
C        4.65754302      -2.52810033       2.34540095       0.00000000       0.00000000       0.00126530       0.00591488      -0.00320893      -0.11129329
C        3.01213014      -0.75202094      -0.27061613       0.00000000       0.00000000       0.05330918       0.03318625      -0.01411752       0.25438374
O        2.09631783      -0.73980353       0.57806960       0.00000000       0.00000000       0.00721749      -0.04328415       0.05936737      -0.36126489
C        2.60090641      -0.97102830      -1.73217932       0.00000000       0.00000000      -0.00106193       0.00066457      -0.08909160       0.04137809
O        1.21014744      -1.25485621      -1.78302426       0.00000000       0.00000000       0.05755967       0.03006032      -0.01988819      -0.23085674
C        0.83894452      -2.60552657      -2.02835567       0.00000000       0.00000000       0.04608080       0.02581137      -0.02790817       0.04411553
C       -0.05775475      -3.07626353      -0.88015812       0.00000000       0.00000000      -0.05340852       0.10851242       0.02057125       0.25797602
O       -0.30610017      -2.25841774       0.03818457       0.00000000       0.00000000       0.04638738      -0.07830464      -0.04330719      -0.36993959
N       -0.53907717      -4.30464774      -0.88554945       0.00000000       0.00000000      -0.00667969       0.00354608      -0.02123085      -0.03647253
C       -1.32373633      -4.71092290       0.28001150       0.00000000       0.00000000       0.01151335      -0.00662461       0.03390544      -0.01414741
C       -0.52583507      -4.69010989       1.58891200       0.00000000       0.00000000       0.00824332      -0.00940479       0.03555236      -0.06492396
C        0.72071911      -5.56563172       1.54388293       0.00000000       0.00000000      -0.02390623       0.00683016      -0.00339098      -0.11188296
C       -0.48842380      -5.20992728      -2.02873195       0.00000000       0.00000000       0.01979328       0.00168391      -0.00260764      -0.02746365
C        0.53566959      -6.34573578      -1.90744045       0.00000000       0.00000000      -0.01089344       0.02688642       0.02849424      -0.06220204
C        0.62355472      -7.13464438      -3.21194493       0.00000000       0.00000000      -0.01107474       0.02747684       0.02713190      -0.11844223
H        7.03483971      -2.96624600      -2.81652922       0.00000000       0.00000000      -0.02541497       0.05582508       0.00714228       0.06554571
H        7.65759539      -1.39685757      -2.32274273       0.00000000       0.00000000      -0.03731437       0.00072858      -0.01278217       0.05868691
H        6.24021735      -1.48492060      -3.37085562       0.00000000       0.00000000       0.04633165      -0.06329203      -0.00039767       0.04527459
H        6.38424539      -2.41748769      -0.46226060       0.00000000       0.00000000       0.04005385      -0.00129369       0.00695657       0.06418789
H        4.98704559      -2.63451280      -1.49108835       0.00000000       0.00000000      -0.03427934      -0.01949355      -0.05484380       0.02872366
H        5.06141779      -0.05363573      -1.86450427       0.00000000       0.00000000      -0.02313205       0.00065676       0.03142541       0.06070416
H        6.21449127      -0.02303112      -0.52311201       0.00000000       0.00000000      -0.10029666       0.00934758      -0.05182115       0.08811014
H        3.70245080      -0.01193855       1.92736913       0.00000000       0.00000000      -0.02934602       0.01318088       0.04299305       0.08608372
H        5.20591747       0.75315029       1.35542149       0.00000000       0.00000000       0.03979104       0.03095340       0.01284031       0.06096365
H        5.73573576      -0.82909320       3.09655106       0.00000000       0.00000000      -0.03592391      -0.00723320       0.00063836       0.06390232
H        6.37753642      -1.46473475       1.59734171       0.00000000       0.00000000      -0.02336531       0.02405816      -0.06436298       0.05680104
H        3.76862443      -2.32365192       2.93753200       0.00000000       0.00000000      -0.00200762      -0.03329171      -0.00163062       0.04715586
H        5.26826870      -3.25648212       2.87252885       0.00000000       0.00000000      -0.04732660       0.00834454      -0.00666505       0.06083210
H        4.34492142      -2.96462086       1.39829719       0.00000000       0.00000000       0.03121483       0.01933503       0.01108835       0.03217418
H        3.17808446      -1.76264379      -2.21698237       0.00000000       0.00000000       0.04514068       0.04416992      -0.01165582       0.09077229
H        2.74334881      -0.03015792      -2.28322010       0.00000000       0.00000000       0.01853255      -0.03720458       0.00195504       0.10671812
H        1.72080535      -3.24917470      -2.10298246       0.00000000       0.00000000      -0.03229980      -0.06934531      -0.02305360       0.08578249
H        0.29135915      -2.62932973      -2.98015861       0.00000000       0.00000000      -0.02238978       0.00429875      -0.00981042       0.10053709
H       -1.69511910      -5.71577418       0.09276091       0.00000000       0.00000000      -0.00584389      -0.05133869      -0.00142170       0.08360178
H       -2.17100123      -4.02427021       0.36753316       0.00000000       0.00000000      -0.04739433      -0.01028468       0.02933076       0.07127590
H       -1.19193138      -5.04778580       2.37499689       0.00000000       0.00000000      -0.00982338      -0.03302500      -0.00854975       0.06272846
H       -0.24470368      -3.66469718       1.84202072       0.00000000       0.00000000      -0.00705481      -0.01549615      -0.03521634       0.05759240
H        0.46281910      -6.58712039       1.27622301       0.00000000       0.00000000       0.01969475      -0.00153498       0.03593095       0.05356717
H        1.19971522      -5.57936609       2.51950121       0.00000000       0.00000000      -0.01762833      -0.00829243      -0.02691149       0.05789264
H        1.43983070      -5.18624338       0.82069638       0.00000000       0.00000000      -0.01286125      -0.00970195       0.00874794       0.03012172
H       -0.28399935      -4.64046313      -2.93698144       0.00000000       0.00000000      -0.02024008      -0.02068996       0.04825650       0.06295779
H       -1.48392159      -5.65175388      -2.13436045       0.00000000       0.00000000       0.02150235       0.04097497      -0.01045223       0.08641693
H        0.23744126      -7.01867268      -1.10496286       0.00000000       0.00000000       0.00572630      -0.01289819       0.02617345       0.06229388
H        1.51728355      -5.94195632      -1.65396143       0.00000000       0.00000000       0.00488550       0.02246401      -0.02385310       0.03903666
H       -0.35549119      -7.50835367      -3.50217540       0.00000000       0.00000000       0.02248803       0.00944404       0.02451728       0.05619111
H        1.28708225      -7.98685288      -3.08888738       0.00000000       0.00000000      -0.01902845       0.04528927       0.00844092       0.06649600
H        1.00836999      -6.51901696      -4.02254955       0.00000000       0.00000000      -0.02361541       0.00476757       0.04097366       0.04625432
N       -1.42748918       0.07150490      -1.73932242       0.00000000       0.00000000      -0.00640857       0.00175894      -0.09039937       0.79302310
O       -1.90883973      -0.24658788      -2.77620898       0.00000000       0.00000000       0.10943413      -0.00167520       0.11419183      -0.37557189
O       -1.94580126      -0.24695214      -0.65380157       0.00000000       0.00000000       0.03382536      -0.03544762      -0.13610653      -0.44513816
O       -0.37366326       0.73197086      -1.67958103       0.00000000       0.00000000       0.00927049      -0.03423559       0.04814916      -0.43653774
