233
Properties=species:S:1:pos:R:3:initial_charges:R:1:initial_magmoms:R:1:forces:R:3:charge:R:1 energy=-7722.3577376451985 free_energy=-7722.3577376451985 dipole="0.41655111442189774 -0.014662686597777353 0.5999705018877897" pbc="F F F"
Yb      -0.05746793       0.02224351      -0.09228678       2.00000000       0.00000000       0.01230794      -0.00873790       0.07801583       0.85282784
C       -9.30102977      -7.01906692      -1.85231179       0.00000000       0.00000000      -0.01602415      -0.01725137      -0.00319559      -0.10519792
C       -7.80937233      -6.76172060      -2.02901719       0.00000000       0.00000000      -0.03666885      -0.01547732      -0.02183681      -0.05333889
C       -7.50722036      -5.99659230      -3.31591801       0.00000000       0.00000000       0.00740014      -0.00241368      -0.01560057      -0.06121477
C       -6.00963063      -5.79502159      -3.56549472       0.00000000       0.00000000      -0.01787229      -0.02888547      -0.01632116      -0.05916223
C       -5.24915601      -5.23740714      -2.36211791       0.00000000       0.00000000       0.00513762      -0.02552146      -0.04886508      -0.06163165
C       -5.81018980      -3.90224751      -1.88738487       0.00000000       0.00000000      -0.01479742      -0.01196132      -0.02405973      -0.06279759
C       -5.08936394      -3.31124740      -0.67702656       0.00000000       0.00000000      -0.00908584       0.00161515      -0.01114479      -0.05954256
C       -5.56969116      -3.82051661       0.68497695       0.00000000       0.00000000      -0.01864452       0.00961993      -0.00062320      -0.06315064
C       -5.11345872      -5.21748835       1.11530935       0.00000000       0.00000000       0.00814283       0.01739264       0.01562159      -0.06170396
C       -3.60119633      -5.44322663       1.06359952       0.00000000       0.00000000      -0.00423082      -0.01699860      -0.00390714      -0.06257884
C       -2.82158510      -4.41580289       1.88571236       0.00000000       0.00000000      -0.01674666       0.00392777      -0.03487555      -0.06858066
C       -1.32857742      -4.77176280       1.95444490       0.00000000       0.00000000      -0.02139677      -0.01638973      -0.01484346      -0.02913771
N       -0.50200004      -3.60272304       2.22969612       0.00000000       0.00000000       0.01955373       0.07526868      -0.10009372      -0.04581193
C       -0.46129336      -3.20472333       3.63401696       0.00000000       0.00000000       0.00066313       0.02445633      -0.01555203      -0.01104521
C        0.38885212      -4.16191572       4.47100109       0.00000000       0.00000000       0.02103537       0.01296481      -0.04004457      -0.06860813
C        0.30528485      -3.87934163       5.97224380       0.00000000       0.00000000      -0.00703788      -0.01230116      -0.02014069      -0.06458072
C        1.03065200      -2.61834525       6.44975538       0.00000000       0.00000000      -0.03505846       0.02503052       0.00211203      -0.06492094
C        2.51078326      -2.56005402       6.04692872       0.00000000       0.00000000      -0.01151225      -0.00662269       0.00176632      -0.06594096
C        2.76363408      -1.70886349       4.79332073       0.00000000       0.00000000      -0.00213921      -0.01119974      -0.03281573      -0.05927654
C        3.31158586      -0.30898902       5.08580603       0.00000000       0.00000000       0.00565820       0.00875944       0.01263577      -0.05908809
C        2.50667304       0.53483054       6.07176574       0.00000000       0.00000000      -0.01550370       0.02346916       0.01766421      -0.06512071
C        1.20796023       1.11685264       5.51414774       0.00000000       0.00000000      -0.01002907       0.04761328       0.03090931      -0.05191342
C        0.59141011       2.05573557       6.55465222       0.00000000       0.00000000      -0.00297358       0.00043253       0.01556893      -0.06487311
C       -0.62702795       2.84952004       6.08417635       0.00000000       0.00000000       0.02508055      -0.01619848       0.01996910      -0.05712389
C       -1.79889739       1.96131689       5.68967804       0.00000000       0.00000000       0.01240300       0.01005858      -0.00610739      -0.10379842
C        0.02573806      -2.86001115       1.26692409       0.00000000       0.00000000       0.03342834      -0.09380377       0.09462384       0.25207809
O        0.65394436      -1.78962660       1.43790613       0.00000000       0.00000000       0.00427146       0.07460682      -0.04977415      -0.38142492
C       -0.14318696      -3.35024087      -0.18581064       0.00000000       0.00000000      -0.01627375      -0.03427644      -0.08220502       0.04392908
O        0.35782375      -2.36295565      -1.07779388       0.00000000       0.00000000       0.01850011      -0.04651826      -0.02393948      -0.22551910
C        1.64928607      -2.63420575      -1.62524450       0.00000000       0.00000000      -0.01090711      -0.04151740      -0.00160369       0.08930443
C        1.63788733      -3.46385364      -2.90589430       0.00000000       0.00000000      -0.04510595      -0.00963989       0.01448150      -0.07783979
C        3.09163467      -3.68361933      -3.30337532       0.00000000       0.00000000      -0.01606945       0.00618994       0.03189498      -0.07830566
C        3.78199278      -2.34723430      -3.56514909       0.00000000       0.00000000       0.03972079      -0.00384756      -0.03871429      -0.02294226
N        3.35787978      -1.25145441      -2.70148431       0.00000000       0.00000000      -0.16139153      -0.00208365       0.06317643      -0.04022210
C        4.22567211      -0.07472090      -2.68182602       0.00000000       0.00000000      -0.01842491      -0.02300023       0.01010999      -0.01805647
C        4.51766426       0.61491859      -4.01966870       0.00000000       0.00000000      -0.00995658      -0.00904534       0.00868885      -0.07305555
C        3.65503264       1.84701000      -4.28872964       0.00000000       0.00000000      -0.01858647      -0.00632813      -0.02207517      -0.06690671
C        2.18912114       1.53414166      -4.57857768       0.00000000       0.00000000      -0.01823624      -0.00054957      -0.01759649      -0.05823180
C        1.42599467       2.78616581      -5.01999340       0.00000000       0.00000000      -0.00719625      -0.02257733       0.01360142      -0.06137165
C        1.19051484       3.75658995      -3.86794648       0.00000000       0.00000000       0.00153193      -0.00469158      -0.00494582      -0.10351943
C        2.28326896      -1.28257398      -1.92835409       0.00000000       0.00000000       0.15751854       0.05590733      -0.04084095       0.26292537
O        1.78873726      -0.26893218      -1.38735300       0.00000000       0.00000000       0.06089624      -0.08298118       0.00653200      -0.36203988
H       -9.47625016      -7.57077163      -0.93065817       0.00000000       0.00000000      -0.03784627       0.00082937      -0.03944549       0.03569939
H       -9.69612970      -7.59887524      -2.68354081       0.00000000       0.00000000       0.01701671       0.00234661       0.02347670       0.03913281
H       -9.85285365      -6.08115774      -1.79967658       0.00000000       0.00000000       0.04312922      -0.03105572      -0.01502777       0.03293523
H       -7.27401917      -7.71403444      -2.04799198       0.00000000       0.00000000      -0.01930647      -0.00450900       0.02171490       0.02917721
H       -7.45802687      -6.19114306      -1.16689300       0.00000000       0.00000000      -0.00885016      -0.04078849      -0.01318376       0.02803961
H       -8.01262537      -5.02879738      -3.28710413       0.00000000       0.00000000      -0.00181681      -0.02320860      -0.01374687       0.03072424
H       -7.91357668      -6.55248671      -4.16362770       0.00000000       0.00000000      -0.05228072       0.02628501       0.02386453       0.03683734
H       -5.88517531      -5.12280648      -4.41989364       0.00000000       0.00000000      -0.00841275      -0.03516986       0.03395411       0.02615587
H       -5.56661071      -6.75776845      -3.83427656       0.00000000       0.00000000       0.00818695       0.03211857      -0.00181020       0.03078277
H       -4.20642277      -5.08894409      -2.64728125       0.00000000       0.00000000       0.04909304      -0.05618097       0.01488445       0.02049010
H       -5.27212602      -5.97989462      -1.56717228       0.00000000       0.00000000       0.01265825       0.04779227       0.03087718       0.03665392
H       -6.86633105      -4.00634110      -1.64498302       0.00000000       0.00000000      -0.01088418       0.01619395       0.00764949       0.04648086
H       -5.73386473      -3.19840300      -2.72089931       0.00000000       0.00000000      -0.01558971       0.01065875       0.01321461       0.02801249
H       -5.25739155      -2.23363669      -0.68385964       0.00000000       0.00000000      -0.04807100      -0.02126813       0.00409513       0.03665810
H       -4.01146174      -3.45348285      -0.77707620       0.00000000       0.00000000      -0.02597121      -0.04399892      -0.04999467       0.01617498
H       -6.66085058      -3.81268981       0.67964547       0.00000000       0.00000000      -0.02277225       0.00433069       0.05152246       0.04284342
H       -5.24696460      -3.10195061       1.44273326       0.00000000       0.00000000      -0.00577535      -0.01513232      -0.01548019       0.02705996
H       -5.59945844      -5.97753319       0.50225085       0.00000000       0.00000000       0.04192787       0.04311235       0.00061279       0.05058118
H       -5.45304518      -5.37779746       2.14152867       0.00000000       0.00000000      -0.00910648       0.01684046      -0.00127600       0.03891945
H       -3.25965053      -5.41566941       0.02757726       0.00000000       0.00000000      -0.01391939       0.00194554      -0.02143651       0.03586684
H       -3.39368274      -6.44372120       1.44652161       0.00000000       0.00000000       0.02127335      -0.00924553       0.03163428       0.04262436
H       -3.24221355      -4.37343518       2.89154879       0.00000000       0.00000000       0.01045784       0.00660429      -0.02510447       0.05934074
H       -2.93567636      -3.42909547       1.43459646       0.00000000       0.00000000      -0.01770783       0.03477247       0.00089199       0.03967869
H       -1.01544982      -5.23578698       1.02060831       0.00000000       0.00000000      -0.00497492      -0.05289394       0.03507881       0.05639686
H       -1.17168597      -5.50143073       2.75045369       0.00000000       0.00000000       0.03176259       0.04004503      -0.03731588       0.08718090
H       -1.48864408      -3.20659009       4.00949726       0.00000000       0.00000000       0.01733247       0.00364788      -0.02437029       0.07165063
H       -0.07334625      -2.18907628       3.68831749       0.00000000       0.00000000       0.02901088       0.05209111      -0.06887611       0.07909697
H        1.42565986      -4.11559519       4.14222390       0.00000000       0.00000000       0.02292290       0.01527127      -0.03226814       0.05646868
H        0.02915576      -5.17833942       4.30225464       0.00000000       0.00000000       0.06787072      -0.02157569       0.06701378       0.04497728
H        0.72677675      -4.73875802       6.49629165       0.00000000       0.00000000       0.02615631       0.00732659      -0.00866510       0.05229616
H       -0.74778923      -3.81156973       6.25510135       0.00000000       0.00000000       0.00702889       0.00086491       0.05259872       0.03874765
H        0.94142669      -2.59271321       7.53689787       0.00000000       0.00000000       0.02371643      -0.01332526       0.00245653       0.04342166
H        0.51754287      -1.73682450       6.06884310       0.00000000       0.00000000      -0.04617609       0.03372211       0.00355504       0.03743130
H        2.86936496      -3.57802415       5.88875969       0.00000000       0.00000000       0.01210394      -0.00325693      -0.01963405       0.03778792
H        3.10148261      -2.15495562       6.86856980       0.00000000       0.00000000      -0.00949874       0.00669923       0.00467968       0.04730369
H        1.84424384      -1.61474231       4.21679064       0.00000000       0.00000000      -0.00482183       0.03880729      -0.03658657       0.02988902
H        3.49031966      -2.20913828       4.14890196       0.00000000       0.00000000       0.02117101      -0.01435021      -0.00256832       0.02308154
H        3.37882770       0.23692565       4.14060846       0.00000000       0.00000000       0.01187634      -0.00875150      -0.00664128       0.02205403
H        4.32427233      -0.41221852       5.48112467       0.00000000       0.00000000       0.00880993      -0.02320408       0.01753304       0.03573727
H        3.13517721       1.37242605       6.38568636       0.00000000       0.00000000       0.01857148      -0.02765565       0.00674265       0.03367777
H        2.28432728      -0.05209336       6.96282221       0.00000000       0.00000000      -0.01567277       0.02809042       0.00118161       0.04636072
H        0.50820881       0.31680257       5.26465875       0.00000000       0.00000000       0.02955896       0.02897196       0.01724201       0.02549024
H        1.42037093       1.66490516       4.59014031       0.00000000       0.00000000      -0.00006286       0.00563292       0.01503356       0.01134239
H        1.35758870       2.77082913       6.86711547       0.00000000       0.00000000      -0.03235758      -0.03823077       0.02484476       0.03517730
H        0.31315942       1.46725646       7.43172351       0.00000000       0.00000000       0.01293760       0.02301712      -0.01130427       0.04163764
H       -0.34156013       3.48660809       5.24510192       0.00000000       0.00000000      -0.00795423      -0.01744050       0.01632202       0.01745247
H       -0.94063994       3.50605051       6.89831773       0.00000000       0.00000000       0.00146702      -0.01031724      -0.00813525       0.04155332
H       -1.53414529       1.33152221       4.84220385       0.00000000       0.00000000      -0.00159499      -0.00139526       0.01536833       0.02182838
H       -2.66355523       2.56642305       5.41971750       0.00000000       0.00000000       0.00981219      -0.00306462       0.00474667       0.02162902
H       -2.07460740       1.32475949       6.52662610       0.00000000       0.00000000       0.01163659       0.00453131      -0.03596435       0.05396717
H       -1.20871550      -3.48101600      -0.40570455       0.00000000       0.00000000      -0.00161980       0.01574797      -0.11204678       0.09789327
H        0.36617482      -4.30724648      -0.34021999       0.00000000       0.00000000       0.02644053       0.02274052       0.01835731       0.08486828
H        2.27492030      -3.10644021      -0.85045410       0.00000000       0.00000000       0.01685781      -0.05040458      -0.04711844       0.07495493
H        1.11680539      -2.90028447      -3.68179500       0.00000000       0.00000000      -0.04250420      -0.00912491       0.01228360       0.07792771
H        1.11668704      -4.41113408      -2.77016597       0.00000000       0.00000000       0.03619564      -0.02948712       0.05063870       0.07170922
H        3.13966209      -4.28234195      -4.21250325       0.00000000       0.00000000       0.03044902      -0.00962725       0.01275916       0.08660754
H        3.61115309      -4.23448956      -2.51890160       0.00000000       0.00000000      -0.00207366      -0.00194727       0.04897085       0.06125084
H        3.57780773      -2.04782298      -4.59868546       0.00000000       0.00000000      -0.05212598       0.05485396       0.01225746       0.08455155
H        4.86582543      -2.45607594      -3.47174922       0.00000000       0.00000000      -0.00414247      -0.00425363       0.04582154       0.08522669
H        5.17084965      -0.41752414      -2.24495241       0.00000000       0.00000000      -0.03864666       0.02216143      -0.00919403       0.06673873
H        3.75259215       0.63479144      -2.00207231       0.00000000       0.00000000       0.04659152       0.01375857       0.04634881       0.08809315
H        4.41528758      -0.08997214      -4.84311876       0.00000000       0.00000000       0.01054272       0.02225440      -0.02711023       0.05577521
H        5.56014717       0.93875941      -4.00112065       0.00000000       0.00000000      -0.01867743      -0.03378133      -0.00930229       0.06014405
H        4.06746100       2.35902927      -5.15980204       0.00000000       0.00000000       0.02561472       0.00048631      -0.00579627       0.05476769
H        3.73333983       2.53169698      -3.44241719       0.00000000       0.00000000       0.00030427      -0.03164209       0.00423055       0.03661843
H        1.70184554       1.10773707      -3.69347436       0.00000000       0.00000000       0.02953151       0.00470575      -0.01949939       0.02850150
H        2.14518935       0.79475449      -5.38236751       0.00000000       0.00000000      -0.02983941      -0.00383695       0.01938159       0.03265957
H        0.46163721       2.49428532      -5.43599506       0.00000000       0.00000000       0.01811364      -0.03003146       0.00704125       0.04435399
H        1.98233726       3.28502816      -5.81686594       0.00000000       0.00000000      -0.01150885       0.00086778       0.05232588       0.04348687
H        0.71760433       3.23928639      -3.03054906       0.00000000       0.00000000       0.01171598       0.02607378      -0.00914234       0.02568213
H        0.54169038       4.56903054      -4.18595015       0.00000000       0.00000000       0.00624612      -0.01586625       0.00872824       0.04280329
H        2.13104046       4.18719867      -3.53250268       0.00000000       0.00000000      -0.02780117       0.01320138       0.01751238       0.03022021
C       -7.59154945      -2.28178791       9.93681473       0.00000000       0.00000000      -0.00552981      -0.00296824       0.00315184      -0.10508007
C       -6.99986281      -1.18636836       9.05718326       0.00000000       0.00000000       0.00384265      -0.01262695       0.02301554      -0.05257672
C       -5.58809806      -0.81510270       9.50735339       0.00000000       0.00000000       0.00823946       0.00638429      -0.00151612      -0.06154537
C       -4.97827390       0.34956542       8.72482776       0.00000000       0.00000000      -0.00527852      -0.00766825       0.02261060      -0.05978478
C       -4.89337087       0.11780117       7.21557124       0.00000000       0.00000000      -0.00886367       0.03207731       0.02889960      -0.06032986
C       -4.03450441      -1.08838012       6.84513951       0.00000000       0.00000000       0.00866616       0.01041734       0.01612077      -0.06059355
C       -3.69748222      -1.18728228       5.35518094       0.00000000       0.00000000       0.02417695      -0.00607951      -0.00190923      -0.05824659
C       -4.79235537      -1.80639305       4.48280021       0.00000000       0.00000000       0.00650557      -0.01713176      -0.00323356      -0.06056921
C       -6.02803538      -0.94304303       4.20969860       0.00000000       0.00000000       0.00090294      -0.02504810      -0.02183302      -0.06361224
C       -5.73890848       0.43638620       3.61437429       0.00000000       0.00000000      -0.02553056       0.00209578       0.00780991      -0.06432996
C       -5.02918007       0.32570375       2.26763459       0.00000000       0.00000000       0.01142454       0.00480533       0.00269056      -0.07293107
C       -4.84912404       1.68702331       1.58676851       0.00000000       0.00000000       0.01500446      -0.00198720      -0.02850884      -0.02500643
N       -3.97085330       1.59621151       0.42730273       0.00000000       0.00000000      -0.04768423      -0.03832647      -0.00696546      -0.04686701
C       -4.58995296       1.15538187      -0.82185534       0.00000000       0.00000000       0.01637320      -0.00498632      -0.00641951      -0.01548286
C       -5.19831404       2.27843526      -1.65643365       0.00000000       0.00000000       0.00593946       0.04165110       0.02404849      -0.06429997
C       -6.14221442       1.72634971      -2.73177346       0.00000000       0.00000000      -0.01981435       0.02002536       0.01425188      -0.06630381
C       -5.60681041       0.61000411      -3.63498246       0.00000000       0.00000000      -0.00381250       0.00050419       0.01922534      -0.06566433
C       -4.49752467       1.00850458      -4.61411810       0.00000000       0.00000000      -0.00867295       0.00472829      -0.00139053      -0.06522002
C       -3.09937006       1.05831846      -3.99974380       0.00000000       0.00000000       0.00216016      -0.01500905       0.01368397      -0.05782857
C       -1.96454895       1.09073704      -5.02511499       0.00000000       0.00000000       0.01756770      -0.00784734       0.00344766      -0.05911724
C       -1.84032522      -0.14452395      -5.91828661       0.00000000       0.00000000       0.00794665      -0.02016572      -0.00233072      -0.06143298
C       -1.61399201      -1.44330282      -5.14726175       0.00000000       0.00000000       0.00924657      -0.03209140      -0.03195278      -0.05562057
C       -1.56056579      -2.64087448      -6.09826771       0.00000000       0.00000000      -0.00139137      -0.00043144      -0.00256859      -0.06275519
C       -1.22084387      -3.96255802      -5.40738847       0.00000000       0.00000000      -0.00677365       0.02557319      -0.02518133      -0.05583643
C       -2.18906871      -4.30358958      -4.28125886       0.00000000       0.00000000       0.01913857      -0.01345522      -0.00535363      -0.10349726
C       -2.65925076       1.66808535       0.53479475       0.00000000       0.00000000       0.09797639       0.04857326      -0.10585029       0.24787365
O       -1.86368196       1.52499934      -0.42905108       0.00000000       0.00000000      -0.00410317       0.01184585       0.03756723      -0.41599468
C       -2.02567790       1.91168374       1.91039069       0.00000000       0.00000000       0.00415837       0.00861278       0.08307455       0.04304427
O       -0.60911827       1.88547937       1.77573234       0.00000000       0.00000000      -0.02697267       0.04894770       0.05670260      -0.22720232
C       -0.09159028       3.17363196       1.40973302       0.00000000       0.00000000      -0.03189497       0.00917170       0.01206840       0.08860413
C        0.23872145       4.07938951       2.58947895       0.00000000       0.00000000      -0.04149092      -0.05744349       0.01216414      -0.07774161
C        0.78974815       5.36904506       1.99890133       0.00000000       0.00000000      -0.01334903      -0.02616220       0.01385455      -0.07864983
C        2.10386664       5.07245040       1.29072818       0.00000000       0.00000000       0.02027137       0.04398857       0.02018315      -0.02342692
N        2.08311866       3.85625743       0.48607574       0.00000000       0.00000000       0.01588577       0.02971220       0.03856425      -0.03263669
C        3.14783487       3.74452449      -0.51051970       0.00000000       0.00000000      -0.04057242      -0.01632573      -0.00504174      -0.01908693
C        4.58493440       3.86081650       0.01415025       0.00000000       0.00000000      -0.03067709       0.00016498      -0.00745210      -0.07402340
C        5.25794106       2.52569370       0.33413013       0.00000000       0.00000000      -0.00724500      -0.00004876       0.01939570      -0.06802817
C        4.61368721       1.75520107       1.48478504       0.00000000       0.00000000      -0.00374464      -0.00621130       0.01661789      -0.05699977
C        5.44707875       0.53497485       1.88844839       0.00000000       0.00000000      -0.02808444       0.00842485       0.00055074      -0.06080513
C        5.45895156      -0.54684993       0.81499055       0.00000000       0.00000000       0.00479334       0.00560850       0.00103681      -0.10383824
C        1.13720513       2.93823546       0.54192924       0.00000000       0.00000000       0.05694670      -0.04934734      -0.06395225       0.26243615
O        1.16802329       1.87491835      -0.12116521       0.00000000       0.00000000       0.04739200       0.13694471       0.08023233      -0.36644018
H       -8.59267336      -2.54205051       9.59928459       0.00000000       0.00000000       0.02516448      -0.00273984       0.02268356       0.03694278
H       -7.65253221      -1.95288221      10.97228708       0.00000000       0.00000000      -0.00306359      -0.00128866      -0.03690128       0.03903436
H       -6.97141459      -3.17651129       9.90070056       0.00000000       0.00000000      -0.02893537       0.02546417      -0.00018689       0.03271680
H       -7.63821991      -0.30078359       9.09929188       0.00000000       0.00000000       0.00876274      -0.00811926       0.00215040       0.03104574
H       -6.98208702      -1.53773299       8.02293207       0.00000000       0.00000000      -0.00511914      -0.00408948       0.02185480       0.02475832
H       -4.94181859      -1.69197563       9.42566829       0.00000000       0.00000000      -0.01179686       0.01502991       0.01936499       0.03057643
H       -5.62289401      -0.53247340      10.56222416       0.00000000       0.00000000       0.01234413      -0.02148654      -0.01898410       0.03723916
H       -3.97405329       0.54450925       9.11305844       0.00000000       0.00000000      -0.03449511      -0.00318528       0.00577479       0.02701067
H       -5.58008640       1.24539412       8.90096975       0.00000000       0.00000000       0.02543577      -0.02701987      -0.00552446       0.03326068
H       -4.45943335       1.01004039       6.75836543       0.00000000       0.00000000      -0.01337627       0.03714947       0.00443916       0.02083231
H       -5.90129076       0.00721861       6.82418341       0.00000000       0.00000000      -0.01112002       0.00667700      -0.01041146       0.03868613
H       -4.52532228      -2.01191579       7.15380212       0.00000000       0.00000000      -0.02068991       0.02990062       0.01589491       0.04167773
H       -3.09934740      -1.01322230       7.40734474       0.00000000       0.00000000       0.01911970      -0.02325373      -0.01913066       0.02937310
H       -2.80902346      -1.81924928       5.26132154       0.00000000       0.00000000      -0.00128902      -0.02603462      -0.00910883       0.01488625
H       -3.42312677      -0.20373456       4.97336103       0.00000000       0.00000000      -0.02361882       0.01098600       0.00928007       0.02640206
H       -5.12697670      -2.72793609       4.96386703       0.00000000       0.00000000      -0.03261310      -0.01589542      -0.03337596       0.04007456
H       -4.34943624      -2.08839466       3.52289858       0.00000000       0.00000000       0.00254661       0.01515965       0.00696759       0.01913073
H       -6.60039862      -0.81990722       5.12820640       0.00000000       0.00000000       0.02276115       0.01524680      -0.03774855       0.05247690
H       -6.66079225      -1.49012964       3.50751886       0.00000000       0.00000000      -0.03600499      -0.02470744       0.01633807       0.04048128
H       -5.13752335       1.02543051       4.30749359       0.00000000       0.00000000       0.01402096      -0.00890738      -0.00186268       0.04121775
H       -6.68546531       0.96172281       3.48392567       0.00000000       0.00000000      -0.04112956      -0.00688933      -0.02205403       0.04455910
H       -5.59828515      -0.33332864       1.61127578       0.00000000       0.00000000       0.00115734       0.00181514       0.01406779       0.06550580
H       -4.05512608      -0.13680344       2.41824513       0.00000000       0.00000000       0.02865303      -0.00861355      -0.01903999       0.04498183
H       -4.43864174       2.41086016       2.29333766       0.00000000       0.00000000      -0.10405740      -0.00399653      -0.00371150       0.05567139
H       -5.81817782       2.05235860       1.24287562       0.00000000       0.00000000       0.02969389       0.03330978      -0.00994452       0.08854859
H       -5.36472663       0.43287493      -0.56062918       0.00000000       0.00000000      -0.00573295       0.01808671       0.03332926       0.08572371
H       -3.83035978       0.65068361      -1.41530189       0.00000000       0.00000000       0.03308825       0.01994829      -0.02336096       0.08431940
H       -4.40606309       2.87059611      -2.11060443       0.00000000       0.00000000       0.02747336       0.02327249      -0.00343014       0.04977664
H       -5.77408207       2.93802034      -1.00519553       0.00000000       0.00000000      -0.03533904       0.05990743      -0.01419431       0.04442621
H       -6.46244855       2.55296745      -3.36758869       0.00000000       0.00000000       0.01600748       0.04577917       0.03212672       0.05427913
H       -7.03355884       1.34840131      -2.22565524       0.00000000       0.00000000      -0.01254570      -0.04500071      -0.02155171       0.04128785
H       -6.45768376       0.26289578      -4.22659456       0.00000000       0.00000000       0.00884864       0.01919269       0.01766331       0.04695616
H       -5.27564186      -0.23749398      -3.03239968       0.00000000       0.00000000       0.01806825      -0.00896649       0.00956240       0.03149856
H       -4.74311531       1.97303718      -5.06194747       0.00000000       0.00000000       0.03642815       0.00700843      -0.00395601       0.03987437
H       -4.48982486       0.27148184      -5.41816701       0.00000000       0.00000000      -0.02213335      -0.00072430       0.01989557       0.04545890
H       -2.95021511       0.18893163      -3.35610524       0.00000000       0.00000000      -0.00337693      -0.02095598       0.03308361       0.02907111
H       -2.99496260       1.95014940      -3.38017666       0.00000000       0.00000000       0.00804537      -0.01032750       0.02301801       0.02604611
H       -1.03234132       1.20375717      -4.46451210       0.00000000       0.00000000       0.01313845       0.00619440       0.00823321       0.02547745
H       -2.08596864       1.96861846      -5.66406615       0.00000000       0.00000000      -0.00598927      -0.00179907       0.00477814       0.03493766
H       -0.99648423       0.01198399      -6.59567100       0.00000000       0.00000000      -0.02157576       0.00900853      -0.01917630       0.03011813
H       -2.73096858      -0.25085480      -6.53902830       0.00000000       0.00000000      -0.00071495       0.01536708       0.01549001       0.04054015
H       -2.42924648      -1.59404156      -4.43994527       0.00000000       0.00000000       0.02016219       0.03160053      -0.02268428       0.04055396
H       -0.68329015      -1.36767168      -4.57197503       0.00000000       0.00000000      -0.02072511      -0.00408300      -0.01393501       0.00983234
H       -0.82031727      -2.45345875      -6.88153257       0.00000000       0.00000000      -0.02563719       0.00752999       0.03721598       0.03090117
H       -2.53316742      -2.73995817      -6.58640961       0.00000000       0.00000000       0.03631754       0.01118808       0.00972730       0.04086176
H       -0.20167903      -3.92011059      -5.01658117       0.00000000       0.00000000      -0.01413243      -0.00470492      -0.01615977       0.01533945
H       -1.24667166      -4.76080146      -6.15176497       0.00000000       0.00000000      -0.01515541       0.01558268       0.00103382       0.04010714
H       -2.12091381      -3.57493962      -3.47457456       0.00000000       0.00000000      -0.00227579      -0.03154124      -0.00300743       0.02508809
H       -1.96796084      -5.28959538      -3.87717424       0.00000000       0.00000000       0.00307344      -0.01401023      -0.01031445       0.02777021
H       -3.20810689      -4.31090130      -4.66098322       0.00000000       0.00000000       0.02878500       0.00471451       0.01743473       0.04982822
H       -2.29538971       1.08750584       2.57540269       0.00000000       0.00000000       0.06825198       0.00528711       0.08453144       0.11927203
H       -2.35846392       2.85312075       2.35834639       0.00000000       0.00000000       0.03433990       0.02714011      -0.01957624       0.08234344
H       -0.83022537       3.66424607       0.75545807       0.00000000       0.00000000       0.04269139       0.05685801      -0.02988280       0.08117572
H        0.98914336       3.59823197       3.21894586       0.00000000       0.00000000      -0.01381250      -0.00767070       0.01787281       0.07520582
H       -0.64525690       4.27000978       3.19748237       0.00000000       0.00000000      -0.03021971       0.03192139      -0.03885750       0.07008829
H        0.96949637       6.09717467       2.78835300       0.00000000       0.00000000       0.01140134       0.03889603      -0.02371491       0.08704152
H        0.06836487       5.79751593       1.30200087       0.00000000       0.00000000      -0.02083657       0.01115607       0.00495101       0.06076233
H        2.88944985       4.97849527       2.04679046       0.00000000       0.00000000       0.02450688      -0.10163312      -0.00643861       0.08441302
H        2.37899657       5.90372803       0.63662355       0.00000000       0.00000000      -0.01569787      -0.00133431      -0.02872128       0.08725951
H        2.96284348       4.54440241      -1.23594079       0.00000000       0.00000000       0.03224637      -0.03189508      -0.00794005       0.06838509
H        3.01115510       2.78046790      -1.00125469       0.00000000       0.00000000      -0.01785816       0.00580631      -0.06860467       0.09092717
H        4.61830427       4.50415042       0.89194934       0.00000000       0.00000000       0.03116035      -0.00190957      -0.00787360       0.05596802
H        5.17521487       4.35067093      -0.76267533       0.00000000       0.00000000      -0.01190415      -0.00215015       0.02022323       0.06232510
H        6.29463287       2.73501510       0.60415286       0.00000000       0.00000000       0.00915079       0.01025242      -0.01078301       0.05592570
H        5.27539614       1.90714045      -0.56419239       0.00000000       0.00000000      -0.03984941       0.02741282      -0.00297501       0.03844223
H        3.60485203       1.42591972       1.20702684       0.00000000       0.00000000       0.01764232       0.00800259       0.01227777       0.02404229
H        4.53106672       2.42115048       2.34803995       0.00000000       0.00000000      -0.02503163      -0.02622542      -0.00154525       0.03096451
H        5.04068344       0.10749882       2.80549366       0.00000000       0.00000000      -0.03328366       0.02980417      -0.00326475       0.04220587
H        6.46952111       0.85085371       2.10672933       0.00000000       0.00000000      -0.03057655      -0.01177432      -0.04386642       0.04537108
H        4.43727208      -0.79017913       0.51774528       0.00000000       0.00000000       0.02970010      -0.01347267       0.00220895       0.02061005
H        5.93706853      -1.44682368       1.19393603       0.00000000       0.00000000      -0.01639145       0.00770104      -0.00434665       0.04294175
H        6.01463363      -0.21424654      -0.05778465       0.00000000       0.00000000      -0.00382806      -0.02730797      -0.00693914       0.03388230
N       -2.29325806      -0.89290118       0.05355111       0.00000000       0.00000000       0.08607320      -0.09655621       0.13822136       0.81211725
O       -3.44723393      -1.13569704       0.17381260       0.00000000       0.00000000       0.01902105      -0.05014306      -0.10148399      -0.40448039
O       -1.59919562      -0.68588219       1.06528948       0.00000000       0.00000000      -0.10946260      -0.01981622      -0.04775460      -0.47000870
O       -1.72904874      -0.88650246      -1.04029707       0.00000000       0.00000000      -0.01406815       0.01610316      -0.01393148      -0.41772995
