93
Properties=species:S:1:pos:R:3:initial_charges:R:1:initial_magmoms:R:1:forces:R:3:charge:R:1 energy=-3558.2264315017574 free_energy=-3558.2264315017574 dipole="0.3544926069931757 -0.6796495116070511 0.34603380638444675" pbc="F F F"
Lu       0.03285658       0.02892152      -0.01349669       3.00000000       0.00000000       0.00457129       0.03116686       0.00744454       0.83497541
O       -1.36083473       1.67209898      -0.14971454       0.00000000       0.00000000       0.07428882      -0.00838165       0.02565269      -0.37503796
C       -2.54302959       1.45493881       0.21213446       0.00000000       0.00000000      -0.06578677      -0.01128176      -0.02186618       0.24588576
C       -3.01552425      -0.01151690       0.10733044       0.00000000       0.00000000       0.01919657      -0.00797511      -0.06841093       0.02993353
O       -2.03851976      -0.75664335      -0.62794412       0.00000000       0.00000000      -0.11728096      -0.03940861      -0.07130448      -0.21589627
C       -2.22686105      -0.78799243      -2.05332999       0.00000000       0.00000000      -0.07317501      -0.02972541       0.05797083       0.03408229
C       -0.98180212      -0.25983250      -2.78914309       0.00000000       0.00000000      -0.11378239      -0.11753053      -0.05634253       0.25037487
O       -0.03768991       0.23156182      -2.12069795       0.00000000       0.00000000       0.12863906      -0.00135361       0.04299421      -0.38031573
N       -0.93718269      -0.37142292      -4.09807654       0.00000000       0.00000000       0.00819295       0.05592123       0.13123440      -0.02190801
C        0.20794413       0.20831052      -4.80632392       0.00000000       0.00000000       0.05469351      -0.04284732      -0.09849804      -0.01157144
C        0.28970506      -0.29650946      -6.23821065       0.00000000       0.00000000      -0.04050387       0.03076525      -0.09715497      -0.07321959
C       -0.99035647       0.04502263      -7.01106890       0.00000000       0.00000000      -0.02529272       0.00165925       0.02282947      -0.07461855
C       -2.24299525      -0.12912018      -6.13833908       0.00000000       0.00000000      -0.00676592      -0.07464399       0.00681399      -0.07111589
C       -1.94501098      -1.01415917      -4.93057606       0.00000000       0.00000000       0.00098915       0.02769630      -0.01530646      -0.02519821
N       -3.32828788       2.38625352       0.69987036       0.00000000       0.00000000      -0.08117974       0.08470428      -0.03513621      -0.01976727
C       -4.73205640       2.21891044       1.05917690       0.00000000       0.00000000       0.10904402      -0.01361089      -0.00405662      -0.02853403
C       -5.59345140       2.95700092       0.02874640       0.00000000       0.00000000       0.02195255      -0.07017363       0.08868195      -0.06937498
C       -5.20419617       4.43153964       0.01886826       0.00000000       0.00000000      -0.07903516      -0.02049035      -0.02475151      -0.07412986
C       -3.72229998       4.57953417      -0.30319576       0.00000000       0.00000000      -0.03526480       0.00808547       0.03069113      -0.06954976
C       -2.88873288       3.78504183       0.70115848       0.00000000       0.00000000      -0.01898977      -0.09709499       0.00878636      -0.02051450
H       -3.99919689      -0.11747947      -0.36086043       0.00000000       0.00000000      -0.01299275       0.03391283       0.02238699       0.10560462
H       -3.03425633      -0.45015398       1.11510117       0.00000000       0.00000000      -0.05535103      -0.06236996      -0.05283556       0.12073726
H       -3.09548404      -0.18963591      -2.35246739       0.00000000       0.00000000       0.03050691       0.01094306       0.06696199       0.10176952
H       -2.39756304      -1.83339611      -2.34383438       0.00000000       0.00000000      -0.02096204       0.00308983       0.11161740       0.10961128
H        1.11462651      -0.04463366      -4.25277236       0.00000000       0.00000000       0.03208889      -0.00963012       0.06655378       0.07090259
H        0.11424207       1.29985387      -4.80562896       0.00000000       0.00000000      -0.07477324      -0.05489688       0.02875114       0.08728885
H        0.48855725      -1.37128173      -6.26017777       0.00000000       0.00000000      -0.11985088       0.07079627       0.06721899       0.05866472
H        1.13998105       0.18180533      -6.72295291       0.00000000       0.00000000       0.00779972       0.02016032       0.00537348       0.07933714
H       -1.04646066      -0.59751238      -7.88887819       0.00000000       0.00000000      -0.01291925       0.05510616       0.00889719       0.07490993
H       -0.95514463       1.07698661      -7.35603616       0.00000000       0.00000000       0.08727500      -0.02205650      -0.05987928       0.06942324
H       -3.04167711      -0.59511365      -6.71130839       0.00000000       0.00000000      -0.02665150       0.00271735      -0.04807777       0.08174368
H       -2.62159866       0.83484780      -5.78772608       0.00000000       0.00000000       0.11438487      -0.05608068      -0.02426671       0.05645539
H       -1.55237449      -1.98098602      -5.26712066       0.00000000       0.00000000      -0.02456019       0.08315061      -0.00152107       0.09269913
H       -2.85813260      -1.19527824      -4.36579735       0.00000000       0.00000000       0.04228960       0.04894447      -0.05949149       0.05953533
H       -4.87771969       2.67058683       2.04680728       0.00000000       0.00000000       0.00425775      -0.00643112      -0.09378378       0.09558684
H       -4.99606244       1.16236531       1.12780423       0.00000000       0.00000000       0.03143491       0.09693526      -0.01716334       0.05851026
H       -6.64386875       2.83808839       0.28823215       0.00000000       0.00000000      -0.00745268       0.02076026       0.02407616       0.08289273
H       -5.43907058       2.51574345      -0.95977916       0.00000000       0.00000000      -0.00756405       0.05093925       0.03582715       0.04774515
H       -5.41709149       4.87160834       0.99426047       0.00000000       0.00000000      -0.00601667       0.00305770      -0.02143719       0.06565037
H       -5.79938922       4.96120777      -0.71960038       0.00000000       0.00000000      -0.03661849       0.06223312      -0.05921992       0.07877591
H       -3.43057065       5.62623475      -0.25710832       0.00000000       0.00000000       0.02535219       0.04487480       0.02263890       0.08060197
H       -3.51950278       4.22291100      -1.31491012       0.00000000       0.00000000       0.00345058      -0.02969533       0.01933654       0.05415107
H       -3.02442873       4.18607966       1.70936181       0.00000000       0.00000000      -0.04907699      -0.02420483      -0.04700796       0.08340499
H       -1.83169372       3.82127783       0.43493706       0.00000000       0.00000000       0.00473532      -0.05340685       0.02519242       0.08495788
O        1.59029701       1.40333008       0.56090883       0.00000000       0.00000000       0.08591249       0.01856144       0.12064225      -0.38385646
C        2.83216833       1.25821502       0.39239176       0.00000000       0.00000000      -0.04986803      -0.06016329       0.02652172       0.24736033
C        3.26914301      -0.08441651      -0.22195597       0.00000000       0.00000000      -0.02261448      -0.09759486      -0.00252122       0.03310378
O        2.18254603      -1.00366166      -0.04376227       0.00000000       0.00000000       0.06806268      -0.04230770      -0.02685865      -0.21933255
C        2.39771085      -2.10565643       0.84412229       0.00000000       0.00000000       0.03426497       0.06293969      -0.05295990       0.03712926
C        1.08235793      -2.37395498       1.60093058       0.00000000       0.00000000       0.03248071       0.01619819       0.05432265       0.24469802
O        0.09971168      -1.61331958       1.38859264       0.00000000       0.00000000       0.06178447       0.02834047       0.07940562      -0.39714346
N        1.03004363      -3.35672282       2.47027326       0.00000000       0.00000000       0.00487293       0.04765091      -0.02240813      -0.02176444
C       -0.13679479      -3.47536147       3.35431056       0.00000000       0.00000000      -0.02223654      -0.09243673       0.03819635      -0.01120367
C       -0.07563537      -4.74090151       4.20104582       0.00000000       0.00000000       0.01794104      -0.01064146       0.07946849      -0.07467125
C        1.22551069      -4.81723705       5.00910397       0.00000000       0.00000000       0.02284963       0.00886499      -0.02953254      -0.07467636
C        2.43874320      -4.38610871       4.17066487       0.00000000       0.00000000       0.02573882      -0.06393985      -0.07625130      -0.07113633
C        2.07602919      -4.34187029       2.68806140       0.00000000       0.00000000       0.02102569      -0.02229499       0.00440020      -0.02657574
N        3.71887677       2.15844152       0.73509335       0.00000000       0.00000000       0.04991204      -0.00525577       0.04500935      -0.01085488
C        5.15181515       2.07983179       0.48327224       0.00000000       0.00000000      -0.03364787       0.01923269      -0.00810686      -0.02924450
C        5.90729614       1.97598279       1.81138747       0.00000000       0.00000000      -0.00021302      -0.00682305      -0.08428732      -0.06971912
C        5.57285693       3.19028319       2.67212775       0.00000000       0.00000000       0.01780191      -0.05788768      -0.00817496      -0.07401481
C        4.06271595       3.27663706       2.87621864       0.00000000       0.00000000       0.04034758       0.02267478      -0.00422945      -0.06990045
C        3.34544154       3.33129958       1.52241247       0.00000000       0.00000000       0.03123757       0.00041077       0.02262721      -0.01887828
H        4.18220912      -0.47187705       0.23503156       0.00000000       0.00000000       0.01466324      -0.00110328      -0.02293645       0.09997584
H        3.40920224       0.03752159      -1.30612934       0.00000000       0.00000000       0.07248048      -0.00701070       0.05101712       0.11511531
H        3.17755734      -1.88616461       1.58546628       0.00000000       0.00000000      -0.02808321       0.07505671      -0.05827659       0.09714697
H        2.70744204      -2.97921025       0.25224525       0.00000000       0.00000000      -0.03080703       0.02770354       0.01802704       0.09761547
H       -1.04816251      -3.46158843       2.75175440       0.00000000       0.00000000       0.01666337       0.01278472      -0.08094932       0.07379779
H       -0.16265899      -2.59982075       4.01380178       0.00000000       0.00000000       0.08153057      -0.01679773      -0.07808651       0.07617874
H       -0.20251109      -5.63181556       3.58125697       0.00000000       0.00000000       0.09348622       0.11493800      -0.01508092       0.06525590
H       -0.91860143      -4.72776000       4.89044243       0.00000000       0.00000000      -0.03956414       0.01498941       0.00265294       0.08044053
H        1.35238992      -5.84092129       5.35725232       0.00000000       0.00000000      -0.00383866       0.02843849       0.02516714       0.07792688
H        1.16533533      -4.17893870       5.88915562       0.00000000       0.00000000      -0.10034148      -0.02449958       0.01494063       0.06595959
H        3.25641483      -5.09270386       4.28880976       0.00000000       0.00000000       0.04913536      -0.03540572       0.07069862       0.08294579
H        2.81061032      -3.40747058       4.48642076       0.00000000       0.00000000      -0.09584587      -0.05793563      -0.04633836       0.05177845
H        1.68751944      -5.31739391       2.37591329       0.00000000       0.00000000       0.06419342       0.03603422       0.04544613       0.09871357
H        2.95323873      -4.11590889       2.08538727       0.00000000       0.00000000      -0.02528759      -0.01069298       0.05682781       0.05972040
H        5.43602982       3.01186528      -0.01503955       0.00000000       0.00000000       0.03450284      -0.02706086       0.01363171       0.10098915
H        5.39255875       1.25568094      -0.18812409       0.00000000       0.00000000      -0.03546611       0.04407050       0.05199333       0.06144397
H        6.97600589       1.93526531       1.60830636       0.00000000       0.00000000       0.01311719       0.02570460      -0.00723499       0.08345707
H        5.63248686       1.05180102       2.32773916       0.00000000       0.00000000      -0.01914978       0.07034670      -0.00343053       0.04625527
H        5.93416879       4.09640001       2.18147294       0.00000000       0.00000000      -0.02441088      -0.04346179       0.03582072       0.06797503
H        6.07773296       3.11039060       3.63300676       0.00000000       0.00000000      -0.01653796       0.01756368       0.03010026       0.07794079
H        3.81983675       4.17277483       3.44479194       0.00000000       0.00000000      -0.04274468       0.02857045      -0.02851532       0.07934790
H        3.71568892       2.41375767       3.45201886       0.00000000       0.00000000       0.00382104       0.01770609      -0.07670400       0.04793452
H        3.65143545       4.22642081       0.97664087       0.00000000       0.00000000       0.01041901       0.00079936       0.00676966       0.09163648
H        2.26225446       3.34902013       1.65281844       0.00000000       0.00000000       0.02605125      -0.04785504      -0.07552896       0.07641795
O       -0.57244431       0.88937765       2.34186271       0.00000000       0.00000000      -0.06681169       0.02913933       0.10154240      -0.50057012
H       -1.03659835       0.53640160       3.11793764       0.00000000       0.00000000       0.13730965       0.05417313      -0.08780136       0.34194580
H       -0.21681004       1.75141127       2.61492840       0.00000000       0.00000000      -0.04910676      -0.14476884      -0.04992561       0.35338891
O        0.23181657      -2.39624176      -1.29825994       0.00000000       0.00000000      -0.02620817      -0.04773469       0.04767712      -0.51858875
H        0.87412264      -2.71062382      -1.94992022       0.00000000       0.00000000      -0.05900770       0.06884584       0.02111964       0.33809328
H       -0.16428896      -3.19224300      -0.91792146       0.00000000       0.00000000      -0.03311132       0.03760374      -0.06830654       0.33498272
