241
Properties=species:S:1:pos:R:3:initial_charges:R:1:initial_magmoms:R:1:forces:R:3:charge:R:1 energy=-7744.729512762476 free_energy=-7744.729512762476 dipole="-1.0503694472225338 0.7049294945983531 -0.4658712533915656" pbc="F F F"
Lu      -0.00156709       0.29221524      -0.34236183       3.00000000       0.00000000       0.07054992      -0.00784062       0.06341443       0.83130247
C       -7.09863141       0.98411985       1.98265348       0.00000000       0.00000000      -0.00939306       0.00789325      -0.00151692      -0.10080923
C       -7.91737798       0.45117659       0.80937610       0.00000000       0.00000000       0.00598627       0.00533687       0.01690037      -0.06264910
C       -7.20605844       0.49033004      -0.54994613       0.00000000       0.00000000      -0.02671401       0.00642230       0.01189211      -0.05841035
C       -7.36946653       1.78476471      -1.35758032       0.00000000       0.00000000      -0.01052880       0.02102570       0.03357193      -0.06514082
C       -6.81116794       3.06508731      -0.73036211       0.00000000       0.00000000      -0.00937251      -0.01880661       0.00629184      -0.06575272
C       -5.31147174       2.97418625      -0.46069479       0.00000000       0.00000000      -0.02865693      -0.02283835      -0.02476905      -0.05852968
C       -4.73136268       4.22541811       0.19013477       0.00000000       0.00000000       0.05748047      -0.05568074       0.04303746      -0.07453137
C       -3.30314642       4.00041387       0.69973493       0.00000000       0.00000000       0.05289589      -0.00327296       0.03818492      -0.01421366
N       -3.16798770       2.99765462       1.76467428       0.00000000       0.00000000       0.02757129       0.04511945      -0.05161610      -0.04489918
C       -3.87157935       3.31370619       3.00263482       0.00000000       0.00000000       0.00710592      -0.00436606      -0.00889436      -0.02418893
C       -3.14004213       4.37893968       3.83696752       0.00000000       0.00000000       0.00686402      -0.00584307      -0.02037519      -0.07684852
C       -1.66393611       4.05127142       4.08368334       0.00000000       0.00000000       0.00568962      -0.03703876       0.04045037      -0.06040592
C       -1.11426791       4.55593764       5.42199114       0.00000000       0.00000000       0.00893568       0.04651721      -0.01149661      -0.06402361
C       -1.67416442       3.85648845       6.66686774       0.00000000       0.00000000       0.01607176       0.00998550      -0.00874158      -0.06871717
C       -1.57652016       2.32943436       6.69019402       0.00000000       0.00000000       0.01048419      -0.04444272      -0.02438785      -0.06114590
C       -0.14977683       1.79404663       6.58965852       0.00000000       0.00000000       0.02506496       0.00643461      -0.03018124      -0.05256072
C       -0.10295319       0.26991902       6.62086758       0.00000000       0.00000000      -0.02142140       0.00796754      -0.00298011      -0.10748155
C       -2.25708651       2.03829301       1.66237318       0.00000000       0.00000000      -0.10440549       0.04589953       0.04399874       0.24669663
O       -1.45400109       1.93374491       0.70242580       0.00000000       0.00000000       0.12935114      -0.04355869      -0.14418911      -0.39809543
C       -2.22023934       0.91035103       2.70744405       0.00000000       0.00000000      -0.00626971      -0.04598836      -0.03694016       0.04271782
O       -1.65917048      -0.26052448       2.11559963       0.00000000       0.00000000       0.06000777      -0.04779496       0.05350219      -0.25589373
C       -2.64972546      -1.24567084       1.85639320       0.00000000       0.00000000       0.03193022      -0.03854346       0.00269498       0.05508107
C       -3.48706013      -0.81108444       0.65643481       0.00000000       0.00000000      -0.07116878       0.01835361       0.02679267       0.06163394
O       -2.57191937      -0.44331121      -0.37652362       0.00000000       0.00000000      -0.11185555       0.08157837      -0.05339168      -0.24703415
C       -3.19787684       0.34095901      -1.39103116       0.00000000       0.00000000      -0.04506568       0.01372896      -0.07967254       0.04218091
C       -2.12721236       0.57410032      -2.43818841       0.00000000       0.00000000       0.09481038      -0.01637535       0.05973827       0.26331516
O       -1.04192608       1.04427120      -2.00189444       0.00000000       0.00000000      -0.02421842      -0.06000031       0.03037907      -0.36578568
N       -2.30840010       0.29633096      -3.70775551       0.00000000       0.00000000      -0.03809954      -0.05957429      -0.07163748      -0.02529994
C       -3.42518174      -0.49578399      -4.22897801       0.00000000       0.00000000      -0.06530461       0.00583833       0.06529639      -0.03164700
C       -3.68102289      -1.89477996      -3.61139767       0.00000000       0.00000000       0.06520012       0.08066461       0.04091301      -0.07668321
C       -2.50592659      -2.87908178      -3.54489244       0.00000000       0.00000000      -0.07111930      -0.01362874       0.00911849      -0.07186283
C       -1.45511044      -2.65258539      -2.44966608       0.00000000       0.00000000       0.01226477      -0.03197889       0.00135019      -0.06524505
C       -1.79780353      -3.13651421      -1.02480060       0.00000000       0.00000000      -0.04655706       0.05909683       0.00533446      -0.06422580
C       -1.09565143      -4.43790190      -0.65307667       0.00000000       0.00000000       0.04175766       0.04617522      -0.11339239      -0.07130895
C       -1.32907669      -4.91717267       0.77667883       0.00000000       0.00000000      -0.00920117       0.06254900      -0.05468125      -0.05349316
C       -0.66499081      -6.27169504       0.97632549       0.00000000       0.00000000       0.02823627      -0.06354015       0.02697560      -0.11172534
C       -1.24082886       0.72370377      -4.61635534       0.00000000       0.00000000       0.03858852      -0.01178335      -0.01960424      -0.03048319
C       -1.15002952       2.24207809      -4.84837388       0.00000000       0.00000000       0.00053698      -0.09810516      -0.03304091      -0.07214596
C       -0.17554809       3.00685273      -3.94278947       0.00000000       0.00000000      -0.00385900      -0.00201848      -0.01984712      -0.06831653
C        1.24931505       2.44793741      -3.92154391       0.00000000       0.00000000       0.00760021       0.00484508      -0.00271182      -0.06667227
C        2.16986557       3.33100558      -3.07891103       0.00000000       0.00000000      -0.00114356      -0.03834271       0.00598220      -0.05918521
C        3.62915876       2.87577923      -3.09251331       0.00000000       0.00000000       0.01574524      -0.04698189       0.02661374      -0.06913581
C        3.86406244       1.51388823      -2.42802538       0.00000000       0.00000000       0.00288670      -0.01080642       0.01639740      -0.05066050
C        5.31190802       1.38749694      -1.95888034       0.00000000       0.00000000      -0.03500981       0.02428412      -0.01736846      -0.10943632
H       -7.64438326       0.82633113       2.90875796       0.00000000       0.00000000      -0.01599437      -0.01283694       0.00200491       0.05003427
H       -6.14394827       0.46041373       2.06481063       0.00000000       0.00000000      -0.01142095      -0.02102907      -0.01579775      -0.00126797
H       -6.90759883       2.04826635       1.89103579       0.00000000       0.00000000       0.01925476       0.01809883      -0.00426891       0.03622743
H       -8.17468999      -0.58677428       1.03159289       0.00000000       0.00000000      -0.00835877       0.01868998      -0.01749931       0.04144403
H       -8.85212761       1.00751520       0.74344057       0.00000000       0.00000000       0.01295753       0.00067045      -0.01156797       0.05705739
H       -6.14508532       0.25739236      -0.41057325       0.00000000       0.00000000      -0.01865560       0.00911301      -0.00405395      -0.00085699
H       -7.62656445      -0.30770718      -1.16564233       0.00000000       0.00000000       0.00847988      -0.00101646      -0.00777675       0.03956091
H       -6.88963113       1.63691421      -2.32994335       0.00000000       0.00000000      -0.02093808       0.00882080      -0.00835134       0.02407146
H       -8.43370373       1.93658225      -1.54149259       0.00000000       0.00000000       0.02222238      -0.00428194       0.00298497       0.05906080
H       -6.99924733       3.89433372      -1.41540872       0.00000000       0.00000000      -0.00847723      -0.02840441       0.03170346       0.04944041
H       -7.34051120       3.28221593       0.19559717       0.00000000       0.00000000      -0.03431608       0.00587020       0.01095166       0.05069153
H       -5.12590760       2.11936522       0.19431707       0.00000000       0.00000000      -0.02459312       0.03708378       0.02807917       0.02223989
H       -4.80396899       2.80361392      -1.41431009       0.00000000       0.00000000       0.01170076       0.00035285      -0.00874160       0.02109511
H       -4.68408673       5.03024411      -0.54427823       0.00000000       0.00000000       0.01436169       0.00357130       0.00655247       0.07084887
H       -5.38485911       4.57599796       0.98894586       0.00000000       0.00000000       0.01235170      -0.04680684       0.01508552       0.06104201
H       -2.67374438       3.66898988      -0.12855886       0.00000000       0.00000000       0.03969172      -0.00249842      -0.01546646       0.07111231
H       -2.91555913       4.94893333       1.07374202       0.00000000       0.00000000      -0.03066467       0.03317024       0.03704902       0.08364757
H       -4.86652079       3.68019714       2.74018845       0.00000000       0.00000000       0.08998141      -0.01640053       0.03543469       0.09047574
H       -4.00236970       2.41347983       3.60122812       0.00000000       0.00000000       0.01621754       0.03295901       0.01349336       0.05906452
H       -3.22116012       5.35196501       3.35439277       0.00000000       0.00000000      -0.00679907       0.02119998      -0.00020525       0.06075795
H       -3.66988041       4.44733178       4.78408790       0.00000000       0.00000000      -0.00581043      -0.00968357       0.06906911       0.08141063
H       -1.52862877       2.97427215       4.06914511       0.00000000       0.00000000       0.00266511      -0.03435390       0.02522078       0.01593930
H       -1.05689328       4.46080055       3.27112423       0.00000000       0.00000000      -0.02836687       0.02700676       0.02036841       0.02188841
H       -0.02907902       4.42925242       5.40735703       0.00000000       0.00000000      -0.01185325       0.04641094       0.01055483       0.03518171
H       -1.31642557       5.62312322       5.51202141       0.00000000       0.00000000       0.01637129       0.02051007       0.01036248       0.05159636
H       -1.13030163       4.24316766       7.52889036       0.00000000       0.00000000       0.01662390       0.03613519       0.00279719       0.05676949
H       -2.71896160       4.13298923       6.80468229       0.00000000       0.00000000      -0.05352048       0.00395499      -0.01582551       0.04289732
H       -1.99519862       1.98333017       7.63588613       0.00000000       0.00000000      -0.04173312       0.01808173      -0.00214482       0.05206977
H       -2.19154885       1.89607383       5.89579235       0.00000000       0.00000000      -0.01056334       0.00112938      -0.01756768       0.01089930
H        0.32206538       2.15381297       5.66960544       0.00000000       0.00000000       0.02488847       0.00288931      -0.03671186       0.00080096
H        0.42693298       2.18330368       7.42919206       0.00000000       0.00000000      -0.01500970      -0.00541230       0.00567097       0.05075511
H       -0.59144154      -0.16389155       5.74758151       0.00000000       0.00000000      -0.01374489       0.02149745      -0.00921982       0.01292373
H        0.92482834      -0.08405061       6.64977882       0.00000000       0.00000000       0.00700292       0.00570857      -0.00263959       0.03654512
H       -0.61050188      -0.10016654       7.50690158       0.00000000       0.00000000       0.01337642      -0.00490745       0.01154487       0.05523540
H       -1.59405052       1.16746617       3.56719425       0.00000000       0.00000000       0.04722850      -0.03031729      -0.03389821       0.09355592
H       -3.22202252       0.69456193       3.08386316       0.00000000       0.00000000      -0.02584096      -0.02503131       0.03656782       0.07448429
H       -2.11258285      -2.17343158       1.65300816       0.00000000       0.00000000       0.01232146       0.00567733      -0.01823399       0.09719197
H       -3.28528405      -1.39944946       2.73555212       0.00000000       0.00000000      -0.02507976      -0.02058967      -0.01709493       0.07820962
H       -4.16535618      -1.60786615       0.32791402       0.00000000       0.00000000       0.09179004      -0.02701974      -0.02560496       0.07631400
H       -4.09488341       0.06023415       0.92853781       0.00000000       0.00000000      -0.03197557       0.05071698       0.00412686       0.05967707
H       -4.10737759      -0.12996726      -1.77120593       0.00000000       0.00000000       0.05844449       0.01652532       0.09736333       0.08647735
H       -3.43869879       1.32970689      -0.98071501       0.00000000       0.00000000      -0.09005385       0.05656968      -0.00409287       0.09696372
H       -4.34514520       0.09035657      -4.13430595       0.00000000       0.00000000      -0.01728562      -0.03567898      -0.03014273       0.07483304
H       -3.23699628      -0.62190715      -5.29705260       0.00000000       0.00000000      -0.00646029      -0.01918337       0.07159976       0.09708969
H       -4.13730466      -1.82679468      -2.62357216       0.00000000       0.00000000       0.04924153       0.00164216      -0.02576594       0.04224810
H       -4.44003078      -2.34177032      -4.25917064       0.00000000       0.00000000       0.03666082       0.03154752      -0.00545119       0.08192239
H       -2.92811130      -3.87744727      -3.40264170       0.00000000       0.00000000       0.02077120       0.05436493      -0.07020241       0.07360647
H       -1.99917474      -2.87064099      -4.51136050       0.00000000       0.00000000      -0.02573794      -0.03219428       0.01608030       0.05559949
H       -0.56047580      -3.19420403      -2.75249597       0.00000000       0.00000000       0.04842471      -0.01795645      -0.06252592       0.04887851
H       -1.18024224      -1.59563590      -2.41726594       0.00000000       0.00000000      -0.02625574       0.04515113       0.02521229       0.03761703
H       -1.44586371      -2.37451969      -0.31429407       0.00000000       0.00000000       0.04380551      -0.03352360      -0.01614667       0.03658049
H       -2.87615756      -3.25681852      -0.90798671       0.00000000       0.00000000       0.01873814      -0.00436044      -0.01147081       0.04649697
H       -1.40196645      -5.22492503      -1.33559159       0.00000000       0.00000000      -0.00089305      -0.04763789      -0.02705772       0.07231150
H       -0.02493759      -4.27931054      -0.78384398       0.00000000       0.00000000       0.02645231      -0.06757482       0.01926870       0.01730518
H       -0.90768445      -4.19291960       1.48419740       0.00000000       0.00000000      -0.04433600      -0.01188717      -0.00121615       0.00670457
H       -2.39729717      -5.00801265       0.97928441       0.00000000       0.00000000      -0.00233127       0.01970292      -0.02473822       0.04105307
H        0.39296456      -6.23021128       0.73573560       0.00000000       0.00000000       0.10606767       0.04442634      -0.01883223       0.03185858
H       -0.75830545      -6.60609056       2.00063982       0.00000000       0.00000000      -0.05848386      -0.02587473       0.15651972       0.05500137
H       -1.12297829      -7.01938886       0.33809225       0.00000000       0.00000000      -0.06794718      -0.03093026      -0.03896055       0.05398692
H       -0.29893839       0.38870213      -4.18233618       0.00000000       0.00000000       0.05793248      -0.00236578      -0.00241480       0.10233272
H       -1.39708945       0.21866465      -5.56634468       0.00000000       0.00000000      -0.05444363       0.03797258      -0.00753243       0.08391237
H       -0.82353352       2.38900501      -5.87892886       0.00000000       0.00000000      -0.00211066      -0.02106532      -0.00860309       0.07172329
H       -2.14504142       2.67847647      -4.76342195       0.00000000       0.00000000      -0.02778240       0.04960774       0.00793022       0.05326300
H       -0.13503367       4.02871045      -4.32196879       0.00000000       0.00000000      -0.00785854       0.03901776       0.01623242       0.05944109
H       -0.54967563       3.04893431      -2.91786677       0.00000000       0.00000000      -0.00717397       0.00396285      -0.01074664       0.04705214
H        1.25768944       1.44678423      -3.47802062       0.00000000       0.00000000      -0.00905291       0.00847204      -0.02066160       0.04484423
H        1.63903051       2.39083624      -4.94114781       0.00000000       0.00000000      -0.03975024      -0.01172741       0.03338434       0.04680173
H        2.12468565       4.35887939      -3.44442744       0.00000000       0.00000000      -0.01508179      -0.01541856      -0.02644987       0.04706385
H        1.79937573       3.31988262      -2.04627593       0.00000000       0.00000000      -0.03117191      -0.01350533      -0.02627228       0.02877879
H        3.99450252       2.83796867      -4.12091380       0.00000000       0.00000000      -0.03188501       0.04174233       0.04421258       0.05089876
H        4.22573561       3.62427731      -2.56516195       0.00000000       0.00000000      -0.01885116      -0.00050548      -0.02437760       0.04438903
H        3.17629850       1.39441177      -1.57644384       0.00000000       0.00000000       0.03308105       0.00259874      -0.03431078       0.03019656
H        3.64728708       0.70927807      -3.13635941       0.00000000       0.00000000      -0.00880350       0.04088196       0.02772389       0.02183834
H        5.55154492       2.16925330      -1.23943523       0.00000000       0.00000000      -0.00269419      -0.04498536      -0.02076044       0.03536800
H        5.50223707       0.42255277      -1.49320019       0.00000000       0.00000000      -0.00912252      -0.01581422      -0.02175397       0.02653439
H        5.98867752       1.49975940      -2.80300065       0.00000000       0.00000000      -0.02694471      -0.03474796       0.03029185       0.05761605
C        2.65325151       3.36510695      10.02467050       0.00000000       0.00000000       0.01019369      -0.00962124       0.00891100      -0.10531893
C        2.32810183       4.66432879       9.29648617       0.00000000       0.00000000       0.00160221      -0.00465118       0.03529370      -0.05783083
C        2.53613282       4.60534746       7.78326357       0.00000000       0.00000000       0.00770487      -0.00557737      -0.00674965      -0.05785970
C        4.00753693       4.53380985       7.38339908       0.00000000       0.00000000       0.04098724       0.00908359      -0.03086297      -0.06676781
C        4.20326331       4.45517053       5.86557938       0.00000000       0.00000000      -0.01497518       0.03634168      -0.00350071      -0.06528881
C        3.98534583       3.04297579       5.32150233       0.00000000       0.00000000      -0.00012273       0.04958320       0.00844752      -0.06614335
C        4.09690742       2.96300674       3.79656507       0.00000000       0.00000000       0.01112059      -0.02554518      -0.05614353      -0.06955376
C        2.87275251       3.58547693       3.11351014       0.00000000       0.00000000      -0.02929999      -0.03084156       0.01458709      -0.02720588
N        2.71860832       3.18485029       1.72200758       0.00000000       0.00000000      -0.00315589       0.06411185      -0.02909667      -0.03360695
C        3.54661843       3.85420789       0.69195466       0.00000000       0.00000000      -0.05617516      -0.06878240       0.01775909      -0.01341818
C        4.01275411       5.30521773       0.90183287       0.00000000       0.00000000       0.02026877      -0.09932799      -0.01788512      -0.07421982
C        3.13419226       6.41839177       0.31539126       0.00000000       0.00000000      -0.00237530      -0.05789325      -0.02417279      -0.07189701
C        1.96132935       6.87979407       1.17993861       0.00000000       0.00000000       0.05165149      -0.01317011       0.01949011      -0.06779944
C        0.82469085       5.86311501       1.30178825       0.00000000       0.00000000       0.00232716      -0.00446592      -0.03308685      -0.06065260
C       -0.33441948       6.08380841       0.32975817       0.00000000       0.00000000       0.00592186       0.01407330      -0.04076502      -0.06367792
C        0.05472811       6.16379179      -1.14333513       0.00000000       0.00000000       0.01381860      -0.01809856      -0.04520013      -0.05798908
C       -1.17871832       6.16857820      -2.03932878       0.00000000       0.00000000      -0.01552271       0.04142894       0.00473658      -0.10732757
C        1.95820314       2.16065370       1.39032443       0.00000000       0.00000000      -0.02426195       0.08478626      -0.03164595       0.24485920
O        1.67364147       1.82094807       0.20721620       0.00000000       0.00000000      -0.01140651      -0.00603751      -0.02579503      -0.38262199
C        1.36847571       1.25112602       2.48482925       0.00000000       0.00000000       0.03638204       0.01083253      -0.04854250       0.03711265
O        1.11700211      -0.02981654       1.90554820       0.00000000       0.00000000       0.00061359      -0.02066313      -0.01011621      -0.23139997
C        2.30977440      -0.82593357       1.86398174       0.00000000       0.00000000       0.00259461       0.01035886      -0.00819792       0.05701685
C        1.96435715      -2.16481530       1.22722981       0.00000000       0.00000000      -0.01978091       0.05075484       0.09719244       0.05551506
O        1.46737318      -1.90542783      -0.08692444       0.00000000       0.00000000      -0.13035558       0.00652999       0.06484258      -0.24181904
C        2.17145109      -2.60451942      -1.11111777       0.00000000       0.00000000       0.01440429       0.04389580       0.00844836       0.04419023
C        1.67558396      -2.04351074      -2.44174573       0.00000000       0.00000000       0.05184387       0.02847763       0.11918472       0.25802773
O        1.09424669      -0.93301840      -2.37779124       0.00000000       0.00000000      -0.02288666       0.04084141      -0.07055996      -0.38418682
N        1.97136811      -2.69503457      -3.55857864       0.00000000       0.00000000      -0.07236075       0.07219539      -0.05768241      -0.04790893
C        2.00426585      -1.94030221      -4.81831432       0.00000000       0.00000000       0.02937260       0.03403867       0.02759459      -0.01428981
C        0.67016224      -1.74150768      -5.53422590       0.00000000       0.00000000      -0.03282321      -0.04797971      -0.02985579      -0.07504003
C        0.24605297      -2.82750714      -6.52040679       0.00000000       0.00000000      -0.04322915      -0.02671344      -0.07789368      -0.07110394
C       -0.97455810      -2.35091744      -7.31883838       0.00000000       0.00000000       0.05374916      -0.04359730       0.02305445      -0.05954871
C       -1.39608631      -3.31731674      -8.42742880       0.00000000       0.00000000       0.03523778       0.00634424       0.02749580      -0.06621183
C       -2.06753248      -4.60127310      -7.93950328       0.00000000       0.00000000      -0.01351206       0.03524199       0.00248552      -0.06550383
C       -3.40450276      -4.36188513      -7.23693742       0.00000000       0.00000000      -0.02925025      -0.00643049       0.02080911      -0.05255473
C       -4.21348345      -5.64799520      -7.11540081       0.00000000       0.00000000       0.01577799      -0.00335955      -0.01289348      -0.10893707
C        2.54642147      -4.04633698      -3.58402931       0.00000000       0.00000000      -0.06938803       0.01123180       0.04733831      -0.03017834
C        1.66672164      -5.22771880      -3.13290587       0.00000000       0.00000000       0.03424888       0.04414493      -0.03143993      -0.07491434
C        0.45009369      -5.60323710      -3.98224408       0.00000000       0.00000000       0.01624705       0.03973449       0.05968757      -0.06353909
C       -0.21902960      -6.86508693      -3.41837370       0.00000000       0.00000000      -0.08626866       0.02417824       0.00579846      -0.06888016
C       -1.64733020      -7.10848671      -3.94772457       0.00000000       0.00000000       0.02264980      -0.00381347       0.06518206      -0.06498966
C       -2.61784759      -7.63775070      -2.87203144       0.00000000       0.00000000      -0.02913767       0.03781391       0.00282715      -0.06730999
C       -3.60955676      -6.60088231      -2.32534760       0.00000000       0.00000000      -0.00646650       0.04121684      -0.00372941      -0.05473432
C       -4.79524570      -6.35708877      -3.25523923       0.00000000       0.00000000       0.01167628      -0.05449495      -0.00812948      -0.11120850
H        2.40175186       3.46438615      11.07728367       0.00000000       0.00000000       0.00294995      -0.00703321      -0.00738600       0.04689348
H        3.71114881       3.12748622       9.95951002       0.00000000       0.00000000       0.01156001      -0.00164827      -0.02627896       0.03872348
H        2.08507492       2.52882535       9.62007940       0.00000000       0.00000000      -0.01003750       0.02055084      -0.03140498       0.02574646
H        2.94683555       5.46265243       9.70667525       0.00000000       0.00000000      -0.00852627       0.03393538       0.00942022       0.04369398
H        1.28567001       4.92238460       9.49301141       0.00000000       0.00000000      -0.02757624       0.01263604       0.00168280       0.03226270
H        2.10050613       5.50472203       7.33931193       0.00000000       0.00000000      -0.01778960      -0.00740584      -0.01123376       0.02567436
H        2.00158447       3.74301611       7.37994903       0.00000000       0.00000000      -0.01936761      -0.02720082       0.01218233       0.01885463
H        4.48011916       3.66935210       7.84941140       0.00000000       0.00000000       0.00715121      -0.00090845       0.00175170       0.04557902
H        4.50788539       5.42675356       7.76081923       0.00000000       0.00000000       0.00314582      -0.01520745      -0.01955989       0.04974928
H        5.21860774       4.76802337       5.61897659       0.00000000       0.00000000       0.01002914       0.00198531      -0.00329487       0.04406134
H        3.51198097       5.15187459       5.38486642       0.00000000       0.00000000       0.01434703       0.00921758       0.01435546       0.02748748
H        3.00189126       2.67978229       5.63161270       0.00000000       0.00000000       0.04577033      -0.02937411       0.00773406       0.03321334
H        4.73756642       2.38749692       5.76178614       0.00000000       0.00000000      -0.00929148      -0.01023417      -0.00330241       0.05767038
H        4.19050049       1.91639308       3.49460119       0.00000000       0.00000000      -0.01715906      -0.02402220      -0.00134544       0.02631262
H        5.00042031       3.47413223       3.46332186       0.00000000       0.00000000       0.01557544       0.00016627       0.04832607       0.06603667
H        2.95053122       4.66949782       3.13258988       0.00000000       0.00000000      -0.00243997       0.05009004       0.00452637       0.10473792
H        1.96453850       3.32606396       3.65959767       0.00000000       0.00000000      -0.01204163      -0.00027732       0.00052101       0.05452006
H        2.99459694       3.79055443      -0.24862379       0.00000000       0.00000000       0.02465218      -0.02277822       0.02468054       0.09130194
H        4.44044721       3.22673066       0.59910873       0.00000000       0.00000000      -0.01972901       0.01839226       0.00079445       0.06900435
H        4.96951292       5.36593754       0.37976694       0.00000000       0.00000000       0.00655732      -0.03330720      -0.05025989       0.06767712
H        4.24237151       5.52709351       1.94192038       0.00000000       0.00000000      -0.04900068      -0.04890651       0.04554422       0.06367914
H        2.78385666       6.11572361      -0.67113430       0.00000000       0.00000000      -0.02244974      -0.00650502       0.00771451       0.04791026
H        3.78439552       7.28197675       0.17344235       0.00000000       0.00000000       0.00910481       0.02355679      -0.01683724       0.05992316
H        1.56374661       7.79971774       0.75446306       0.00000000       0.00000000      -0.00471674       0.05040363       0.00606910       0.05738742
H        2.34366838       7.13691190       2.16908055       0.00000000       0.00000000       0.00115727      -0.03653810       0.04380210       0.03828325
H        0.41709343       5.90105899       2.31456435       0.00000000       0.00000000      -0.00205709       0.01388315       0.03283020       0.02200468
H        1.21002157       4.85888632       1.14044831       0.00000000       0.00000000      -0.00628083      -0.04488241      -0.01162624       0.01764978
H       -0.87286706       6.99190314       0.60137294       0.00000000       0.00000000      -0.00408480       0.04614870       0.01761290       0.04010392
H       -1.01089453       5.23722958       0.44688240       0.00000000       0.00000000      -0.02398400      -0.00346737       0.01416981       0.01591575
H        0.67642289       5.30506811      -1.40433190       0.00000000       0.00000000       0.01394187      -0.01565863       0.00637313       0.02491741
H        0.62702992       7.07178402      -1.32817434       0.00000000       0.00000000       0.01271957      -0.00535897      -0.00216024       0.04818874
H       -0.89725028       6.30612935      -3.07955779       0.00000000       0.00000000       0.01581754      -0.00429912       0.00509381       0.04449127
H       -1.84449049       6.98186034      -1.76282169       0.00000000       0.00000000      -0.01213005       0.00544069      -0.00029060       0.04571197
H       -1.72478411       5.22994421      -1.95351983       0.00000000       0.00000000      -0.00931527       0.00455885       0.00472349       0.01619242
H        0.39723699       1.63537175       2.80830734       0.00000000       0.00000000       0.04945734       0.05087889       0.01997535       0.10761500
H        2.03686031       1.13862793       3.34117007       0.00000000       0.00000000      -0.01257035       0.01618046       0.06130361       0.09619329
H        2.69793852      -0.97615501       2.87640900       0.00000000       0.00000000      -0.00203799      -0.00689401       0.06400771       0.08678655
H        3.06390429      -0.32646033       1.24246169       0.00000000       0.00000000       0.12108347       0.06220870       0.01938112       0.07786264
H        1.18425442      -2.67321704       1.80445314       0.00000000       0.00000000      -0.05287729       0.00999118       0.01597905       0.09499657
H        2.85743446      -2.79409558       1.20420567       0.00000000       0.00000000      -0.02390588      -0.00669474      -0.01555652       0.09045045
H        2.03893660      -3.68058669      -0.98731011       0.00000000       0.00000000       0.00259147      -0.00555625      -0.02862256       0.08666282
H        3.24747521      -2.36865186      -1.07394161       0.00000000       0.00000000      -0.01559285      -0.02877935       0.05713567       0.08232654
H        2.70114593      -2.44486394      -5.48662834       0.00000000       0.00000000       0.03163610       0.06540920       0.00404796       0.08451155
H        2.41165113      -0.95370482      -4.57495137       0.00000000       0.00000000      -0.02706169      -0.02511641       0.00553796       0.06757265
H        0.76058176      -0.81000591      -6.09545395       0.00000000       0.00000000      -0.01843856       0.00827577       0.01316743       0.05803546
H       -0.10667085      -1.62109773      -4.78471386       0.00000000       0.00000000      -0.01977571      -0.00907191       0.03924671       0.04565907
H        0.00588978      -3.74877754      -5.99288022       0.00000000       0.00000000       0.01506765      -0.01353200      -0.03201284       0.04478154
H        1.05543296      -3.03826509      -7.22236243       0.00000000       0.00000000      -0.00670063       0.02787925       0.05581445       0.04948701
H       -0.72901908      -1.39005067      -7.77722217       0.00000000       0.00000000       0.00322816      -0.00047990      -0.02198315       0.03102729
H       -1.81937180      -2.19045092      -6.64477831       0.00000000       0.00000000       0.01009074       0.01805649      -0.00496367       0.01894384
H       -0.51242836      -3.57450242      -9.01257217       0.00000000       0.00000000      -0.00582446      -0.02914743      -0.03359162       0.04493464
H       -2.08872023      -2.80000059      -9.09377712       0.00000000       0.00000000       0.00307211       0.00592489       0.01060696       0.04598484
H       -1.39902035      -5.15024268      -7.27487586       0.00000000       0.00000000       0.02155300      -0.03438881       0.00983485       0.02938557
H       -2.24790709      -5.22992900      -8.81146228       0.00000000       0.00000000       0.00346495      -0.01461928      -0.00741609       0.05201608
H       -3.98462739      -3.62872430      -7.80129248       0.00000000       0.00000000       0.00695563      -0.00965359      -0.02298716       0.03343041
H       -3.23787487      -3.95327992      -6.23570361       0.00000000       0.00000000       0.00261657       0.00043378      -0.01174175       0.00824506
H       -4.45022775      -6.04006257      -8.10037446       0.00000000       0.00000000      -0.00323296       0.00322980       0.00407384       0.04987109
H       -5.14819755      -5.46669788      -6.58920085       0.00000000       0.00000000      -0.00273277      -0.00634292      -0.01278419       0.03575030
H       -3.65031125      -6.40782651      -6.57752117       0.00000000       0.00000000       0.00648916      -0.00685559      -0.00618214       0.03608383
H        3.45752409      -4.04220769      -2.97931268       0.00000000       0.00000000       0.03429199      -0.04878056       0.03735163       0.05841003
H        2.84440811      -4.23753410      -4.61117789       0.00000000       0.00000000      -0.00755105      -0.03347699      -0.09306459       0.09675027
H        1.31853902      -5.08902843      -2.11480940       0.00000000       0.00000000      -0.00544743       0.00469746       0.15012804       0.03519398
H        2.33384780      -6.08750384      -3.12248295       0.00000000       0.00000000       0.08837580      -0.09413711       0.00451135       0.07303924
H        0.75663248      -5.77815645      -5.00940313       0.00000000       0.00000000       0.02582375      -0.04886543      -0.12889339       0.04936164
H       -0.27815599      -4.79423957      -3.97714796       0.00000000       0.00000000      -0.01553606       0.09104040      -0.01125573       0.03352442
H       -0.24646870      -6.80050933      -2.32954372       0.00000000       0.00000000      -0.01236925       0.11396416       0.02468347       0.03421689
H        0.40176389      -7.72530356      -3.65261729       0.00000000       0.00000000       0.06398951      -0.09856986      -0.02589460       0.04722404
H       -1.59584451      -7.83339601      -4.75695534       0.00000000       0.00000000      -0.00439696       0.01528824      -0.07212448       0.04638631
H       -2.04206653      -6.18502160      -4.37191604       0.00000000       0.00000000      -0.04228446       0.05323596       0.01024836       0.03546319
H       -2.03473231      -8.04591864      -2.04453551       0.00000000       0.00000000      -0.02051779      -0.03318961      -0.00078639       0.03311367
H       -3.20493364      -8.45873514      -3.27882625       0.00000000       0.00000000       0.01074568      -0.05250114      -0.04096659       0.05295651
H       -3.10408587      -5.65014776      -2.14648979       0.00000000       0.00000000       0.04311758      -0.02762283      -0.03368756       0.01603306
H       -3.98992940      -6.94686974      -1.36107079       0.00000000       0.00000000       0.02347304      -0.02094325      -0.03117899       0.03257619
H       -4.46511850      -6.19606106      -4.27685025       0.00000000       0.00000000       0.03401244       0.01492096      -0.02111193       0.04315578
H       -5.36950517      -5.48619045      -2.94012997       0.00000000       0.00000000       0.01493499      -0.04602632       0.04052951       0.02286102
H       -5.45787938      -7.21734327      -3.24723074       0.00000000       0.00000000       0.00151077      -0.00904133      -0.04258692       0.04931189
