281
Properties=species:S:1:pos:R:3:initial_charges:R:1:initial_magmoms:R:1:forces:R:3:charge:R:1 energy=-9415.004867984895 free_energy=-9415.004867984895 dipole="-0.9842129537517209 -0.3544661593843159 0.20573621786527738" pbc="F F F"
Lu      -0.12427672       0.10800726       0.20412467       3.00000000       0.00000000      -0.07910473       0.07350593      -0.00996225       0.83686480
C       -6.94497457       5.89162761      -6.66715746       0.00000000       0.00000000       0.01700706       0.03558575      -0.04050875      -0.10583017
C       -5.50077969       5.91995808      -7.16484043       0.00000000       0.00000000      -0.07015970       0.03686119      -0.00687052      -0.05684933
C       -4.72798403       4.68615952      -6.70779272       0.00000000       0.00000000       0.01978076       0.13275002      -0.06245063      -0.06165750
C       -3.22633234       4.80490271      -6.96063545       0.00000000       0.00000000       0.02972422      -0.01308263      -0.00623326      -0.06350196
C       -2.45125271       3.65397333      -6.32191680       0.00000000       0.00000000       0.01388800      -0.04147417       0.06101069      -0.06100844
C       -2.54960494       3.72798708      -4.80149708       0.00000000       0.00000000       0.03323048       0.04416527       0.08599926      -0.06816478
C       -1.57651403       2.80781330      -4.07852132       0.00000000       0.00000000       0.03288581      -0.04795232      -0.00848015      -0.05567330
C       -2.04687777       1.35668469      -4.14656384       0.00000000       0.00000000       0.02336978      -0.06764964      -0.02930845      -0.10394085
P       -2.48263437       0.64137648      -2.52887409       0.00000000       0.00000000      -0.09972116      -0.06296698       0.08025623       0.35881736
O       -1.46726788       0.99806351      -1.49710935       0.00000000       0.00000000       0.00850389      -0.01371941      -0.00204917      -0.39053279
C       -2.42695624      -1.18246492      -2.86555053       0.00000000       0.00000000      -0.00626692       0.08671025      -0.02423937      -0.13770956
C       -2.55260191      -1.89198129      -1.55444252       0.00000000       0.00000000       0.08884800      -0.10422745      -0.09063924       0.26563475
O       -1.70090441      -1.63913166      -0.66428105       0.00000000       0.00000000      -0.04334231      -0.09924088      -0.02631892      -0.39332331
N       -3.53576194      -2.78419235      -1.38273252       0.00000000       0.00000000      -0.05323272       0.07256937       0.10755066      -0.05549299
C       -4.65382434      -2.99924460      -2.30377227       0.00000000       0.00000000       0.02448313       0.05700791       0.08085366      -0.02826217
C       -4.60693562      -4.13506818      -3.35844513       0.00000000       0.00000000       0.00876374       0.05354421       0.01535798      -0.01589002
C       -4.94746258      -5.51800675      -2.79780889       0.00000000       0.00000000       0.02282450       0.02280681      -0.02922069      -0.12226755
C       -3.30388878      -4.18114226      -4.15307894       0.00000000       0.00000000      -0.00919422      -0.01213791       0.01546401      -0.11332343
C       -3.69104046      -3.34489746      -0.05047641       0.00000000       0.00000000       0.03614033      -0.10059817       0.06487042      -0.01638164
C       -3.38683835      -4.84123424       0.06088904       0.00000000       0.00000000       0.01514768      -0.08308321       0.08820526      -0.02213698
C       -2.03806886      -5.16136100      -0.57904936       0.00000000       0.00000000      -0.03947960       0.02422690       0.00380030      -0.11518079
C       -3.42108537      -5.20448269       1.54331037       0.00000000       0.00000000       0.00454120       0.00920427       0.04427786      -0.11767827
C       -4.17561258       1.01646811      -2.00083050       0.00000000       0.00000000       0.03214269       0.01105118      -0.02268837      -0.03494168
C       -5.27203843       0.41658815      -2.60710740       0.00000000       0.00000000       0.00711898      -0.00203500      -0.01306790      -0.03478054
C       -6.54667263       0.67842850      -2.14470990       0.00000000       0.00000000      -0.03089461       0.08624459      -0.03465513      -0.02251983
C       -6.73738549       1.61569209      -1.14343462       0.00000000       0.00000000      -0.01891464       0.05659958       0.01555022      -0.01600495
C       -5.65128490       2.25696218      -0.57308089       0.00000000       0.00000000       0.05027953       0.02155639       0.00792433      -0.02077739
C       -4.36835261       1.93069781      -0.97381826       0.00000000       0.00000000       0.05093826      -0.10401150      -0.02829094      -0.03062122
H       -7.48886096       6.74768837      -7.05930210       0.00000000       0.00000000       0.00309522      -0.01878377       0.06013235       0.04722798
H       -6.97955622       5.92548489      -5.57731284       0.00000000       0.00000000       0.01456817       0.02111359      -0.08665810       0.02844608
H       -7.46011672       4.98882777      -6.99241893       0.00000000       0.00000000       0.08281792       0.02102414      -0.03523213       0.03623738
H       -5.00130693       6.81096855      -6.77314227       0.00000000       0.00000000      -0.07440409      -0.00996925      -0.02493081       0.03247469
H       -5.48877997       5.99065155      -8.25499487       0.00000000       0.00000000       0.00662522      -0.04145855       0.06221385       0.03981066
H       -5.11324300       3.80230961      -7.21951856       0.00000000       0.00000000      -0.02248690       0.12211367      -0.03866898       0.03277331
H       -4.90171344       4.56249219      -5.63529009       0.00000000       0.00000000      -0.04024015      -0.00732498      -0.08135665       0.02675096
H       -2.87363011       5.75199414      -6.54288874       0.00000000       0.00000000       0.03341899      -0.03758461      -0.01949671       0.03412510
H       -3.00761700       4.82445321      -8.02870439       0.00000000       0.00000000      -0.15956069       0.00437623      -0.04134839       0.04401070
H       -1.39782257       3.72169979      -6.60278629       0.00000000       0.00000000      -0.00331125       0.04156902      -0.05148085       0.03284108
H       -2.83037144       2.70128729      -6.69324302       0.00000000       0.00000000      -0.05560151       0.01842628      -0.03553200       0.03375020
H       -3.56267801       3.50460786      -4.45913422       0.00000000       0.00000000       0.04349569       0.01588153      -0.02822612       0.03519101
H       -2.32623391       4.75718240      -4.53369696       0.00000000       0.00000000       0.02986656       0.03214447       0.00478650       0.05042404
H       -1.46455434       3.11225691      -3.03465474       0.00000000       0.00000000       0.01779836      -0.05274457      -0.02226828       0.04030570
H       -0.58822549       2.90556646      -4.53055139       0.00000000       0.00000000       0.02004842      -0.01921729      -0.05246347       0.04287805
H       -1.24078170       0.70971289      -4.48585177       0.00000000       0.00000000      -0.02771104       0.02402820      -0.08189632       0.08659257
H       -2.89506106       1.26055032      -4.82277930       0.00000000       0.00000000       0.08167908      -0.00056783      -0.01031559       0.08972033
H       -1.40971207      -1.31959106      -3.23372196       0.00000000       0.00000000       0.00470696      -0.06586920       0.05776457       0.11741532
H       -3.14296316      -1.47116740      -3.62490381       0.00000000       0.00000000       0.03803447      -0.07209926       0.04987071       0.08748902
H       -4.83777231      -2.06578526      -2.82964162       0.00000000       0.00000000      -0.04097434      -0.02675466      -0.00527148       0.05696043
H       -5.53327089      -3.17952428      -1.68114431       0.00000000       0.00000000       0.00666884      -0.01420234       0.00586980       0.07303139
H       -5.41367350      -3.86859490      -4.04927420       0.00000000       0.00000000      -0.01785903      -0.01647841      -0.02495840       0.05548716
H       -4.06551454      -6.01549339      -2.40780930       0.00000000       0.00000000      -0.01383013      -0.02190007      -0.00321736       0.05274641
H       -5.35093753      -6.15031021      -3.58435204       0.00000000       0.00000000       0.01500454       0.04444688      -0.03989539       0.06186257
H       -5.70124853      -5.44773299      -2.01635086       0.00000000       0.00000000      -0.01006788      -0.02997444      -0.07275877       0.04603113
H       -2.44866007      -4.24486978      -3.48300722       0.00000000       0.00000000       0.02121847       0.02961820      -0.05003478       0.02674324
H       -3.18897253      -3.31091806      -4.79599280       0.00000000       0.00000000      -0.02155123      -0.04534785       0.02549600       0.03500989
H       -3.30421599      -5.06192064      -4.79022648       0.00000000       0.00000000       0.00611705       0.01597967       0.00655279       0.06517611
H       -4.71303155      -3.15650030       0.29732940       0.00000000       0.00000000       0.08701244       0.03472220      -0.01993582       0.05409150
H       -2.98166547      -2.81364862       0.59141176       0.00000000       0.00000000      -0.05219426      -0.02147554       0.00673330       0.07347179
H       -4.16612698      -5.41813403      -0.43471133       0.00000000       0.00000000       0.00205376       0.01846174       0.03370798       0.06463180
H       -1.31949682      -4.38974682      -0.31411062       0.00000000       0.00000000      -0.00326654      -0.04583393      -0.00039549       0.03463497
H       -2.11790958      -5.19237670      -1.66270056       0.00000000       0.00000000      -0.02103126      -0.01457276       0.02486352       0.03898693
H       -1.67729267      -6.13142857      -0.24319494       0.00000000       0.00000000      -0.03786055       0.07624159      -0.01047569       0.05130412
H       -2.69102436      -4.61983138       2.10054707       0.00000000       0.00000000      -0.00144906      -0.05212848      -0.00613950       0.02952354
H       -3.20876693      -6.26123143       1.68561839       0.00000000       0.00000000      -0.00258699       0.05971502      -0.00841044       0.05899822
H       -4.40885773      -4.99961765       1.95130893       0.00000000       0.00000000       0.02052303      -0.03966325       0.01708325       0.04317734
H       -5.14601353      -0.23780614      -3.45461938       0.00000000       0.00000000       0.02330496      -0.05096744       0.03711761       0.04811816
H       -7.38666880       0.16314720      -2.57801799       0.00000000       0.00000000      -0.08517577       0.03779900      -0.06035054       0.06545896
H       -7.73271636       1.85258026      -0.81160161       0.00000000       0.00000000      -0.11354695       0.00428378       0.01969251       0.06738930
H       -5.80048085       2.99815739       0.19697923       0.00000000       0.00000000      -0.03908875       0.00190433      -0.03946402       0.05356165
H       -3.49712733       2.35201286      -0.49834116       0.00000000       0.00000000      -0.07891819      -0.04588744       0.00817846       0.07406133
C        2.02332310       9.10184206      -3.71149255       0.00000000       0.00000000       0.01823367       0.00800657       0.01675676      -0.10451499
C        0.50257375       9.21031436      -3.71949208       0.00000000       0.00000000       0.02834832       0.01943459      -0.02087023      -0.05839957
C       -0.12955851       8.23448370      -2.73026005       0.00000000       0.00000000       0.03803293      -0.00501873      -0.00590014      -0.05885867
C       -1.65407890       8.31309686      -2.70766045       0.00000000       0.00000000       0.00826466       0.02146507       0.01175464      -0.06506929
C       -2.28901090       7.37029622      -1.68075574       0.00000000       0.00000000       0.01485694       0.00099259       0.04555608      -0.06111317
C       -2.07707218       5.91272522      -2.07724061       0.00000000       0.00000000      -0.01319122      -0.01979609       0.00889286      -0.07136217
C       -2.85469668       4.86747407      -1.27792546       0.00000000       0.00000000      -0.06546139       0.00947572       0.01272319      -0.06265041
C       -2.47496714       4.75359052       0.20089937       0.00000000       0.00000000       0.00830648      -0.00760513       0.00556314      -0.09458675
P       -1.10115404       3.58825429       0.59437428       0.00000000       0.00000000       0.09813564      -0.09573219       0.01151447       0.34012466
O       -1.50410132       2.15092650       0.65609532       0.00000000       0.00000000       0.00844888      -0.04390473      -0.03047196      -0.37816940
C       -0.56013730       4.02601671       2.30354873       0.00000000       0.00000000       0.07191056      -0.02586859       0.03868755      -0.12784489
C        0.82162579       3.41187750       2.29238962       0.00000000       0.00000000       0.02286997      -0.00838514      -0.08203608       0.26610634
O        0.95392002       2.29944994       1.73632319       0.00000000       0.00000000       0.04984421       0.00829852       0.01147555      -0.40752383
N        1.86864413       4.12712706       2.71084512       0.00000000       0.00000000      -0.01737283       0.01349546       0.07816095      -0.05976821
C        1.76364661       5.45674442       3.31438881       0.00000000       0.00000000       0.00514682       0.02823193      -0.03670865      -0.02292131
C        1.47891175       5.57757206       4.83230673       0.00000000       0.00000000      -0.02059759      -0.00559050      -0.06249724      -0.01731602
C        2.72806152       5.37717426       5.69097339       0.00000000       0.00000000      -0.06129424       0.02141977      -0.03331671      -0.12227584
C        0.32151763       4.69439350       5.28749122       0.00000000       0.00000000       0.00610545      -0.00318626       0.03120906      -0.11543924
C        3.18737185       3.68556912       2.25776524       0.00000000       0.00000000      -0.09624443       0.12697743      -0.09923676      -0.01178113
C        3.84609989       2.49257987       2.98687241       0.00000000       0.00000000      -0.04843652       0.12407074       0.04566616      -0.01108511
C        3.02410715       2.00400108       4.17283149       0.00000000       0.00000000      -0.04798182      -0.05611974       0.03953943      -0.11592734
C        4.09846722       1.35193958       2.00578139       0.00000000       0.00000000      -0.03127930       0.01871097       0.01603936      -0.11452217
C        0.33304860       3.98717232      -0.46504338       0.00000000       0.00000000       0.06532436       0.07237789      -0.07509381      -0.01915123
C        0.77796240       5.30815085      -0.44377025       0.00000000       0.00000000       0.03206037       0.04070965       0.00168384      -0.02743084
C        1.81376865       5.72235887      -1.26410885       0.00000000       0.00000000       0.00095092      -0.00922544       0.01813813      -0.01995036
C        2.40384892       4.81662236      -2.13335086       0.00000000       0.00000000       0.03029508      -0.01751331       0.12930928      -0.01816122
C        2.02253437       3.48305553      -2.09858522       0.00000000       0.00000000       0.02656525      -0.00576898       0.03401517      -0.02622994
C        0.99596865       3.06098145      -1.26320125       0.00000000       0.00000000       0.00598399      -0.00215562       0.01779775      -0.01657199
H        2.46208788       9.80958079      -4.40934976       0.00000000       0.00000000      -0.02626227      -0.01311859      -0.00535407       0.04905869
H        2.34230137       8.09929205      -3.99451641       0.00000000       0.00000000      -0.02132203       0.01380514      -0.00694012       0.02496839
H        2.41581534       9.32104682      -2.72075111       0.00000000       0.00000000       0.01072837       0.00944515       0.01532902       0.03205539
H        0.13390652       9.00303908      -4.72498011       0.00000000       0.00000000      -0.03644343      -0.00863837      -0.00977648       0.03623294
H        0.21228252      10.22989227      -3.46468794       0.00000000       0.00000000      -0.00971819       0.01089117       0.01206739       0.04278047
H        0.25597599       8.44932434      -1.73062161       0.00000000       0.00000000      -0.02619689       0.01750380       0.03099580       0.02550515
H        0.18634396       7.22442191      -2.99818699       0.00000000       0.00000000       0.00558899      -0.04818062      -0.01520592       0.01908715
H       -2.04479658       8.07933944      -3.70011565       0.00000000       0.00000000       0.00356958       0.00716468       0.00171638       0.03708498
H       -1.94714395       9.33684163      -2.47710745       0.00000000       0.00000000      -0.01789104       0.03983014       0.02960234       0.04867830
H       -3.35953312       7.57816390      -1.62756003       0.00000000       0.00000000       0.01170922      -0.01541027       0.02032419       0.04299055
H       -1.85524745       7.57126233      -0.70089044       0.00000000       0.00000000      -0.00205351       0.05168410       0.06589119       0.02498143
H       -1.01592670       5.67271540      -2.05684662       0.00000000       0.00000000       0.02064637      -0.01335851       0.01397872       0.03125875
H       -2.41196315       5.83151620      -3.10878717       0.00000000       0.00000000      -0.01542357       0.00769945      -0.01057609       0.05363624
H       -2.71286188       3.89707751      -1.75855435       0.00000000       0.00000000      -0.03594586       0.04565137       0.02420058       0.04220309
H       -3.91815128       5.10407792      -1.34486387       0.00000000       0.00000000      -0.02892035       0.04207238       0.02633523       0.05718954
H       -3.32206265       4.37284952       0.77692814       0.00000000       0.00000000      -0.01459798       0.01400097       0.04986252       0.07829002
H       -2.23376125       5.74231404       0.58260574       0.00000000       0.00000000       0.05467113       0.03133185       0.08386797       0.07947210
H       -1.24276316       3.49076225       2.96533086       0.00000000       0.00000000       0.04569670      -0.00391826       0.02962641       0.09749022
H       -0.58912477       5.08603121       2.52555900       0.00000000       0.00000000      -0.03929881      -0.06162407       0.02686179       0.08027565
H        0.99332439       6.01951783       2.78420977       0.00000000       0.00000000       0.02645203       0.04847152      -0.01960522       0.04861297
H        2.70280931       5.97874664       3.13305605       0.00000000       0.00000000       0.05599009      -0.04360368      -0.04895606       0.07651204
H        1.16687153       6.61946477       4.97226081       0.00000000       0.00000000       0.04921172      -0.01693480      -0.00318692       0.05707318
H        3.12365291       4.36895073       5.62673045       0.00000000       0.00000000       0.01209458       0.04575094      -0.01175545       0.04911761
H        2.47851266       5.57315076       6.73018720       0.00000000       0.00000000       0.03941738       0.01617615       0.00885998       0.06017391
H        3.50809280       6.07513731       5.39571144       0.00000000       0.00000000      -0.01459248      -0.02707223       0.00826004       0.05035223
H        0.49517001       3.65459578       5.02038892       0.00000000       0.00000000      -0.04595623      -0.02751409       0.02448993       0.02634260
H       -0.61425279       5.02994134       4.84726812       0.00000000       0.00000000       0.00952608      -0.04527486       0.02855357       0.03517070
H        0.21381790       4.75693318       6.36581783       0.00000000       0.00000000       0.03223002      -0.00948768       0.04210201       0.06365990
H        3.83630993       4.55608713       2.31968218       0.00000000       0.00000000       0.09332078      -0.02480704      -0.02984438       0.06497570
H        3.06602008       3.42230018       1.20394345       0.00000000       0.00000000       0.04839892      -0.03449374      -0.09754758       0.05713521
H        4.80992497       2.84112456       3.36129141       0.00000000       0.00000000       0.07912819       0.01291138       0.04659944       0.05320904
H        2.27283328       1.29069971       3.83939561       0.00000000       0.00000000      -0.03073497      -0.04358474      -0.00839449       0.04378164
H        2.51936732       2.82293463       4.67087071       0.00000000       0.00000000       0.00916303      -0.01180654      -0.00254656       0.04926160
H        3.67520337       1.53100874       4.89973081       0.00000000       0.00000000       0.01913626      -0.06556766      -0.01525526       0.04907669
H        3.15075713       1.00352951       1.59594124       0.00000000       0.00000000      -0.06136120      -0.07443238      -0.03495157       0.06020302
H        4.58742374       0.53020573       2.51895033       0.00000000       0.00000000       0.04176236      -0.05298803       0.00632515       0.04708425
H        4.73793932       1.67575824       1.18910639       0.00000000       0.00000000       0.04114121       0.02629128      -0.01118521       0.03787800
H        0.29793759       6.01892409       0.21449593       0.00000000       0.00000000       0.00664456       0.00317263      -0.05358980       0.05351335
H        2.16145016       6.74449652      -1.23135356       0.00000000       0.00000000      -0.07661080      -0.04518715      -0.03064611       0.07714225
H        3.17392712       5.14864894      -2.81559296       0.00000000       0.00000000      -0.02128799      -0.06193287       0.09444935       0.06965960
H        2.54771439       2.76961124      -2.71686234       0.00000000       0.00000000      -0.09870298      -0.01788187       0.02084160       0.05587758
H        0.70855661       1.99952320      -1.24631604       0.00000000       0.00000000      -0.02115162       0.00605431       0.01506878       0.10236992
C        2.86894351      -7.68973287       5.50051200       0.00000000       0.00000000      -0.01648604      -0.01554843      -0.02361453      -0.10495843
C        3.69320649      -6.70788920       6.31778051       0.00000000       0.00000000       0.01341333       0.00906830       0.01998943      -0.05873057
C        3.14054313      -5.28725099       6.27724157       0.00000000       0.00000000       0.00955264       0.02677627       0.01032232      -0.05469595
C        4.01216580      -4.34729357       7.10750056       0.00000000       0.00000000       0.03762047      -0.01217597       0.01741231      -0.06727416
C        3.59894494      -2.87888783       6.96735906       0.00000000       0.00000000       0.01265887      -0.05267500      -0.00623130      -0.06599815
C        4.08429979      -2.30276108       5.62846371       0.00000000       0.00000000      -0.03105147      -0.04219447      -0.04364064      -0.06872801
C        3.16171649      -1.28127538       4.95008029       0.00000000       0.00000000      -0.04432681       0.06418534       0.02694249      -0.06269229
C        1.76890964      -1.85451362       4.72989238       0.00000000       0.00000000      -0.04728170      -0.01132201      -0.02064795      -0.09471284
P        0.63594650      -1.29887542       3.36114557       0.00000000       0.00000000      -0.09919356      -0.03833785      -0.05922890       0.34188807
O        1.16382192      -0.61692767       2.13425030       0.00000000       0.00000000      -0.03933553       0.03219218       0.02170889      -0.36662256
C       -0.70001893      -0.23688417       4.12371023       0.00000000       0.00000000      -0.01465912      -0.00448289      -0.05496316      -0.12490704
C       -1.89597353      -0.51868829       3.24791864       0.00000000       0.00000000       0.00666961      -0.03373208       0.05424619       0.26723274
O       -1.70132861      -0.42966945       2.00977551       0.00000000       0.00000000      -0.01090286       0.01928621       0.02517876      -0.38109468
N       -3.06908053      -0.89705370       3.76692640       0.00000000       0.00000000       0.04003670      -0.02405843      -0.02073609      -0.04970202
C       -3.24573847      -1.39547806       5.13522228       0.00000000       0.00000000       0.04650844      -0.01838282      -0.07604628      -0.02260384
C       -3.81494585      -0.47052988       6.23503833       0.00000000       0.00000000       0.02893431      -0.01014731      -0.06843009      -0.01577778
C       -5.30710806      -0.18332446       6.07542850       0.00000000       0.00000000       0.01799850       0.02226235       0.01714220      -0.12172698
C       -3.03021206       0.83044839       6.36277461       0.00000000       0.00000000      -0.01442717       0.00189920       0.00813550      -0.11405271
C       -4.14596954      -1.17079694       2.81679189       0.00000000       0.00000000       0.06074961      -0.04239242       0.00686829      -0.02027117
C       -5.21675246      -0.08219411       2.66573899       0.00000000       0.00000000       0.02277410      -0.05486771      -0.00528951      -0.01899415
C       -4.56510331       1.27162969       2.42485019       0.00000000       0.00000000       0.00015887       0.00273454       0.00232588      -0.11393274
C       -6.12509259      -0.48227882       1.50617011       0.00000000       0.00000000      -0.03703521       0.02176803      -0.02816745      -0.11662914
C       -0.04477155      -2.94081803       2.99394559       0.00000000       0.00000000      -0.12768636      -0.01752045      -0.02754105      -0.04083502
C       -0.46378612      -3.75281718       4.04567495       0.00000000       0.00000000      -0.01153250      -0.00343305       0.00376538      -0.03472100
C       -0.53627696      -5.12271945       3.88652823       0.00000000       0.00000000       0.03366632      -0.04145778      -0.04306328      -0.01966642
C       -0.14806093      -5.69012738       2.68119801       0.00000000       0.00000000      -0.05843280       0.01713673      -0.08685135      -0.01745841
C        0.19669944      -4.88053561       1.61088481       0.00000000       0.00000000       0.03999953       0.01820843      -0.01422309      -0.02355459
C        0.22563134      -3.50190639       1.75343874       0.00000000       0.00000000       0.02777856       0.01128671       0.03862202      -0.02397785
H        3.33539344      -8.66907625       5.52005084       0.00000000       0.00000000      -0.01370504      -0.05916908       0.00408429       0.04865665
H        2.79867032      -7.36713602       4.46404806       0.00000000       0.00000000      -0.01565563       0.02978692      -0.05729942       0.02218372
H        1.86439248      -7.78066144       5.90414627       0.00000000       0.00000000      -0.04280875       0.00519325       0.00894657       0.03456285
H        4.71713397      -6.69448538       5.94054487       0.00000000       0.00000000       0.02899687      -0.02055556      -0.01489763       0.03526327
H        3.73096901      -7.04271849       7.35365035       0.00000000       0.00000000       0.00367800      -0.03371777       0.04002476       0.04431466
H        2.12061646      -5.26551611       6.66914547       0.00000000       0.00000000      -0.01390064      -0.06786152      -0.00352217       0.02480387
H        3.09447537      -4.95180068       5.23648680       0.00000000       0.00000000       0.00700679      -0.02516207      -0.02051923       0.00831079
H        5.05544631      -4.46089385       6.80974742       0.00000000       0.00000000       0.03399313       0.03221716      -0.01736815       0.04046309
H        3.94534159      -4.66354960       8.14897154       0.00000000       0.00000000      -0.03179642       0.10728235       0.02827588       0.04732076
H        4.01121331      -2.31458568       7.80426238       0.00000000       0.00000000      -0.01401129       0.07156420      -0.08465574       0.04571581
H        2.51213378      -2.83516613       7.03818419       0.00000000       0.00000000      -0.00653275       0.07850468       0.02960706       0.02999828
H        4.20465596      -3.13153521       4.93461141       0.00000000       0.00000000       0.08605785      -0.07160760      -0.04022347       0.04332888
H        5.07244469      -1.85671487       5.75504244       0.00000000       0.00000000      -0.07117140       0.03738333       0.04299506       0.05047017
H        3.59698121      -1.02485205       3.98340821       0.00000000       0.00000000      -0.00621853       0.10223133       0.03293935       0.05263000
H        3.08979429      -0.38830485       5.56110395       0.00000000       0.00000000       0.06393202       0.11481997       0.06887465       0.05234190
H        1.17037781      -1.75887014       5.63865285       0.00000000       0.00000000       0.05146007      -0.01236904      -0.01650866       0.06930648
H        1.88677234      -2.92300832       4.53285761       0.00000000       0.00000000      -0.04294445       0.02125923       0.03946083       0.08773029
H       -0.38958048       0.79596346       3.93799197       0.00000000       0.00000000       0.01972618      -0.00846251      -0.00728841       0.10984126
H       -0.84110354      -0.37788606       5.18997627       0.00000000       0.00000000       0.00519506      -0.04772796      -0.05672367       0.09151609
H       -2.28427019      -1.77275937       5.48385996       0.00000000       0.00000000       0.02211246      -0.00537174       0.00875122       0.05071780
H       -3.91584433      -2.25674353       5.06710837       0.00000000       0.00000000       0.02169079       0.00734708      -0.03008471       0.07490849
H       -3.68479896      -1.04789739       7.15854021       0.00000000       0.00000000      -0.01818817       0.03360717      -0.04414912       0.05806834
H       -5.46757901       0.66793360       5.42073079       0.00000000       0.00000000      -0.01070749      -0.00902664      -0.01087348       0.05140291
H       -5.74108536       0.06550733       7.03933997       0.00000000       0.00000000       0.01924783       0.00326278       0.02964907       0.06330992
H       -5.83815130      -1.05018266       5.68685331       0.00000000       0.00000000       0.01443632       0.04473565       0.05121161       0.04603218
H       -3.02295516       1.35536294       5.40920774       0.00000000       0.00000000       0.06639222       0.04036431       0.03611252       0.03045800
H       -2.00815040       0.64888627       6.68989336       0.00000000       0.00000000      -0.02586138       0.03816629      -0.02687971       0.03288498
H       -3.49921906       1.47288126       7.10255173       0.00000000       0.00000000      -0.02120963      -0.00798355      -0.00653503       0.06779384
H       -4.62378476      -2.11103859       3.10121390       0.00000000       0.00000000       0.03238873      -0.00685531      -0.04734004       0.05892458
H       -3.66229794      -1.28282875       1.84235312       0.00000000       0.00000000      -0.06775846      -0.02859888       0.03748387       0.07755556
H       -5.84173049      -0.03031026       3.55705798       0.00000000       0.00000000       0.07198685      -0.03035017       0.03138020       0.06377716
H       -3.94031369       1.23211787       1.53677935       0.00000000       0.00000000       0.07390914       0.01141112       0.01639380       0.05148302
H       -3.94668141       1.55803037       3.27143455       0.00000000       0.00000000       0.01800186       0.00325050       0.03815846       0.03042520
H       -5.32417279       2.03471812       2.29265607       0.00000000       0.00000000      -0.05019905       0.02476612       0.00273558       0.04818922
H       -5.57614099      -0.51461569       0.56726261       0.00000000       0.00000000       0.04561729      -0.03267445       0.01131300       0.02793537
H       -6.92626187       0.23988917       1.39959066       0.00000000       0.00000000      -0.06225511       0.05485780      -0.00316003       0.05816678
H       -6.57999062      -1.45324446       1.68946191       0.00000000       0.00000000       0.04113392      -0.00621500      -0.00559656       0.04472075
H       -0.69641439      -3.30480172       4.99997301       0.00000000       0.00000000      -0.00459487      -0.05903171       0.03286437       0.04191367
H       -0.84309736      -5.75091998       4.70790072       0.00000000       0.00000000      -0.00362464       0.01322472      -0.01332168       0.06993241
H       -0.12287469      -6.76191214       2.56846587       0.00000000       0.00000000      -0.01954955      -0.01817214       0.03436304       0.06890774
H        0.47910165      -5.32479834       0.66845089       0.00000000       0.00000000       0.01933313      -0.03985725       0.05902323       0.05396818
H        0.50695692      -2.84663902       0.93160785       0.00000000       0.00000000      -0.03511014      -0.05357819       0.06383452       0.07388004
C       -5.76025160       1.25922122      -5.93932804       0.00000000       0.00000000       0.07240012      -0.10391912      -0.07869168      -0.10864231
C       -5.70802909      -0.10510162      -6.62651530       0.00000000       0.00000000       0.08903617      -0.13176638      -0.01212912      -0.06122318
C       -4.35530254      -0.83798708      -6.50522177       0.00000000       0.00000000       0.14099419       0.01723300      -0.08154845      -0.05635614
C       -3.37420425      -0.58588206      -7.67300304       0.00000000       0.00000000       0.09220818       0.06187180      -0.06767507      -0.06951723
C       -1.90875932      -0.26924564      -7.31331978       0.00000000       0.00000000      -0.00390143       0.02750928      -0.04485791      -0.06739310
C       -1.24595396      -1.31953256      -6.42151615       0.00000000       0.00000000      -0.01950409       0.00695054      -0.04479097      -0.06621717
C        0.16606286      -0.93993011      -5.95616887       0.00000000       0.00000000       0.02113453       0.03541047       0.02772506      -0.05912522
C        0.65918718      -1.91711562      -4.87833102       0.00000000       0.00000000      -0.02890322      -0.04611596       0.05850609      -0.09776327
P        1.43250784      -1.23585089      -3.33506843       0.00000000       0.00000000      -0.03174202       0.07309119       0.00601958       0.31004153
O        0.58389899      -0.32685947      -2.50256032       0.00000000       0.00000000      -0.02744961       0.06123324       0.01281304      -0.39968950
C        1.72308097      -2.82385648      -2.41564841       0.00000000       0.00000000       0.02082696      -0.03874424       0.03861319      -0.11948593
C        2.38190016      -2.45264361      -1.11170980       0.00000000       0.00000000       0.02646908      -0.00183148       0.04119758       0.26698249
O        1.86918928      -1.53736962      -0.42714595       0.00000000       0.00000000       0.00059862       0.01735183      -0.05923127      -0.39173857
N        3.51721087      -3.06931015      -0.76205389       0.00000000       0.00000000       0.05264983       0.06741363       0.03754139      -0.06499194
C        4.43764519      -2.35835397       0.12845844       0.00000000       0.00000000       0.03144138      -0.01266179       0.02212722      -0.01511232
C        4.69940737      -2.97092364       1.51675784       0.00000000       0.00000000       0.01391631       0.07248848      -0.02554627      -0.01247269
C        5.81032762      -4.02036742       1.54873983       0.00000000       0.00000000      -0.02560796       0.05312316       0.05247004      -0.12064128
C        3.41144802      -3.50216372       2.12033294       0.00000000       0.00000000       0.03739403       0.04678006      -0.04551202      -0.11429109
C        4.11668425      -4.21430384      -1.46043860       0.00000000       0.00000000       0.02194769       0.15368874       0.02292790      -0.02683008
C        3.31707587      -5.52267613      -1.62195504       0.00000000       0.00000000       0.04469836       0.05690829       0.03177134      -0.01447827
C        3.31362119      -6.38095877      -0.35984839       0.00000000       0.00000000      -0.04397682       0.01627066       0.00114832      -0.11499829
C        3.99265096      -6.31752743      -2.74022081       0.00000000       0.00000000      -0.02478487      -0.02103358      -0.05460875      -0.12070600
C        2.99995242      -0.45215552      -3.79382965       0.00000000       0.00000000       0.01626201       0.01546507       0.03072301      -0.02364547
C        4.24254525      -1.04269053      -3.61912473       0.00000000       0.00000000       0.00476225       0.03211883       0.06230099      -0.03003153
C        5.39159834      -0.36121488      -3.98120005       0.00000000       0.00000000       0.00913026       0.02338857       0.01105927      -0.02018116
C        5.30144002       0.91219498      -4.51978436       0.00000000       0.00000000      -0.01535540       0.00130860      -0.05537329      -0.01499735
C        4.06003379       1.49990739      -4.71253131       0.00000000       0.00000000      -0.00016087      -0.00348740       0.01405151      -0.02196251
C        2.91071691       0.81814362      -4.35438769       0.00000000       0.00000000      -0.00337686       0.02634182       0.08383228      -0.02339965
H       -6.78879488       1.56243277      -5.75227588       0.00000000       0.00000000       0.05832816      -0.02570911      -0.12728742       0.04188451
H       -5.28794068       2.01320671      -6.55643339       0.00000000       0.00000000       0.02443663      -0.00287662      -0.03745189       0.04768415
H       -5.24580042       1.24512379      -4.98248929       0.00000000       0.00000000      -0.01463075       0.01712106       0.04706388       0.01684506
H       -5.95250448       0.02106773      -7.68208727       0.00000000       0.00000000      -0.03994619      -0.06258863       0.04826623       0.05103008
H       -6.47693090      -0.74786268      -6.19518414       0.00000000       0.00000000      -0.03664189       0.00671955       0.04573698       0.03177392
H       -4.56054784      -1.91135443      -6.45881442       0.00000000       0.00000000       0.04701831       0.05675575       0.02368346       0.02680690
H       -3.88477829      -0.55717649      -5.55674425       0.00000000       0.00000000      -0.04001549       0.04714582      -0.06848376       0.00911579
H       -3.74183239       0.25187351      -8.26708196       0.00000000       0.00000000       0.01315407       0.02111325       0.01318849       0.05215931
H       -3.36847132      -1.45600906      -8.33372030       0.00000000       0.00000000      -0.07998387       0.02908135       0.07125999       0.04435614
H       -1.84098457       0.70744096      -6.82865563       0.00000000       0.00000000      -0.06781582      -0.06396435      -0.00321428       0.03454666
H       -1.34765770      -0.19417874      -8.24968985       0.00000000       0.00000000      -0.07038855      -0.00848882       0.07038899       0.04742608
H       -1.20674253      -2.27169774      -6.94962342       0.00000000       0.00000000       0.01370884      -0.04037223      -0.05184587       0.05005830
H       -1.86692058      -1.46025351      -5.53808003       0.00000000       0.00000000      -0.04079985      -0.03083738       0.01603483       0.02445157
H        0.15595640       0.07843183      -5.56280215       0.00000000       0.00000000       0.02749584       0.02368840       0.01657331       0.03789721
H        0.85271517      -0.93095518      -6.80431589       0.00000000       0.00000000      -0.04466140      -0.05343511       0.03296580       0.05848331
H        1.37871956      -2.61820613      -5.30110509       0.00000000       0.00000000       0.05415971       0.02732726      -0.00300938       0.07258677
H       -0.18295127      -2.51626996      -4.52262884       0.00000000       0.00000000      -0.04304997      -0.10790820      -0.02711986       0.06718805
H        2.29188733      -3.51710975      -3.02359918       0.00000000       0.00000000       0.02123286      -0.03049826       0.00091790       0.08764679
H        0.72327092      -3.22722896      -2.23347336       0.00000000       0.00000000      -0.02536900      -0.00444084       0.04210310       0.09144020
H        4.03091074      -1.35213538       0.26199813       0.00000000       0.00000000      -0.07521008      -0.07290499       0.01365154       0.06970639
H        5.39562537      -2.27211127      -0.39417367       0.00000000       0.00000000      -0.02134780       0.05650802      -0.04712830       0.06168372
H        5.04153466      -2.12254606       2.12164508       0.00000000       0.00000000       0.03716340      -0.09040191       0.07091529       0.04539231
H        5.56847467      -4.92415726       0.99195568       0.00000000       0.00000000       0.00939640       0.15805130       0.02115602       0.04898238
H        5.97982494      -4.32575022       2.57794693       0.00000000       0.00000000       0.04265533       0.02959591       0.03327137       0.05732605
H        6.73321807      -3.58170882       1.17694937       0.00000000       0.00000000       0.02608125      -0.14949506      -0.06595011       0.04813419
H        2.65768817      -2.71625000       2.10923520       0.00000000       0.00000000       0.02738728      -0.08776801       0.10805538       0.04738237
H        3.05015736      -4.35316056       1.55738218       0.00000000       0.00000000      -0.08088167       0.01174489      -0.07577427       0.04131153
H        3.59374188      -3.84811107       3.13077797       0.00000000       0.00000000      -0.05237484       0.05309562       0.07154573       0.04693001
H        5.01974857      -4.45685303      -0.90255440       0.00000000       0.00000000      -0.01282758      -0.00104739      -0.04251585       0.09277037
H        4.44663594      -3.89322629      -2.45463169       0.00000000       0.00000000      -0.01911399       0.00890626      -0.06569891       0.05012336
H        2.27853364      -5.30600326      -1.89321297       0.00000000       0.00000000       0.05686027      -0.05764689      -0.00233500       0.02798703
H        4.32731543      -6.66744600      -0.08457169       0.00000000       0.00000000      -0.08137270       0.03590368       0.00682109       0.05369828
H        2.74868224      -7.29294542      -0.53778825       0.00000000       0.00000000       0.02636662      -0.00250716      -0.01744709       0.05531450
H        2.84637696      -5.86146469       0.47142715       0.00000000       0.00000000       0.03770622      -0.02989875       0.02743368       0.03561465
H        5.01870926      -6.55335933      -2.46722507       0.00000000       0.00000000      -0.02556071       0.01371760      -0.00399936       0.05715850
H        4.00894476      -5.77247157      -3.67927946       0.00000000       0.00000000      -0.02080153       0.06594772      -0.05641400       0.03724676
H        3.47041423      -7.25121999      -2.91106381       0.00000000       0.00000000      -0.05057085      -0.09152871       0.01706231       0.06262907
H        4.31613816      -2.02218206      -3.17635816       0.00000000       0.00000000       0.01662861      -0.02052756      -0.06578664       0.03638499
H        6.35735072      -0.82221437      -3.83776226       0.00000000       0.00000000      -0.02199910       0.02095657      -0.01194187       0.06444920
H        6.19665599       1.44781824      -4.79315710       0.00000000       0.00000000       0.00720239      -0.01409470      -0.00965497       0.07200880
H        3.99055888       2.49076759      -5.13546987       0.00000000       0.00000000       0.00623762      -0.01658933      -0.02361806       0.06195779
H        1.93567278       1.27079879      -4.47592736       0.00000000       0.00000000       0.01214551      -0.01534150      -0.03606466       0.04756137
