61
Properties=species:S:1:pos:R:3:initial_charges:R:1:initial_magmoms:R:1:forces:R:3:charge:R:1 energy=-2441.445897586551 free_energy=-2441.445897586551 dipole="-0.3497156953717115 -0.07819165983849427 0.10230465853698359" pbc="F F F"
Lu       0.04797290       0.01356391       0.10778257       3.00000000       0.00000000       0.02638190       0.03578711      -0.01538941       0.80169127
C       -0.02547878       3.46671812      -0.42725431       0.00000000       0.00000000      -0.03250984      -0.07990020      -0.05044512      -0.00119534
O       -0.49562294       2.16291708      -0.85008603       0.00000000       0.00000000      -0.03467074       0.03744421       0.03660095      -0.24889544
C       -1.24847376       2.22227063      -2.08696646       0.00000000       0.00000000       0.04480075       0.06070387       0.09961289       0.04512468
C       -0.45226773       1.70854843      -3.30798779       0.00000000       0.00000000      -0.09136053       0.00705445       0.09148317      -0.03959662
N        0.37036257       0.50201074      -3.10824982       0.00000000       0.00000000      -0.01749587       0.04918135      -0.11179617      -0.00623757
C        1.76405258       0.65119714      -3.50898208       0.00000000       0.00000000      -0.03399847      -0.05400642       0.06329092      -0.04201374
C        2.47545517       1.47097128      -2.41380249       0.00000000       0.00000000      -0.07013172      -0.02069185       0.05771790       0.04786382
O        2.12597273       0.96365468      -1.10338286       0.00000000       0.00000000      -0.07630890       0.01672862      -0.09922539      -0.25822355
C        3.14027256       1.26428243      -0.11654534       0.00000000       0.00000000      -0.02600896      -0.02472831      -0.02317739      -0.00288345
C       -0.06035147      -0.51809107      -2.37955366       0.00000000       0.00000000       0.04031181      -0.09201966       0.08111471       0.26086908
O       -1.04885003      -0.40552832      -1.61041706       0.00000000       0.00000000       0.03982861      -0.01151096      -0.01480020      -0.38415820
C        0.68527746      -1.86920435      -2.24817854       0.00000000       0.00000000       0.07631445       0.10387651       0.04210733       0.03587296
O        1.16042907      -1.81500803      -0.89702448       0.00000000       0.00000000      -0.02323387       0.10450334      -0.04976935      -0.23152528
C        0.89129929      -2.79309374       0.13689145       0.00000000       0.00000000       0.04052738       0.04590356      -0.11399454       0.02722319
C        0.95081268      -1.86247543       1.37039080       0.00000000       0.00000000      -0.06624582      -0.01598530      -0.03054845       0.26026179
O        1.68939436      -0.87216598       1.18185902       0.00000000       0.00000000       0.02246126       0.02353592      -0.03234023      -0.38115729
N        0.26122932      -1.97361340       2.50274970       0.00000000       0.00000000       0.00799595      -0.01422864       0.00981791      -0.01895926
C        0.62545976      -1.12987714       3.65720337       0.00000000       0.00000000      -0.01292340       0.03240408      -0.00062930      -0.03760896
C        0.99730701       0.33909145       3.35226958       0.00000000       0.00000000      -0.02230513       0.01156825       0.02542724       0.04214631
O        0.12741214       0.95397983       2.36561439       0.00000000       0.00000000       0.02677219       0.00988834       0.00384287      -0.25331398
C       -0.59682666       2.07930291       2.90894069       0.00000000       0.00000000      -0.01816879      -0.02547243      -0.01193952      -0.00026368
C       -1.02324732      -2.65042743       2.58461981       0.00000000       0.00000000       0.04783886       0.06035246       0.00598002      -0.04338748
C       -2.13901120      -1.59334251       2.52528030       0.00000000       0.00000000       0.00934756       0.00806485      -0.00937484       0.04544067
O       -1.93694671      -0.69473160       1.40930283       0.00000000       0.00000000       0.00302073      -0.09172930       0.08947273      -0.23623595
C       -3.11642677       0.10740930       1.18574700       0.00000000       0.00000000       0.05419319       0.00137065       0.00383145      -0.00946995
H        0.51114681       3.97223188      -1.23219336       0.00000000       0.00000000       0.01706343      -0.00708672      -0.01875871       0.09786020
H        0.65709879       3.30033069       0.40909427       0.00000000       0.00000000      -0.04054868       0.08283503       0.01850644       0.10142415
H       -0.86629234       4.10218565      -0.12040026       0.00000000       0.00000000       0.10166516      -0.11639215      -0.00115865       0.09852917
H       -1.55030087       3.25657351      -2.28530120       0.00000000       0.00000000       0.06058743      -0.03526466      -0.03656645       0.11496031
H       -2.16386361       1.64005873      -1.93757506       0.00000000       0.00000000       0.06956497      -0.05110557      -0.03596090       0.10745523
H        0.20640040       2.49224935      -3.68878122       0.00000000       0.00000000      -0.02716404      -0.05989601       0.09400421       0.11724834
H       -1.18392164       1.49430011      -4.09154234       0.00000000       0.00000000      -0.03671236      -0.03044129      -0.06308450       0.12795048
H        1.82262431       1.16572711      -4.47231012       0.00000000       0.00000000       0.03676631      -0.01946032       0.07610893       0.12942322
H        2.24692541      -0.31980741      -3.61663068       0.00000000       0.00000000      -0.04035364       0.07775573      -0.00357186       0.11260663
H        2.17355593       2.52803822      -2.46210729       0.00000000       0.00000000       0.11474428      -0.08200678      -0.04070900       0.08374802
H        3.55541684       1.39600688      -2.58071062       0.00000000       0.00000000      -0.06196231      -0.00244612       0.03011340       0.11471079
H        3.87503765       1.96711283      -0.50505031       0.00000000       0.00000000      -0.00798145       0.05225042       0.03420851       0.10514259
H        3.64565196       0.34037184       0.17158210       0.00000000       0.00000000       0.04726256      -0.00118435      -0.02681518       0.11104469
H        2.64669927       1.70197672       0.75686667       0.00000000       0.00000000       0.04542962       0.03474162       0.00974080       0.08920664
H        1.53904401      -1.99040216      -2.92197954       0.00000000       0.00000000      -0.03175518      -0.08584009       0.02734551       0.12194785
H       -0.02056811      -2.68127623      -2.42497179       0.00000000       0.00000000      -0.13342134      -0.07369846       0.03579002       0.12952325
H        1.74102082      -3.49214676       0.19989796       0.00000000       0.00000000      -0.03970904       0.01394424      -0.00940119       0.14515517
H       -0.03817240      -3.34911173      -0.01841889       0.00000000       0.00000000       0.07030844       0.09354037      -0.03528745       0.13721294
H        1.49305756      -1.58495898       4.14969634       0.00000000       0.00000000      -0.04871957       0.02785426      -0.01795811       0.12806483
H       -0.21174362      -1.16170071       4.35617095       0.00000000       0.00000000       0.05702585      -0.03733819      -0.02605204       0.11449543
H        2.02316525       0.39605598       2.97514511       0.00000000       0.00000000      -0.02218451       0.04304203       0.07929767       0.11122460
H        0.94610059       0.90094817       4.28881283       0.00000000       0.00000000      -0.04009864      -0.05357313       0.01977966       0.11322230
H        0.09212896       2.83338239       3.29723930       0.00000000       0.00000000       0.01673904       0.00229630      -0.01821449       0.09823070
H       -1.26355888       1.76628047       3.71744600       0.00000000       0.00000000       0.01757616      -0.01260379      -0.01556744       0.09398072
H       -1.18313530       2.51371571       2.09623933       0.00000000       0.00000000       0.01002705      -0.01008961       0.03377850       0.09265146
H       -1.10756613      -3.21426807       3.51636720       0.00000000       0.00000000       0.02425186       0.00697330       0.02183011       0.13119249
H       -1.12399025      -3.34260273       1.75029176       0.00000000       0.00000000      -0.02150145      -0.01821621       0.03936568       0.11823726
H       -2.18155643      -1.00642116       3.45246185       0.00000000       0.00000000      -0.00964515      -0.02569412      -0.04354433       0.09173749
H       -3.09343661      -2.11915592       2.40684874       0.00000000       0.00000000       0.01412371      -0.01081183       0.03394404       0.10744291
H       -3.99214377      -0.36284914       1.63748770       0.00000000       0.00000000      -0.03553812       0.04513756      -0.08702228       0.10674814
H       -3.27302307       0.18842072       0.10828972       0.00000000       0.00000000       0.02357511       0.03180650      -0.05231513       0.10554512
H       -2.99495145       1.09902629       1.63037832       0.00000000       0.00000000      -0.03785940       0.00158072       0.01302558       0.09193363
O       -1.97274585      -2.59937570      -0.41155337       0.00000000       0.00000000      -0.01578401      -0.07589357      -0.15816308      -0.56250278
H       -2.06376381      -3.16307093      -1.19289241       0.00000000       0.00000000       0.00547851       0.09846587       0.06883772       0.31639145
H       -2.88657667      -2.44087455      -0.14980829       0.00000000       0.00000000       0.00431680       0.01872453       0.00760382       0.32488660
