101
Properties=species:S:1:pos:R:3:initial_charges:R:1:initial_magmoms:R:1:forces:R:3:charge:R:1 energy=-4698.330961505949 free_energy=-4698.330961505949 dipole="1.6585963770842758 0.8796998157462634 -0.5846091499493079" pbc="F F F"
Lu       0.41705658      -0.04733681       0.07348281       3.00000000       0.00000000      -0.04685658       0.08843620      -0.13436329       0.77974991
O        0.75464614       1.35912752       1.58471650       0.00000000       0.00000000      -0.00386170       0.08929699       0.10098767      -0.40460419
C       -0.02024839       2.24355587       2.04555144       0.00000000       0.00000000       0.12417169      -0.02468929      -0.00071936       0.24817081
C       -1.42379608       2.24288985       1.51040100       0.00000000       0.00000000       0.03297939       0.11977400       0.14250584       0.07460277
C       -2.44302385       3.17992813       1.71747066       0.00000000       0.00000000      -0.13320943      -0.05927246      -0.08789065      -0.05133630
C       -3.62384425       3.08846098       0.98258837       0.00000000       0.00000000       0.09124700      -0.10218129       0.03771848       0.11797906
Cl      -4.85762154       4.23838914       1.22078083       0.00000000       0.00000000      -0.02222166      -0.00745684       0.01421588      -0.02621745
C       -3.76252232       2.05715273       0.01726152       0.00000000       0.00000000       0.05220460      -0.05742200      -0.03147157       0.01500488
C       -4.87554128       1.88962274      -0.85645169       0.00000000       0.00000000       0.02943959       0.02179857       0.06607896      -0.01642376
C       -4.86860220       0.94648114      -1.83856166       0.00000000       0.00000000      -0.00158569      -0.01290650      -0.01903466      -0.01599180
C       -3.75301171       0.08304202      -2.03836969       0.00000000       0.00000000      -0.02292502      -0.04736490       0.00789561       0.01582256
C       -3.60462130      -0.85048036      -3.10039752       0.00000000       0.00000000      -0.06471077       0.06287391       0.05362620       0.11855784
Cl      -4.81597789      -1.05981664      -4.28322890       0.00000000       0.00000000      -0.03761803       0.04160104       0.08373526      -0.02714315
C       -2.42410278      -1.57665150      -3.20641589       0.00000000       0.00000000      -0.08671039      -0.00695307      -0.09471669      -0.05037689
C       -1.41353703      -1.40310801      -2.26296700       0.00000000       0.00000000       0.06139022      -0.02158955       0.07385153       0.07446156
C       -0.01272801      -1.93154377      -2.29543059       0.00000000       0.00000000       0.03190931      -0.01593900      -0.01659663       0.24846530
O        0.77305361      -1.48977862      -1.41351618       0.00000000       0.00000000       0.02605918       0.00092407       0.04901085      -0.40121495
N        0.50278210      -2.73177133      -3.20647623       0.00000000       0.00000000       0.07449546      -0.06811956      -0.03240185      -0.02240141
C       -0.07696178      -3.54326053      -4.25944563       0.00000000       0.00000000       0.00425488      -0.16322678      -0.08908482      -0.01839017
C        1.03384678      -4.55689644      -4.57947635       0.00000000       0.00000000      -0.17751612      -0.03978548      -0.04872613      -0.07090297
C        2.31203507      -3.77674364      -4.31359107       0.00000000       0.00000000      -0.02300417      -0.00486367       0.03171537      -0.07300240
C        1.94353148      -2.95944561      -3.08808174       0.00000000       0.00000000       0.07848266      -0.02989388       0.00735747      -0.00584540
N       -1.56734141      -0.58339924      -1.22553275       0.00000000       0.00000000      -0.05910754      -0.07330639      -0.05022677      -0.13868897
C       -2.67654470       0.15460960      -1.12675270       0.00000000       0.00000000       0.00632441       0.00842120       0.05790341       0.09295877
C       -2.67844050       1.15555763      -0.08752685       0.00000000       0.00000000      -0.05393931      -0.00214296      -0.00154220       0.09215402
N       -1.56974905       1.23540209       0.65564174       0.00000000       0.00000000      -0.19617769       0.03620904       0.00290884      -0.13803711
N        0.50426355       3.12267103       2.87626047       0.00000000       0.00000000      -0.10048379      -0.03671857      -0.03409407      -0.02086528
C        1.93929632       3.00090922       3.12759127       0.00000000       0.00000000       0.04439782       0.00782206       0.03409665      -0.00525685
C        2.29000677       4.24146218       3.93013469       0.00000000       0.00000000       0.02729425       0.02128651       0.00404193      -0.07306460
C        0.99873491       4.52430631       4.68439652       0.00000000       0.00000000      -0.05374084       0.03375508       0.07258784      -0.07141717
C       -0.09458083       4.17932051       3.66672525       0.00000000       0.00000000       0.01209651       0.10975465       0.14179465      -0.01910105
H       -2.36092612       3.97918843       2.42886040       0.00000000       0.00000000       0.09271642       0.08292589       0.03789727       0.10431052
H       -5.72184844       2.54669893      -0.71665497       0.00000000       0.00000000       0.01436037      -0.06938311      -0.09562968       0.10829975
H       -5.71196448       0.84071134      -2.50043166       0.00000000       0.00000000      -0.05794236       0.03079815      -0.02673703       0.10793360
H       -2.30968168      -2.25424572      -4.02991389       0.00000000       0.00000000      -0.00016007      -0.05366040      -0.12828176       0.10354913
H       -0.30896403      -2.92691747      -5.13367906       0.00000000       0.00000000       0.06441292       0.01677137      -0.00084041       0.08142619
H       -0.98664989      -4.03701269      -3.91632223       0.00000000       0.00000000      -0.00606430      -0.00978941       0.00090386       0.07845356
H        0.99081591      -4.93689030      -5.59704623       0.00000000       0.00000000      -0.11775490       0.04610370       0.01329692       0.08844515
H        0.96728978      -5.40049868      -3.89457956       0.00000000       0.00000000      -0.02631869      -0.04944931       0.00276084       0.07256204
H        2.54389074      -3.12340484      -5.14999791       0.00000000       0.00000000       0.00577784       0.06562282      -0.09332242       0.07017456
H        3.16200159      -4.42876425      -4.14433621       0.00000000       0.00000000       0.04801394      -0.02249598       0.04523888       0.08272505
H        2.44996351      -1.99309148      -3.03334111       0.00000000       0.00000000       0.05346542       0.00484082       0.00963043       0.07113683
H        2.12942162      -3.48434764      -2.14402441       0.00000000       0.00000000       0.06754731      -0.05051542      -0.09617703       0.07802145
H        2.46555453       2.93224375       2.17276162       0.00000000       0.00000000       0.02813055      -0.01554541      -0.01749856       0.06913628
H        2.11912718       2.06961690       3.67344291       0.00000000       0.00000000       0.03957826       0.04241040       0.06289500       0.07698102
H        2.53102796       5.06295999       3.26105446       0.00000000       0.00000000       0.00467211       0.10747234      -0.05676770       0.06919708
H        3.13050226       4.09318690       4.60068949       0.00000000       0.00000000       0.02416606      -0.06550124       0.00350667       0.08267124
H        0.95312825       5.55053463       5.03705821       0.00000000       0.00000000      -0.12265809       0.00693972      -0.01863607       0.08890682
H        0.92478583       3.85864774       5.54242918       0.00000000       0.00000000      -0.03832326       0.00954264       0.06361456       0.07359193
H       -0.32781246       5.03815332       3.02978921       0.00000000       0.00000000       0.03743756       0.01955263       0.01132626       0.08076441
H       -1.00315124       3.83180612       4.15900022       0.00000000       0.00000000      -0.01833425       0.00693769      -0.00603982       0.07943649
O       -0.00390907      -1.51351194       1.50727013       0.00000000       0.00000000       0.02120562       0.04707939      -0.03656892      -0.39273848
C        0.80378841      -2.19853283       2.19366289       0.00000000       0.00000000       0.15113315       0.05712152      -0.03937879       0.24970705
C        2.27854681      -1.91378529       1.99360460       0.00000000       0.00000000      -0.02062751       0.06376510      -0.09202132       0.07507709
C        3.40082585      -2.42353135       2.66461037       0.00000000       0.00000000      -0.03190387       0.05273214      -0.06592818      -0.04726246
C        4.67407248      -1.96449221       2.32710451       0.00000000       0.00000000      -0.03776226       0.00970342      -0.02656403       0.11896514
Cl       6.04365289      -2.56696294       3.14855265       0.00000000       0.00000000      -0.08654348      -0.01163124      -0.02163323      -0.02511489
C        4.82354416      -0.98457599       1.30817812       0.00000000       0.00000000      -0.06069994      -0.02474654       0.05344651       0.01717539
C        6.05439254      -0.42134522       0.87234071       0.00000000       0.00000000       0.16764485      -0.01682811       0.04638076      -0.01537090
C        6.10556753       0.54031514      -0.09006689       0.00000000       0.00000000       0.03440597       0.00967058       0.01407400      -0.01685626
C        4.92121934       1.03539615      -0.70225739       0.00000000       0.00000000       0.05616757       0.03165222       0.00108282       0.01555413
C        4.87541558       2.06624857      -1.67714238       0.00000000       0.00000000      -0.04333606       0.01844565      -0.01743223       0.11769784
Cl       6.30726945       2.82003420      -2.22616322       0.00000000       0.00000000      -0.09838282      -0.06088571       0.03407164      -0.02673597
C        3.64193818       2.47726928      -2.17924153       0.00000000       0.00000000       0.11669449      -0.03922839       0.04550036      -0.05152335
C        2.47374466       1.85991944      -1.72267589       0.00000000       0.00000000      -0.00674945      -0.03816247       0.02209210       0.07021918
C        1.04369243       2.15407687      -2.07698786       0.00000000       0.00000000       0.14304836      -0.04090072       0.05973473       0.24711123
O        0.17402740       1.52593658      -1.42039146       0.00000000       0.00000000      -0.04351960       0.05306421      -0.02106692      -0.41217265
N        0.62734410       3.01529419      -2.98098701       0.00000000       0.00000000       0.00394467       0.07945120      -0.10471869      -0.02542742
C       -0.81749346       3.19190616      -3.09707094       0.00000000       0.00000000      -0.10154919       0.07170483      -0.06081477      -0.00357251
C       -0.98798685       4.38002927      -4.03040173       0.00000000       0.00000000       0.11425379       0.02537143      -0.08175136      -0.07350390
C        0.25902735       4.30671736      -4.90763281       0.00000000       0.00000000       0.10719081       0.00478253       0.01878584      -0.07108003
C        1.34895342       3.83134450      -3.94139043       0.00000000       0.00000000      -0.00652043       0.03321704       0.00899318      -0.01906858
N        2.50894547       0.89016988      -0.80712345       0.00000000       0.00000000       0.04032784       0.12072551      -0.12362340      -0.15093410
C        3.67953525       0.48993295      -0.30539443       0.00000000       0.00000000       0.01210534       0.04638619      -0.07613736       0.09157026
C        3.62859844      -0.53480600       0.70625995       0.00000000       0.00000000       0.00599081      -0.08876367       0.06966894       0.08981065
N        2.41799646      -0.99234203       1.03842203       0.00000000       0.00000000      -0.00884280      -0.09692751       0.09620442      -0.13373919
N        0.28557393      -3.06634843       3.03400602       0.00000000       0.00000000      -0.00044853      -0.09022894       0.07951231      -0.01660576
C       -1.17402784      -3.09539734       3.12362372       0.00000000       0.00000000      -0.08163484       0.00261690       0.07098639      -0.00762686
C       -1.46721332      -3.98047929       4.32338432       0.00000000       0.00000000       0.09838874      -0.11221090      -0.00856675      -0.07313105
C       -0.28700796      -4.94559010       4.31633180       0.00000000       0.00000000       0.14810352      -0.01727258       0.07269515      -0.07117509
C        0.89333981      -4.06374325       3.89502101       0.00000000       0.00000000       0.01134896       0.00109160       0.03010829      -0.01934741
H        3.31900703      -3.16035442       3.44497113       0.00000000       0.00000000      -0.03131882       0.01754187       0.01345497       0.10559130
H        6.97009916      -0.76614564       1.32864587       0.00000000       0.00000000      -0.02986973      -0.02529488       0.00346808       0.10804106
H        7.05550816       0.95371653      -0.39650609       0.00000000       0.00000000      -0.05125093      -0.03472828       0.01833276       0.10773736
H        3.62446672       3.27322479      -2.90197695       0.00000000       0.00000000       0.00200132       0.01298424       0.00968405       0.10355932
H       -1.24131085       3.35682967      -2.10503185       0.00000000       0.00000000      -0.02986525      -0.00259784       0.04950408       0.06660618
H       -1.25709336       2.27229418      -3.49378485       0.00000000       0.00000000      -0.01084533      -0.01039760      -0.06712800       0.06685537
H       -0.99972904       5.30491684      -3.45995736       0.00000000       0.00000000       0.02360752       0.09345348       0.02641014       0.07183407
H       -1.89543652       4.33140168      -4.62124149       0.00000000       0.00000000      -0.09005865      -0.04726696       0.00707779       0.08119893
H        0.49790842       5.26252400      -5.36596241       0.00000000       0.00000000       0.04121017      -0.01566737       0.00888240       0.08961513
H        0.12220370       3.57036454      -5.69714040       0.00000000       0.00000000      -0.02179133      -0.01278617      -0.04465882       0.07159887
H        1.81243930       4.67484531      -3.42022659       0.00000000       0.00000000      -0.01018135       0.04786966      -0.06299485       0.08167890
H        2.11639758       3.24281352      -4.44472421       0.00000000       0.00000000      -0.00611660       0.03227097      -0.04146137       0.07720517
H       -1.57645085      -3.49759827       2.18979101       0.00000000       0.00000000      -0.02117872      -0.07607398       0.01243244       0.07993220
H       -1.54965069      -2.07511926       3.22855157       0.00000000       0.00000000      -0.01148032       0.00980541       0.01502164       0.07874454
H       -2.41264750      -4.50483765       4.24148046       0.00000000       0.00000000      -0.08461961       0.02297437      -0.03385410       0.08410055
H       -1.47412572      -3.39510309       5.23885881       0.00000000       0.00000000       0.00100533       0.05736347       0.07217787       0.07176834
H       -0.44609685      -5.72620293       3.57592603       0.00000000       0.00000000      -0.01019767      -0.06380035      -0.02632758       0.07239092
H       -0.12716323      -5.41392906       5.28416319       0.00000000       0.00000000       0.02961962       0.00129049      -0.02227895       0.08758921
H        1.65274135      -4.62925577       3.35432042       0.00000000       0.00000000       0.01564766      -0.01222027       0.02339792       0.07686767
H        1.34651252      -3.56758249       4.75899919       0.00000000       0.00000000      -0.01355213      -0.05721397       0.03942407       0.08181507
