340
Properties=species:S:1:pos:R:3:initial_charges:R:1:initial_magmoms:R:1:forces:R:3:charge:R:1 energy=-10773.277275501856 free_energy=-10773.277275501856 dipole="0.41702580708768155 -0.6443087727753896 0.42776875520619356" pbc="F F F"
Eu      -0.13049532      -0.26539365       0.14601142       3.00000000       0.00000000       0.06432483      -0.04825059       0.06000230       0.84497089
C       -1.24883846      -6.18915305       4.46861669       0.00000000       0.00000000      -0.01418920      -0.02388230      -0.00847641      -0.11000381
C        0.06613390      -5.60915400       3.95925520       0.00000000       0.00000000      -0.02490285      -0.02075550       0.00664884      -0.05320306
C        0.99429174      -5.14629879       5.08514937       0.00000000       0.00000000      -0.00614920      -0.00320711       0.00056963      -0.06554020
C        0.42091613      -4.10956009       6.05048732       0.00000000       0.00000000       0.01323302       0.03019961      -0.00560039      -0.06752454
C        0.17619812      -2.73496227       5.42811686       0.00000000       0.00000000      -0.03115804       0.04713121      -0.03389035      -0.06450893
C       -1.18468252      -2.59955966       4.75006038       0.00000000       0.00000000      -0.07691992       0.10234321      -0.05155609      -0.01533301
N       -1.39590087      -1.18362686       4.45197244       0.00000000       0.00000000      -0.01768868       0.11116444      -0.06582408      -0.05474353
C       -1.95707830      -0.35711824       5.52264035       0.00000000       0.00000000      -0.00591036      -0.02204940      -0.03070150      -0.03162818
C       -3.32364695       0.29430272       5.19135807       0.00000000       0.00000000       0.04114746       0.00931638      -0.02514061      -0.08518043
C       -4.43798969       0.11776776       6.26597705       0.00000000       0.00000000       0.03314799      -0.01616516      -0.01176319      -0.02137891
C       -3.87323777      -0.14050559       7.66460363       0.00000000       0.00000000      -0.04987546      -0.01437008      -0.00352238      -0.11818924
C       -5.47227365      -0.96624833       5.88142381       0.00000000       0.00000000       0.01197810       0.01105633       0.05681242      -0.07850380
C       -6.56710193      -0.43075009       4.93867092       0.00000000       0.00000000       0.01157714       0.02908760       0.07196523      -0.06354204
C       -7.12869742      -1.38337031       3.86937306       0.00000000       0.00000000       0.03235726       0.02484710       0.02996292      -0.07176949
C       -7.62048188      -2.77116158       4.30904141       0.00000000       0.00000000      -0.01677684       0.00013979       0.01528633      -0.01122744
C       -7.62813169      -3.71820472       3.10313734       0.00000000       0.00000000      -0.02182788       0.00443079      -0.00059277      -0.10940249
C       -9.01935948      -2.70825038       4.91180925       0.00000000       0.00000000      -0.01945568       0.01371217       0.01434366      -0.11238910
C       -0.91946628      -0.70063567       3.31308330       0.00000000       0.00000000      -0.04234553       0.12768513      -0.03688164       0.25557730
O       -0.70747357      -1.37535574       2.27875470       0.00000000       0.00000000       0.05041512      -0.00745517       0.08608689      -0.37907956
C       -0.54632924       0.78840967       3.25576403       0.00000000       0.00000000      -0.06530489      -0.05855925       0.04495878       0.04349771
O        0.34836691       0.94481711       2.15692424       0.00000000       0.00000000      -0.05093847       0.13595600       0.07106765      -0.20831881
C        1.68198029       1.35740198       2.40592223       0.00000000       0.00000000       0.05990372      -0.06631316      -0.03676239       0.04688743
C        2.58910751       0.16310163       2.05433113       0.00000000       0.00000000       0.04885420      -0.10160767       0.03040717       0.25012755
O        2.07297431      -0.76420866       1.40197725       0.00000000       0.00000000       0.01808241       0.04307952      -0.00537508      -0.38435144
N        3.83049865       0.19849183       2.51886942       0.00000000       0.00000000       0.07392166      -0.00925018       0.01365670      -0.06318489
C        4.47264533       1.48616841       2.75295705       0.00000000       0.00000000      -0.00921416      -0.04726830      -0.03419469      -0.02145436
C        4.72089150       1.85995226       4.21197208       0.00000000       0.00000000       0.00914545      -0.01320556      -0.08736207      -0.06787812
C        5.79359259       2.95391181       4.25900063       0.00000000       0.00000000       0.04364991      -0.06904799       0.04281111      -0.06981186
C        5.35011772       4.33093078       3.76226868       0.00000000       0.00000000       0.02189877      -0.05073594       0.00823331      -0.06460106
C        4.45838113       5.05390827       4.76775820       0.00000000       0.00000000      -0.01292991       0.01393455      -0.00096247      -0.05701247
C        4.21398420       6.50554938       4.37793475       0.00000000       0.00000000      -0.01417800       0.02121612      -0.00310804      -0.10889531
C        4.59536980      -1.02320008       2.81446046       0.00000000       0.00000000      -0.03100137       0.07248724      -0.02125524      -0.00898347
C        6.07845029      -0.98733597       2.44104984       0.00000000       0.00000000      -0.04741981       0.04423291       0.04649021      -0.07794873
C        6.34408836      -0.80594094       0.94535457       0.00000000       0.00000000       0.01584203       0.02442462       0.01204966      -0.01829178
C        5.54168108      -1.84088152       0.16873182       0.00000000       0.00000000      -0.02732428      -0.00731873      -0.02429354      -0.11329889
C        7.85092807      -0.87007082       0.62846627       0.00000000       0.00000000       0.04547121       0.00474949       0.01029806      -0.07061695
C        8.31940611       0.22654001      -0.33470366       0.00000000       0.00000000       0.00789021       0.01308813       0.03760631      -0.06350977
C        7.82153944       0.05626385      -1.78059268       0.00000000       0.00000000       0.02705781      -0.01636534       0.03532663      -0.06983147
C        7.14544179       1.29631497      -2.37539677       0.00000000       0.00000000       0.04458145      -0.00328563      -0.00276705      -0.01325401
C        6.91722741       1.09414026      -3.87236337       0.00000000       0.00000000       0.00824082       0.00987503      -0.00919235      -0.11180537
C        5.82325025       1.61412253      -1.67626268       0.00000000       0.00000000       0.03129940       0.02200993       0.00040402      -0.09835908
H       -1.81866708      -6.62766531       3.65177217       0.00000000       0.00000000       0.02167482      -0.00155319      -0.00720816       0.03178357
H       -1.87037548      -5.43049922       4.93854253       0.00000000       0.00000000       0.03138352      -0.03250947      -0.00667270       0.03313283
H       -1.05219730      -6.97083841       5.19752971       0.00000000       0.00000000      -0.01044728       0.00899724      -0.01622806       0.05520503
H       -0.13079422      -4.78537983       3.26564967       0.00000000       0.00000000       0.02554686      -0.00585179       0.00819404       0.00866578
H        0.59268933      -6.38318180       3.39549519       0.00000000       0.00000000      -0.00279693       0.00047025       0.00686805       0.03697663
H        1.90572290      -4.73642372       4.64161946       0.00000000       0.00000000       0.01432371      -0.05074324       0.00098009       0.03038234
H        1.27794043      -6.01954411       5.67424839       0.00000000       0.00000000       0.00227999      -0.01507312      -0.03237277       0.05484299
H        1.14223991      -3.97677245       6.85744689       0.00000000       0.00000000       0.02290304      -0.07197743       0.01925689       0.05380546
H       -0.50099423      -4.47822840       6.50064457       0.00000000       0.00000000       0.04157646      -0.00660949      -0.00290864       0.05448518
H        0.94342635      -2.50990288       4.68237155       0.00000000       0.00000000       0.09600749      -0.00701751       0.10256820       0.03625782
H        0.22199629      -1.97629831       6.21379466       0.00000000       0.00000000       0.09424657      -0.04369354       0.01171924       0.04138177
H       -1.97851926      -2.95109367       5.40449028       0.00000000       0.00000000       0.00834407      -0.02897160       0.08440898       0.07727754
H       -1.21955423      -3.15920847       3.81913803       0.00000000       0.00000000       0.03746741       0.05200273      -0.02809940       0.08637974
H       -1.25132714       0.42176120       5.82497352       0.00000000       0.00000000       0.00988507      -0.06786179      -0.01627588       0.04961719
H       -2.08959266      -1.02281665       6.36970275       0.00000000       0.00000000       0.07125925      -0.02749646       0.03199539       0.10182664
H       -3.70123281      -0.10772285       4.25721332       0.00000000       0.00000000       0.01648515      -0.02749720       0.02098758       0.06166941
H       -3.16782204       1.36008311       5.02239914       0.00000000       0.00000000      -0.00057195       0.00367243       0.10144634       0.04070262
H       -4.97571983       1.07053428       6.30939515       0.00000000       0.00000000       0.02625211      -0.03568463       0.01748884       0.04990890
H       -3.52774731      -1.16750720       7.78069912       0.00000000       0.00000000      -0.04840027       0.03847171       0.01184481       0.03560216
H       -4.66057511       0.01462193       8.39620306       0.00000000       0.00000000       0.03722133       0.03203846       0.03875027       0.06202012
H       -3.05076808       0.53894793       7.88931823       0.00000000       0.00000000      -0.13326457      -0.02702034       0.02616501       0.03905681
H       -5.95478689      -1.32714456       6.78925737       0.00000000       0.00000000       0.02566957       0.04284068       0.05550636       0.04960671
H       -4.96041386      -1.82113681       5.45075841       0.00000000       0.00000000      -0.01332927       0.03219288      -0.00809314       0.04006700
H       -6.16676441       0.43902517       4.40817539       0.00000000       0.00000000      -0.05487759      -0.00596741      -0.02585942       0.02179712
H       -7.38596045      -0.06671929       5.55705285       0.00000000       0.00000000      -0.06280608       0.01779980      -0.01504484       0.04426122
H       -6.36734108      -1.52994358       3.10623591       0.00000000       0.00000000       0.00404744      -0.01391970      -0.02335667       0.02971432
H       -7.96102578      -0.86515306       3.38568214       0.00000000       0.00000000       0.00743604      -0.01903819       0.00887846       0.03863709
H       -6.94179705      -3.18343518       5.06311159       0.00000000       0.00000000       0.03128894       0.03250452       0.00848655       0.02694786
H       -8.25988588      -3.32473734       2.30944641       0.00000000       0.00000000      -0.03253719       0.03209683       0.04081871       0.03715113
H       -8.01482153      -4.69345746       3.38776468       0.00000000       0.00000000      -0.00686023       0.02443815       0.02671644       0.04509659
H       -6.62794425      -3.86266595       2.69494049       0.00000000       0.00000000      -0.03080747      -0.00545236       0.01395621       0.01660734
H       -9.73370368      -2.33421887       4.18103796       0.00000000       0.00000000       0.02271312       0.01841392       0.01160833       0.04085409
H       -9.03854870      -2.05495449       5.77997512       0.00000000       0.00000000      -0.00670921      -0.01377239       0.00364148       0.04158733
H       -9.34197750      -3.70140700       5.21624647       0.00000000       0.00000000       0.00801014       0.04695528       0.04767528       0.04361148
H       -0.09444181       1.11191716       4.20171972       0.00000000       0.00000000       0.02076193      -0.08852681      -0.10738354       0.08280536
H       -1.43415090       1.40987571       3.05438891       0.00000000       0.00000000       0.05420751      -0.06820649      -0.04042475       0.11698341
H        1.84514648       1.67018935       3.44376217       0.00000000       0.00000000      -0.09119562      -0.14646713      -0.05580300       0.08586014
H        1.89194310       2.21589290       1.75211307       0.00000000       0.00000000      -0.09352167      -0.06706157      -0.05085207       0.08668757
H        3.89212134       2.26473080       2.25923402       0.00000000       0.00000000       0.02645444      -0.03546407       0.00938779       0.04130204
H        5.43414944       1.44951670       2.23588767       0.00000000       0.00000000       0.02211720      -0.03186672       0.07331473       0.09212014
H        5.08390673       0.97601378       4.74071089       0.00000000       0.00000000      -0.01629606       0.14117726       0.05892083       0.05687685
H        3.79231531       2.19161148       4.68275202       0.00000000       0.00000000       0.14115663      -0.00883499       0.06260852       0.03565110
H        6.63096710       2.60892799       3.65001051       0.00000000       0.00000000       0.09610051       0.04649184       0.04292982       0.04290016
H        6.15640322       3.06083040       5.27870757       0.00000000       0.00000000       0.00475738      -0.00999876       0.08715650       0.06230548
H        4.85036104       4.24543449       2.79428374       0.00000000       0.00000000      -0.04690157       0.02330648       0.00020308       0.01452891
H        6.24303144       4.93573604       3.59944673       0.00000000       0.00000000       0.01809120      -0.00501901       0.04900398       0.05506412
H        4.94869556       5.02919334       5.74184329       0.00000000       0.00000000      -0.03410154       0.01933934       0.00906164       0.04837947
H        3.50101614       4.53573353       4.86462961       0.00000000       0.00000000      -0.01952194       0.00036337       0.01236477       0.01610695
H        5.15491445       7.04825409       4.33525671       0.00000000       0.00000000      -0.02668478      -0.00959885       0.00361277       0.05173410
H        3.57705011       6.98893565       5.11403644       0.00000000       0.00000000      -0.00292182       0.02039068      -0.02173894       0.04638340
H        3.73693083       6.57778920       3.40127628       0.00000000       0.00000000       0.01534695      -0.01015989       0.00977153       0.02240892
H        4.08179923      -1.84802437       2.31802939       0.00000000       0.00000000       0.01659945       0.06016597       0.02259631       0.07975343
H        4.53808906      -1.18891550       3.89934590       0.00000000       0.00000000      -0.09688010       0.05207463      -0.09039582       0.06427043
H        6.51239310      -1.93539038       2.76677903       0.00000000       0.00000000      -0.03538162       0.03412533      -0.01791577       0.06799033
H        6.57536333      -0.19803045       3.00387838       0.00000000       0.00000000       0.06887916      -0.02853786       0.04309725       0.05382112
H        5.98794266       0.18230118       0.64897317       0.00000000       0.00000000      -0.01366580       0.02829826      -0.02159079       0.03162451
H        5.61227639      -2.81316536       0.64410478       0.00000000       0.00000000       0.04053492      -0.00019098       0.02496859       0.05449311
H        5.93490762      -1.93029682      -0.83448219       0.00000000       0.00000000      -0.00916782      -0.02139999      -0.04887435       0.05087529
H        4.49335348      -1.54784434       0.11591560       0.00000000       0.00000000      -0.05902844       0.00662198      -0.02031696       0.00974317
H        8.10880566      -1.84217727       0.20873980       0.00000000       0.00000000      -0.03705574      -0.00947827      -0.00448758       0.04573136
H        8.42322879      -0.77091509       1.55200323       0.00000000       0.00000000      -0.03608972       0.03599911       0.03381337       0.04198170
H        9.41013470       0.23398445      -0.33452847       0.00000000       0.00000000      -0.02614552      -0.01879454       0.01502510       0.04668469
H        8.00631908       1.19412326       0.06067300       0.00000000       0.00000000      -0.00383594       0.03171687      -0.01226845       0.03090307
H        7.11783906      -0.77299168      -1.83948568       0.00000000       0.00000000       0.01662394      -0.00247938      -0.03195648       0.03247402
H        8.67159955      -0.20637003      -2.41102365       0.00000000       0.00000000      -0.02656455       0.01349390      -0.02405394       0.04348743
H        7.81294814       2.15266279      -2.24863383       0.00000000       0.00000000       0.04114167       0.01587298       0.02201340       0.04027773
H        6.17907101       0.31346002      -4.04793166       0.00000000       0.00000000       0.03227228       0.00080245       0.01574144       0.02508872
H        7.84089583       0.80731856      -4.36796512       0.00000000       0.00000000       0.00251832       0.02273472       0.02935484       0.04794829
H        6.56051056       2.01204120      -4.33153497       0.00000000       0.00000000       0.03285909       0.01265071       0.00780008       0.03919666
H        5.98381099       1.86924291      -0.63157856       0.00000000       0.00000000       0.02841861       0.00778989       0.00794504       0.02342545
H        5.14306348       0.76204090      -1.72517606       0.00000000       0.00000000       0.04349865       0.01894967       0.00745588       0.01750806
H        5.34838488       2.47016876      -2.14823826       0.00000000       0.00000000       0.03830664       0.02206306      -0.01922948       0.03298774
C       -5.23058488      -3.35559939      -6.35977560       0.00000000       0.00000000       0.03162903      -0.01470954      -0.05869776      -0.10735706
C       -6.27036954      -3.25352647      -5.25493481       0.00000000       0.00000000      -0.00961656      -0.02157253      -0.03295780      -0.05796570
C       -5.69797806      -2.69049400      -3.95911253       0.00000000       0.00000000       0.03031032       0.02253902      -0.00789464      -0.06290076
C       -4.71853208      -3.61918577      -3.24052241       0.00000000       0.00000000       0.02650334       0.00722074       0.00451023      -0.06594992
C       -4.11707595      -2.88180961      -2.04490369       0.00000000       0.00000000       0.01037325       0.01295623       0.00732728      -0.06630406
C       -3.64219616      -3.79647629      -0.91519151       0.00000000       0.00000000      -0.00272974      -0.02137289       0.02166386      -0.03296736
N       -2.22885095      -4.16679397      -0.83384928       0.00000000       0.00000000       0.00915983      -0.03019358      -0.00886012      -0.04645465
C       -1.85197014      -5.57836245      -0.67785345       0.00000000       0.00000000       0.02008164       0.01578431      -0.02469881      -0.02556367
C       -2.97252002      -6.60696414      -0.56705405       0.00000000       0.00000000       0.03222125       0.04063546       0.00074026      -0.07290893
C       -2.40150956      -8.03495297      -0.65567654       0.00000000       0.00000000       0.00322220      -0.00593995       0.04332728      -0.02379897
C       -1.31765788      -8.27590717       0.40135238       0.00000000       0.00000000       0.00960081      -0.01126156      -0.02605262      -0.11784453
C       -1.91868500      -8.39342430      -2.07232592       0.00000000       0.00000000       0.04994952       0.00184059       0.06132865      -0.07054509
C       -3.04043652      -8.75226449      -3.05890525       0.00000000       0.00000000       0.04785224      -0.03623555       0.06757917      -0.06885122
C       -3.59254767      -7.58590260      -3.87745709       0.00000000       0.00000000       0.01141075      -0.03720365       0.02373735      -0.05939572
C       -4.65911239      -8.02963346      -4.88666990       0.00000000       0.00000000      -0.02771651      -0.01636790      -0.01276792      -0.01349570
C       -5.93805087      -8.47607421      -4.18144854       0.00000000       0.00000000      -0.02276307      -0.01804645       0.00649164      -0.11008262
C       -4.96994989      -6.88325987      -5.84433581       0.00000000       0.00000000      -0.00595559       0.01644820      -0.01977222      -0.11021294
C       -1.29393907      -3.24024129      -0.68362201       0.00000000       0.00000000      -0.01068714      -0.05855394       0.07309817       0.25225037
O       -1.50369411      -2.00384710      -0.72533014       0.00000000       0.00000000      -0.03184234      -0.06727348       0.01471224      -0.37932420
C        0.14991787      -3.69785339      -0.40297211       0.00000000       0.00000000       0.01564238       0.04965461       0.01009834       0.04025243
O        1.02207334      -2.58141110      -0.50694650       0.00000000       0.00000000      -0.02442315       0.06018125       0.05838416      -0.21778336
C        1.93476612      -2.59531272      -1.59662916       0.00000000       0.00000000      -0.01562614       0.00439552       0.08382363       0.04314605
C        1.79092081      -1.30695797      -2.40025209       0.00000000       0.00000000      -0.01757668      -0.03033168       0.00560186       0.25797878
O        1.05246687      -0.40240011      -1.93784485       0.00000000       0.00000000       0.03463890      -0.03386249       0.01289410      -0.39395898
N        2.42996416      -1.22229926      -3.56065060       0.00000000       0.00000000       0.01260162      -0.01449854      -0.00324661      -0.05277224
C        1.97265745      -0.22812238      -4.53850599       0.00000000       0.00000000      -0.00383906      -0.01219314       0.00573566      -0.01063331
C        3.02902623       0.61454538      -5.24707268       0.00000000       0.00000000      -0.02129363      -0.01889888      -0.01095269      -0.07158077
C        3.55106742       1.81675879      -4.46337483       0.00000000       0.00000000       0.01032924      -0.04592166       0.00312083      -0.07247734
C        2.58105273       2.98549282      -4.27770086       0.00000000       0.00000000      -0.01387774      -0.02557527      -0.01000345      -0.06219422
C        3.34060193       4.20741535      -3.75271692       0.00000000       0.00000000       0.00952996       0.01229473       0.00382832      -0.05662706
C        2.49371826       5.46288085      -3.58445295       0.00000000       0.00000000      -0.03055704       0.00755227      -0.02126052      -0.10775005
C        3.30082464      -2.28771824      -4.06112462       0.00000000       0.00000000      -0.05866168      -0.03423319      -0.02177924      -0.02527404
C        4.68410808      -2.33506848      -3.38541762       0.00000000       0.00000000      -0.03927657       0.00576974      -0.04236045      -0.07674818
C        5.34984206      -3.73097376      -3.23309949       0.00000000       0.00000000       0.00397645       0.01322331      -0.03171113      -0.02607601
C        5.13561873      -4.63335105      -4.44990696       0.00000000       0.00000000      -0.00437398       0.02415809       0.00512582      -0.11640074
C        4.98269102      -4.47680810      -1.92922750       0.00000000       0.00000000      -0.02077628       0.00136326      -0.04045029      -0.07127838
C        6.20670968      -5.01308635      -1.17645524       0.00000000       0.00000000       0.00840077       0.00482713      -0.04376266      -0.06509722
C        5.83191835      -5.64821429       0.16546439       0.00000000       0.00000000      -0.01559106      -0.01471129      -0.01034037      -0.06309130
C        7.03250172      -5.91597226       1.08787227       0.00000000       0.00000000      -0.00457131      -0.04325629       0.01894236      -0.01344858
C        6.62953260      -6.87444321       2.20841617       0.00000000       0.00000000      -0.02751465      -0.02297624       0.00523607      -0.11133871
C        7.57497483      -4.62518190       1.69698127       0.00000000       0.00000000       0.00388327      -0.00833917      -0.00188529      -0.10666139
H       -5.67323725      -3.76563265      -7.26114648       0.00000000       0.00000000      -0.03653401      -0.01828598      -0.03124093       0.04842845
H       -4.41009442      -4.00196464      -6.06563412       0.00000000       0.00000000       0.02404386      -0.03690114      -0.02228843       0.03467603
H       -4.82526691      -2.37561911      -6.59563128       0.00000000       0.00000000      -0.01339129       0.03475275      -0.01910651       0.02951622
H       -6.70424113      -4.23489361      -5.06671331       0.00000000       0.00000000      -0.03422687      -0.03876150       0.01486828       0.04161652
H       -7.07671181      -2.59957418      -5.58789871       0.00000000       0.00000000      -0.03749046       0.00332295      -0.01616434       0.04118409
H       -6.52421046      -2.46469693      -3.28005408       0.00000000       0.00000000       0.01457343      -0.01744365       0.00283127       0.03080012
H       -5.18803071      -1.75360360      -4.18171970       0.00000000       0.00000000       0.00499681       0.06579128      -0.02590367       0.03099983
H       -3.93366043      -3.95759105      -3.91438531       0.00000000       0.00000000      -0.01967317      -0.00965918      -0.03874350       0.04733106
H       -5.26233803      -4.49724975      -2.88633051       0.00000000       0.00000000      -0.01807193       0.00953615      -0.05081617       0.03892772
H       -4.91961788      -2.27758537      -1.61861421       0.00000000       0.00000000       0.00357469       0.01720142       0.00952579       0.04951340
H       -3.33121224      -2.19061495      -2.34942150       0.00000000       0.00000000       0.06589089      -0.05922801      -0.03776105       0.04219731
H       -4.23151274      -4.70343130      -0.96461659       0.00000000       0.00000000       0.04622418      -0.10083247       0.02543329       0.08886895
H       -3.87483263      -3.30988118       0.02169652       0.00000000       0.00000000      -0.00273662       0.01699504       0.03143611       0.08033699
H       -1.24518903      -5.65785325       0.22785082       0.00000000       0.00000000      -0.01390472      -0.03578277      -0.04835065       0.06115384
H       -1.24037844      -5.86028766      -1.53973542       0.00000000       0.00000000       0.02102558       0.03359315       0.00318604       0.07238948
H       -3.68852921      -6.50380934      -1.37805897       0.00000000       0.00000000       0.02993628      -0.02024392      -0.00461686       0.06801273
H       -3.49724735      -6.48249865       0.38240226       0.00000000       0.00000000       0.01254859      -0.03738111      -0.00660389       0.04716839
H       -3.22594709      -8.71132364      -0.41566527       0.00000000       0.00000000      -0.04869716       0.00157966      -0.00585240       0.05882654
H       -0.36407339      -7.82762529       0.12618404       0.00000000       0.00000000      -0.04759522      -0.00289426      -0.03202708       0.02714462
H       -1.15661770      -9.34412674       0.52332624       0.00000000       0.00000000       0.00409316       0.04097792      -0.00676224       0.05940487
H       -1.62882597      -7.87237048       1.36556993       0.00000000       0.00000000       0.01995638      -0.06494234      -0.07238890       0.03690299
H       -1.25650624      -9.25471671      -1.97777281       0.00000000       0.00000000      -0.05076173      -0.04984129       0.01733805       0.05101457
H       -1.31485613      -7.58866104      -2.49723121       0.00000000       0.00000000       0.01220674       0.00662350       0.00539697       0.02342672
H       -3.85079979      -9.22401049      -2.50549601       0.00000000       0.00000000      -0.01251365      -0.04265353      -0.01249582       0.04563307
H       -2.65047687      -9.49123544      -3.76056353       0.00000000       0.00000000      -0.02908459      -0.00087032      -0.01360831       0.04593596
H       -2.76855710      -7.10787499      -4.41507800       0.00000000       0.00000000       0.01190679      -0.03031307      -0.00959161       0.02030575
H       -4.04317971      -6.83267255      -3.22884130       0.00000000       0.00000000       0.00651574       0.02361464      -0.01291305       0.02094607
H       -4.26795983      -8.86966856      -5.46724477       0.00000000       0.00000000       0.02413202      -0.02232642       0.00828000       0.03708063
H       -6.32492171      -7.68102272      -3.54452251       0.00000000       0.00000000       0.00538473      -0.00254830      -0.02470838       0.02813623
H       -5.76614449      -9.35534024      -3.56754234       0.00000000       0.00000000       0.00293112      -0.00626889      -0.00188717       0.03900966
H       -6.70398580      -8.72957345      -4.90939691       0.00000000       0.00000000       0.02172719       0.01980456      -0.01940215       0.04734181
H       -5.39256210      -6.04593851      -5.29549073       0.00000000       0.00000000      -0.00529263      -0.00581600       0.00202399       0.03637245
H       -5.68816755      -7.19102521      -6.59880811       0.00000000       0.00000000      -0.00103596      -0.03142515       0.01629767       0.04600363
H       -4.06942651      -6.54802675      -6.35544178       0.00000000       0.00000000       0.00467241      -0.01694708      -0.00956705       0.02645348
H        0.46256574      -4.50936313      -1.06836521       0.00000000       0.00000000      -0.02972777       0.05888888       0.02841408       0.08302171
H        0.21850511      -4.04824693       0.63925580       0.00000000       0.00000000      -0.06237036       0.01123864      -0.06624333       0.10441803
H        1.76662787      -3.46104868      -2.24819972       0.00000000       0.00000000      -0.02456327       0.06601062       0.04872406       0.08305103
H        2.95027564      -2.66954705      -1.18834325       0.00000000       0.00000000      -0.00186069      -0.00176213       0.02835116       0.10346713
H        1.27024760       0.42527470      -4.02041087       0.00000000       0.00000000       0.01544539      -0.01922248       0.01023874       0.06988677
H        1.43535068      -0.80473057      -5.29809388       0.00000000       0.00000000      -0.03898893       0.09121153      -0.02156426       0.07185289
H        2.57169353       0.96196314      -6.17530196       0.00000000       0.00000000       0.05513507       0.03693165      -0.01874875       0.06209556
H        3.87556379      -0.01813672      -5.51849015       0.00000000       0.00000000      -0.00302514       0.05342836      -0.02049762       0.05759524
H        4.41848162       2.19533888      -5.00404685       0.00000000       0.00000000       0.00190808      -0.00737007       0.00323338       0.05787078
H        3.88815075       1.47390321      -3.48778352       0.00000000       0.00000000       0.00172012       0.00473126       0.03534238       0.04466901
H        1.78971657       2.70891795      -3.57729807       0.00000000       0.00000000      -0.02905291       0.01422826       0.03706085       0.01340726
H        2.11311149       3.23779034      -5.22991505       0.00000000       0.00000000       0.00894846      -0.00079186      -0.04799729       0.04084222
H        4.14525974       4.44065891      -4.45038957       0.00000000       0.00000000       0.03016025      -0.02409891      -0.00857202       0.04897475
H        3.80225599       3.95568565      -2.79440662       0.00000000       0.00000000       0.00416018       0.00059898       0.02766682       0.02054221
H        2.04734156       5.75694133      -4.53003891       0.00000000       0.00000000       0.00402016      -0.01401668      -0.03152101       0.04935742
H        3.11843301       6.28327460      -3.23746923       0.00000000       0.00000000      -0.02983823      -0.02223380      -0.02443460       0.04909733
H        1.69438700       5.31850131      -2.86061781       0.00000000       0.00000000      -0.01586711      -0.02502596      -0.02263476       0.01088738
H        3.42951094      -2.10471110      -5.12659399       0.00000000       0.00000000      -0.01407216      -0.05886653      -0.01960460       0.08909508
H        2.79919263      -3.25088798      -3.96438838       0.00000000       0.00000000      -0.03647445      -0.03606868       0.06845980       0.06224958
H        4.60480701      -1.86898840      -2.40396009       0.00000000       0.00000000       0.01622554       0.00221365      -0.02554169       0.03949558
H        5.35647984      -1.70816403      -3.97312795       0.00000000       0.00000000       0.02881589      -0.04052533      -0.00686923       0.05866585
H        6.42423090      -3.52890217      -3.18739498       0.00000000       0.00000000       0.00745693       0.04401273       0.02366807       0.05708145
H        4.10249910      -4.96632259      -4.53869213       0.00000000       0.00000000       0.03107820       0.03847378       0.00941806       0.02844395
H        5.75715146      -5.52097733      -4.35185495       0.00000000       0.00000000      -0.02326064       0.06217646      -0.01327349       0.06193561
H        5.41636956      -4.12691987      -5.37074658       0.00000000       0.00000000      -0.00006389       0.00100332       0.04825825       0.04799160
H        4.31703031      -5.31239017      -2.15019805       0.00000000       0.00000000      -0.03223976      -0.00451823      -0.02246979       0.03455346
H        4.45355130      -3.80768751      -1.25104373       0.00000000       0.00000000      -0.00514022      -0.02376839       0.01589958       0.02012158
H        6.90541097      -4.19482837      -1.00422238       0.00000000       0.00000000       0.01213230       0.02344050      -0.03767357       0.03845637
H        6.71526831      -5.75366678      -1.79196945       0.00000000       0.00000000       0.03305105      -0.01856669      -0.01444158       0.04534880
H        5.31726394      -6.59033893      -0.02756146       0.00000000       0.00000000      -0.00159214      -0.04724619      -0.00058487       0.03576724
H        5.12554386      -5.00271235       0.69728993       0.00000000       0.00000000      -0.01925359       0.01346058      -0.00001449       0.01618353
H        7.82767640      -6.38554428       0.50289315       0.00000000       0.00000000      -0.00229928      -0.00153743      -0.04026110       0.04091652
H        5.79891606      -6.46372155       2.78207552       0.00000000       0.00000000       0.01584958      -0.00931786      -0.00958384       0.02860982
H        7.46154819      -7.04255069       2.88912397       0.00000000       0.00000000      -0.02649569       0.01792791      -0.06110043       0.04839229
H        6.32531890      -7.83689895       1.80398421       0.00000000       0.00000000      -0.00220066       0.01376395       0.00248053       0.04046307
H        6.81008595      -4.14898027       2.31001283       0.00000000       0.00000000       0.00257462      -0.02023284       0.00844612       0.02137549
H        7.89575974      -3.92905992       0.92802610       0.00000000       0.00000000       0.01415799       0.00675252      -0.00383243       0.03429517
H        8.43203206      -4.83147902       2.33215390       0.00000000       0.00000000      -0.00863538      -0.04810850      -0.01283658       0.04615549
C       -3.00149714       9.29495285       3.36206269       0.00000000       0.00000000      -0.02879459       0.02999071       0.00432312      -0.10937125
C       -2.11140897       8.18543860       2.82031825       0.00000000       0.00000000       0.00319223       0.03387492       0.00286021      -0.05489577
C       -2.00332957       8.23867703       1.29868256       0.00000000       0.00000000       0.00983664      -0.00960611      -0.05959466      -0.06469037
C       -1.15674584       7.11072704       0.70394813       0.00000000       0.00000000       0.08066540      -0.06769812      -0.01284723      -0.05582895
C        0.33328938       7.25226305       1.01087830       0.00000000       0.00000000       0.08714429      -0.04603082       0.02590266      -0.07087037
C        1.16378374       6.04011364       0.55612208       0.00000000       0.00000000      -0.01513751      -0.03493952      -0.04922297      -0.01411469
N        0.75638924       4.80673760       1.22724375       0.00000000       0.00000000      -0.08696189       0.02498775      -0.04971676      -0.09195622
C        1.21783803       4.75624415       2.62312763       0.00000000       0.00000000       0.02577493      -0.00587991      -0.07065445      -0.00284572
C        0.32604283       4.03899194       3.62815839       0.00000000       0.00000000       0.01336722       0.07423663      -0.01952293      -0.07947809
C       -0.80597726       4.91968645       4.16142513       0.00000000       0.00000000       0.03742041       0.10241811       0.03998533      -0.02211114
C       -0.26957967       5.97390164       5.12924957       0.00000000       0.00000000      -0.00808815       0.01621478       0.04185918      -0.11283244
C       -1.89052182       4.05203873       4.82316553       0.00000000       0.00000000       0.07137742       0.03643117      -0.00722009      -0.06535073
C       -3.31540166       4.53610437       4.55087799       0.00000000       0.00000000       0.04269625      -0.00171775       0.08061364      -0.06377073
C       -3.76775432       4.27884523       3.11263863       0.00000000       0.00000000       0.03218784       0.01024631       0.04842992      -0.05826659
C       -5.21259095       4.72493882       2.85824357       0.00000000       0.00000000      -0.02425762       0.00254387      -0.00914078      -0.01409613
C       -6.20849301       3.74543473       3.47431575       0.00000000       0.00000000      -0.01998076      -0.01102887       0.00690806      -0.10946582
C       -5.47874757       4.87796247       1.36123299       0.00000000       0.00000000       0.00240717      -0.00194789      -0.03672004      -0.10899735
C        0.19121107       3.77310046       0.58098021       0.00000000       0.00000000      -0.02297442      -0.00374771      -0.07804110       0.25132040
O       -0.49845276       2.88723478       1.08522334       0.00000000       0.00000000       0.05566721      -0.00852049      -0.02814623      -0.40760451
C        0.51016408       3.58427561      -0.92367880       0.00000000       0.00000000       0.01079203      -0.03916379      -0.07252726       0.04487595
O        0.13170687       2.25755536      -1.30231822       0.00000000       0.00000000       0.10670450       0.02827374      -0.01164404      -0.24170746
C       -0.90697770       2.16292489      -2.26948026       0.00000000       0.00000000       0.09494812       0.07469528       0.03403127       0.05391984
C       -2.12799644       1.49008435      -1.63694623       0.00000000       0.00000000      -0.03923098       0.00911165       0.01178198       0.26142588
O       -1.91710969       0.78620751      -0.62573464       0.00000000       0.00000000       0.02478807       0.06165383       0.02115897      -0.35411652
N       -3.32686247       1.72059770      -2.14774912       0.00000000       0.00000000      -0.03856188      -0.02611688      -0.06344594      -0.04428878
C       -4.57905255       1.33633068      -1.48361178       0.00000000       0.00000000      -0.04828221       0.00723804      -0.04482518      -0.01602057
C       -4.54671030       1.13819038       0.03363542       0.00000000       0.00000000      -0.01756244       0.04929441      -0.06483322      -0.06679930
C       -4.37946748      -0.33709602       0.37625811       0.00000000       0.00000000      -0.02118085       0.04915607      -0.03062271      -0.07368256
C       -4.11723541      -0.62155980       1.85012301       0.00000000       0.00000000       0.01295941       0.00948712      -0.01069445      -0.06081083
C       -3.90244631      -2.13070345       1.98435908       0.00000000       0.00000000      -0.01181135      -0.04373448      -0.03447803      -0.05894957
C       -3.92843216      -2.78544925       3.35787412       0.00000000       0.00000000      -0.02147919      -0.01304943      -0.00601131      -0.12836230
C       -3.54573060       2.40445691      -3.42686612       0.00000000       0.00000000       0.01135779       0.02749108      -0.03181950      -0.03045276
C       -2.91742614       1.76261839      -4.67112768       0.00000000       0.00000000       0.03960316       0.06144474       0.00970589      -0.08212673
C       -3.55580424       0.46239892      -5.18308204       0.00000000       0.00000000      -0.04374775       0.05135196       0.04551189      -0.01528538
C       -4.96116849       0.71482192      -5.72832649       0.00000000       0.00000000      -0.00182209      -0.00184042      -0.00156333      -0.12075208
C       -2.67978157      -0.12720215      -6.30310647       0.00000000       0.00000000      -0.05790428       0.03079047       0.00570014      -0.07444705
C       -1.41195144      -0.85210372      -5.84489754       0.00000000       0.00000000      -0.00742914       0.03376098      -0.01504673      -0.05947385
C       -1.69412855      -2.22973727      -5.24744141       0.00000000       0.00000000      -0.00993283       0.00502756      -0.00293986      -0.06960633
C       -0.43387110      -3.00805193      -4.85013903       0.00000000       0.00000000       0.01465467      -0.02136496      -0.00929706      -0.00797888
C        0.37654374      -3.44149710      -6.06993246       0.00000000       0.00000000       0.01438533      -0.00037783      -0.02058303      -0.11373991
C       -0.81029732      -4.23759033      -4.02416217       0.00000000       0.00000000      -0.02102860      -0.01735859      -0.00147499      -0.10632713
H       -3.04429786       9.25142092       4.44781171       0.00000000       0.00000000      -0.01328155       0.00078187      -0.01432974       0.04159228
H       -4.01275803       9.20238177       2.97394607       0.00000000       0.00000000      -0.00799401       0.00797164      -0.00440815       0.04035741
H       -2.61360398      10.26959182       3.07719413       0.00000000       0.00000000      -0.00662382      -0.00538143      -0.00284409       0.04465971
H       -2.52297993       7.21924287       3.11907762       0.00000000       0.00000000      -0.01806973       0.02117616      -0.00878730       0.03046314
H       -1.12350504       8.28796242       3.26887449       0.00000000       0.00000000       0.03793172      -0.00763499       0.01669695       0.03004580
H       -1.59476775       9.20181084       0.99393481       0.00000000       0.00000000       0.06263293       0.02661213       0.00524709       0.04536116
H       -3.00739084       8.17104053       0.87941413       0.00000000       0.00000000      -0.06892407      -0.01081066      -0.02439060       0.04138954
H       -1.28778175       7.09140048      -0.38080575       0.00000000       0.00000000      -0.04421566       0.02132568      -0.00987607       0.02520442
H       -1.51501669       6.15689910       1.09881147       0.00000000       0.00000000      -0.02702985      -0.05554891      -0.01542383       0.02471812
H        0.47043396       7.41105159       2.07813008       0.00000000       0.00000000      -0.02294661       0.03347007       0.03821041       0.05686858
H        0.73258091       8.12918694       0.49872882       0.00000000       0.00000000      -0.02517137      -0.01704296       0.00948797       0.06327111
H        2.22367611       6.22132961       0.77171855       0.00000000       0.00000000      -0.06482751       0.00282256      -0.06094301       0.05680574
H        1.04093113       5.93610028      -0.51831922       0.00000000       0.00000000       0.05621468      -0.04734341      -0.04505784       0.04982572
H        1.36787052       5.78272451       2.95300673       0.00000000       0.00000000      -0.00071546      -0.03661668      -0.02593081       0.08573686
H        2.20726518       4.27866384       2.59709055       0.00000000       0.00000000       0.02970405       0.02240863       0.03940672       0.03106083
H        0.94656207       3.70220008       4.46383157       0.00000000       0.00000000      -0.01705679       0.04348091      -0.00629991       0.02993151
H       -0.11139801       3.18146463       3.13455439       0.00000000       0.00000000      -0.00435966       0.04134545       0.01360456       0.06312556
H       -1.24032625       5.43303693       3.30162630       0.00000000       0.00000000      -0.04185285      -0.01404973       0.02332766       0.05041244
H        0.23437973       5.51035291       5.97712737       0.00000000       0.00000000      -0.07004591      -0.03248646      -0.03773092       0.03862108
H       -1.08213947       6.58652753       5.51192777       0.00000000       0.00000000       0.02855711      -0.02991061      -0.02558773       0.05662946
H        0.44893895       6.63479123       4.64473822       0.00000000       0.00000000      -0.09432411      -0.02303935       0.04053904       0.03431436
H       -1.70884450       4.01693509       5.90009810       0.00000000       0.00000000      -0.06120726       0.03813860      -0.03282876       0.04134137
H       -1.81498526       3.02737626       4.44940252       0.00000000       0.00000000       0.00373933       0.01911731       0.02611901       0.00967790
H       -3.38468830       5.60048355       4.77606410       0.00000000       0.00000000      -0.02697589       0.01123724      -0.01637173       0.04597398
H       -3.98362610       4.01295823       5.23435797       0.00000000       0.00000000      -0.06197124       0.00975996       0.01962217       0.03910485
H       -3.67498232       3.21144915       2.88547612       0.00000000       0.00000000      -0.00627416      -0.00330922      -0.00403460       0.01473560
H       -3.10906740       4.81250496       2.42521524       0.00000000       0.00000000       0.00705569       0.01382698      -0.02109380       0.02660660
H       -5.35759358       5.70374204       3.32439248       0.00000000       0.00000000      -0.00314303       0.01072998       0.01516843       0.04189407
H       -6.05002340       2.73868798       3.08772870       0.00000000       0.00000000      -0.00189105       0.02303191      -0.01627266       0.02436082
H       -7.22625252       4.04498485       3.23928377       0.00000000       0.00000000       0.00617366      -0.00138264       0.01124467       0.04760261
H       -6.11180932       3.71894789       4.55628745       0.00000000       0.00000000      -0.00342814      -0.01218021      -0.00779222       0.03921296
H       -5.30153992       3.94133234       0.83549133       0.00000000       0.00000000       0.00751894      -0.02363300       0.02699359       0.02159449
H       -4.83531274       5.64098787       0.92784119       0.00000000       0.00000000       0.01488358       0.00374138       0.01990870       0.03170839
H       -6.51096485       5.17370298       1.19246119       0.00000000       0.00000000       0.01173373       0.00342404       0.00191455       0.04715919
H        1.59399217       3.66406560      -1.08573262       0.00000000       0.00000000      -0.02685663       0.01040059       0.08168548       0.07576925
H        0.01183983       4.31907823      -1.56178810       0.00000000       0.00000000      -0.07017456       0.00778911       0.09601980       0.06704326
H       -0.51531558       1.54710702      -3.09069015       0.00000000       0.00000000      -0.02321503       0.00088429       0.07862198       0.09033179
H       -1.17642107       3.15190370      -2.64769277       0.00000000       0.00000000       0.02929359      -0.00337190      -0.10318058       0.07525300
H       -4.95051502       0.42606102      -1.96518948       0.00000000       0.00000000      -0.04775405       0.00022779       0.00466105       0.07717451
H       -5.28083909       2.14368731      -1.70252361       0.00000000       0.00000000      -0.00972136       0.00070405      -0.00147507       0.07872590
H       -5.50219327       1.49653978       0.42122438       0.00000000       0.00000000       0.01934419      -0.03544648       0.08093840       0.06413616
H       -3.75615448       1.74051359       0.48346085       0.00000000       0.00000000      -0.01165781      -0.02064499      -0.00433493       0.06288475
H       -3.53659689      -0.73225140      -0.19633215       0.00000000       0.00000000      -0.03972161      -0.05037149       0.01213309       0.07138551
H       -5.29099616      -0.85866609       0.07565848       0.00000000       0.00000000      -0.00836932      -0.00037382      -0.00639503       0.04340270
H       -4.96017368      -0.27445284       2.44540361       0.00000000       0.00000000      -0.00740883      -0.01355218       0.00860795       0.05778830
H       -3.21987246      -0.07195781       2.14689260       0.00000000       0.00000000       0.06217579      -0.01884568       0.02825378       0.02350625
H       -2.93814786      -2.34488756       1.51261346       0.00000000       0.00000000       0.04641646       0.01479332       0.02006644       0.03180981
H       -4.70264471      -2.59848688       1.41000258       0.00000000       0.00000000      -0.05332958      -0.05070675      -0.00973422       0.04177086
H       -3.49506651      -2.13809644       4.10175553       0.00000000       0.00000000       0.02359568      -0.04699781      -0.02029599       0.05030425
H       -3.37162292      -3.71974550       3.32772021       0.00000000       0.00000000      -0.05809354      -0.00019323      -0.01118720       0.03413599
H       -4.94206643      -3.02233271       3.65616888       0.00000000       0.00000000      -0.00601995      -0.00360824       0.00423285       0.06818665
H       -3.20508854       3.44195263      -3.33651646       0.00000000       0.00000000       0.04693301      -0.03315229      -0.04415573       0.06112009
H       -4.62283168       2.44089145      -3.58737357       0.00000000       0.00000000       0.03423301       0.03432294      -0.00671122       0.09410992
H       -1.86170205       1.57986041      -4.50360623       0.00000000       0.00000000       0.07575606      -0.00389345      -0.04597453       0.03555315
H       -2.98850499       2.50527913      -5.46747467       0.00000000       0.00000000      -0.04460531       0.01843084      -0.02441961       0.07075946
H       -3.61356549      -0.25668392      -4.36011594       0.00000000       0.00000000       0.01640592       0.01326719       0.04524143       0.02790448
H       -4.92208225       1.42033280      -6.55586335       0.00000000       0.00000000      -0.01056451      -0.01227837       0.05070860       0.05215297
H       -5.63492316       1.10679652      -4.96823178       0.00000000       0.00000000       0.04983662      -0.01816512      -0.03822138       0.03651049
H       -5.38810087      -0.21251845      -6.10116331       0.00000000       0.00000000      -0.03411869       0.04948332       0.01210080       0.05781238
H       -2.40806461       0.68226991      -6.98295882       0.00000000       0.00000000       0.03992474       0.01317771       0.01876342       0.04428825
H       -3.27296610      -0.83165562      -6.88467623       0.00000000       0.00000000      -0.03411447      -0.02294993       0.00109626       0.05765159
H       -0.87525807      -0.24102003      -5.11556705       0.00000000       0.00000000       0.00609911      -0.00542170       0.03916533       0.00879327
H       -0.76986534      -0.96667911      -6.71765099       0.00000000       0.00000000       0.01683683       0.00010764      -0.02538089       0.04207993
H       -2.25878145      -2.81897750      -5.96952996       0.00000000       0.00000000      -0.00402126      -0.00806359      -0.01180864       0.05411646
H       -2.31432056      -2.10275231      -4.35950853       0.00000000       0.00000000      -0.01821195      -0.01490421       0.01957829       0.03182284
H        0.17702373      -2.35717988      -4.21060902       0.00000000       0.00000000      -0.00173983       0.01405198      -0.00185789      -0.00241223
H       -0.24378280      -4.03457595      -6.73750001       0.00000000       0.00000000       0.00777153       0.01333101       0.01593418       0.05770826
H        1.22901653      -4.05169501      -5.77663349       0.00000000       0.00000000      -0.02288443       0.00758502       0.00102321       0.03333278
H        0.75145450      -2.58881142      -6.62952685       0.00000000       0.00000000      -0.00832983      -0.01077495      -0.01992815       0.03502164
H       -1.42255970      -4.92013554      -4.60772207       0.00000000       0.00000000       0.00752170       0.01432865      -0.03465747       0.05423108
H       -1.37265296      -3.93741377      -3.14471129       0.00000000       0.00000000      -0.01419378      -0.00979304      -0.01030445       0.02514780
H        0.08234688      -4.77847661      -3.70684925       0.00000000       0.00000000      -0.02661986      -0.00056481      -0.04392864       0.01525496
