232
Properties=species:S:1:pos:R:3:initial_charges:R:1:initial_magmoms:R:1:forces:R:3:charge:R:1 energy=-7674.732567659235 free_energy=-7674.732567659235 dipole="-0.8407925669358783 -0.13738851584873119 0.35845921479929177" pbc="F F F"
Eu      -0.22206204       0.11782218      -0.63358827       3.00000000       0.00000000       0.05023094      -0.03148539       0.06387282       0.84047704
C       -3.49863012      -6.21146714       0.39473393       0.00000000       0.00000000      -0.04046605       0.00887035      -0.04103953      -0.10827252
C       -3.51663839      -5.82164901       1.87262694       0.00000000       0.00000000      -0.05218681      -0.05904944      -0.11523559      -0.06635385
C       -3.45655819      -4.30740990       2.11087050       0.00000000       0.00000000      -0.00683008      -0.03274100      -0.04230326      -0.06374852
C       -4.79590071      -3.62464770       1.80054949       0.00000000       0.00000000       0.07904063      -0.03908741       0.00932364      -0.07311787
C       -4.73335474      -2.23968104       1.14850896       0.00000000       0.00000000       0.03716538      -0.01781246      -0.00410264      -0.01287205
N       -4.13592565      -1.09364456       1.85216786       0.00000000       0.00000000      -0.10544856      -0.05137014      -0.00668127      -0.05339548
C       -4.88273559      -0.58803265       2.99965473       0.00000000       0.00000000      -0.01187470       0.02281559       0.02864025      -0.01960095
C       -4.72552611      -1.34349402       4.32724333       0.00000000       0.00000000      -0.04825836      -0.02824797      -0.05978564      -0.07640203
C       -3.40823216      -1.12929597       5.07348136       0.00000000       0.00000000      -0.06541612       0.00642617      -0.02428541      -0.07085298
C       -2.29796621      -2.07353258       4.62864878       0.00000000       0.00000000       0.02134318       0.00456689      -0.01482502      -0.05286476
C       -1.03622781      -1.91312656       5.46405112       0.00000000       0.00000000       0.02634065      -0.01104987       0.03116079      -0.10905440
C       -3.24089714      -0.36404883       1.19221193       0.00000000       0.00000000       0.08349443      -0.01145787      -0.17236601       0.24859260
O       -2.67013771      -0.73739036       0.14438725       0.00000000       0.00000000      -0.03553393       0.07042724       0.15834916      -0.41320373
C       -2.84922842       1.05290439       1.65811815       0.00000000       0.00000000      -0.02136998       0.05300762      -0.14521306       0.04647567
O       -2.03848281       1.63697689       0.63723940       0.00000000       0.00000000       0.01453746      -0.06852582       0.03856386      -0.23422156
C       -2.76560011       2.32665785      -0.39091478       0.00000000       0.00000000       0.06209251       0.04702467       0.01445271       0.05218461
C       -1.91789034       2.36611384      -1.66744972       0.00000000       0.00000000       0.06778535       0.00540268      -0.02189148       0.26333129
O       -1.52216960       1.24501263      -2.06973801       0.00000000       0.00000000       0.00700899       0.03482798       0.06303673      -0.38544968
N       -1.72540876       3.47800827      -2.36507886       0.00000000       0.00000000      -0.02309987       0.03432287       0.01245714      -0.03401906
C       -1.23866585       3.31985756      -3.74574857       0.00000000       0.00000000       0.04391105      -0.02400583       0.06862957      -0.02321226
C        0.06316671       4.03568663      -4.09632501       0.00000000       0.00000000      -0.01050933       0.01086490       0.06080846      -0.07362860
C        1.21588582       3.65970340      -3.16985642       0.00000000       0.00000000       0.02557408       0.01857234       0.03247086      -0.06240730
C        2.50416047       4.37964198      -3.56928390       0.00000000       0.00000000      -0.01144482      -0.03483576      -0.03893003      -0.06227432
C        3.67636091       3.99208272      -2.67894805       0.00000000       0.00000000      -0.00097457       0.00494230      -0.01350235      -0.10381290
C       -1.73029204       4.83382765      -1.81281684       0.00000000       0.00000000       0.07699949      -0.11063200      -0.04878159      -0.02652214
C       -2.97744155       5.71887158      -1.91591595       0.00000000       0.00000000      -0.02503339      -0.08232772       0.00460340      -0.07152804
C       -3.65673785       5.78487852      -3.27947503       0.00000000       0.00000000      -0.07179016      -0.08356123      -0.08385303      -0.07072839
C       -4.65690525       4.64521108      -3.46786807       0.00000000       0.00000000      -0.01503520      -0.04668656       0.00280941      -0.05509825
C       -5.40245091       4.74958929      -4.79129554       0.00000000       0.00000000       0.02360383      -0.01319427       0.01729817      -0.11331593
H       -3.75726370      -7.26335603       0.27996626       0.00000000       0.00000000       0.07231593       0.10738892       0.04054301       0.05897521
H       -2.50960575      -6.05922593      -0.04157709       0.00000000       0.00000000      -0.06361895      -0.00054375       0.03094313       0.01964810
H       -4.22388936      -5.63412436      -0.18102705       0.00000000       0.00000000       0.04595099      -0.06703345       0.05264555       0.02887177
H       -2.67609407      -6.31066560       2.36819027       0.00000000       0.00000000      -0.02172952       0.07034620       0.00624330       0.04725893
H       -4.42654901      -6.20572947       2.33378187       0.00000000       0.00000000      -0.01486112      -0.00059149       0.00669953       0.05287408
H       -2.65652832      -3.86929746       1.51137255       0.00000000       0.00000000      -0.05065036       0.03334561      -0.04020127       0.01684145
H       -3.19510728      -4.14455315       3.15252298       0.00000000       0.00000000      -0.01457798       0.01470486       0.05034462       0.04231202
H       -5.41743384      -3.60659855       2.69482913       0.00000000       0.00000000       0.01627414       0.02026440      -0.03034940       0.05850630
H       -5.33354023      -4.24584774       1.07807413       0.00000000       0.00000000      -0.00176011       0.06741312       0.00667808       0.06531568
H       -5.77139672      -1.96097303       0.92968190       0.00000000       0.00000000       0.06704321       0.03777212       0.02716681       0.06592201
H       -4.19110938      -2.31705951       0.20455693       0.00000000       0.00000000       0.02509201       0.02307982       0.06598315       0.07530924
H       -5.94236048      -0.60616586       2.72541661       0.00000000       0.00000000      -0.02076997      -0.07286927       0.00192456       0.07327170
H       -4.61359533       0.45119172       3.17397559       0.00000000       0.00000000       0.02087756       0.02816162       0.04877621       0.05362360
H       -4.88322352      -2.40943929       4.18787500       0.00000000       0.00000000       0.01625626      -0.00803647      -0.00987030       0.06740303
H       -5.54220924      -0.98992905       4.95629093       0.00000000       0.00000000      -0.00740262       0.06471366       0.04040425       0.06985605
H       -3.59561873      -1.30847830       6.13112845       0.00000000       0.00000000       0.02488010      -0.00023127       0.06587165       0.06331219
H       -3.08412355      -0.09461634       4.97464766       0.00000000       0.00000000       0.01377103       0.06833200      -0.03867266       0.03277675
H       -2.07196116      -1.91110562       3.56903506       0.00000000       0.00000000       0.00018268      -0.00592873      -0.01660983       0.00542731
H       -2.65605926      -3.09580228       4.75517667       0.00000000       0.00000000       0.03679026      -0.01712028      -0.02092829       0.04458649
H       -0.63484695      -0.90591288       5.38355240       0.00000000       0.00000000       0.03735074      -0.00581862      -0.04760285       0.02761835
H       -0.27451370      -2.62377890       5.15188792       0.00000000       0.00000000       0.03664998       0.01156502      -0.01900823       0.03029054
H       -1.25533704      -2.10318879       6.51026662       0.00000000       0.00000000      -0.01216229       0.01273663       0.02595664       0.05910391
H       -2.22923364       1.01435595       2.56115809       0.00000000       0.00000000      -0.04479864       0.00816012      -0.00050360       0.09193111
H       -3.72352067       1.68614352       1.83213616       0.00000000       0.00000000      -0.03404416       0.00587884       0.04929223       0.08250000
H       -3.06515643       3.31417766      -0.04179392       0.00000000       0.00000000      -0.05091205       0.14360901       0.03630505       0.08467944
H       -3.65684881       1.74988698      -0.66895680       0.00000000       0.00000000      -0.08360538      -0.01749041      -0.03039034       0.09181712
H       -2.02172851       3.67326387      -4.41703558       0.00000000       0.00000000      -0.09288237       0.00802337       0.00173635       0.08915417
H       -1.09466755       2.24695928      -3.89145492       0.00000000       0.00000000      -0.02813183       0.02759843      -0.06528629       0.08847360
H       -0.06689977       5.11981245      -4.12141302       0.00000000       0.00000000      -0.00208993      -0.02045453       0.03860663       0.05760449
H        0.30916703       3.73732828      -5.11524960       0.00000000       0.00000000       0.03742874      -0.01947150      -0.04292328       0.06940167
H        1.36685418       2.57608466      -3.21043391       0.00000000       0.00000000      -0.00764683       0.01766737       0.02399778       0.04672776
H        0.96651209       3.91644217      -2.13489387       0.00000000       0.00000000       0.01318037      -0.04008288      -0.00159176       0.02799301
H        2.35490780       5.45927436      -3.51169906       0.00000000       0.00000000      -0.01633299      -0.00933512      -0.01570001       0.04611956
H        2.74479908       4.13688069      -4.60642425       0.00000000       0.00000000      -0.01086309      -0.00676288       0.03729229       0.04796575
H        3.51453484       4.33230780      -1.65712805       0.00000000       0.00000000       0.01282576      -0.00056048      -0.00646340       0.02382828
H        4.59093839       4.44117548      -3.05544515       0.00000000       0.00000000      -0.00429667       0.04009568       0.05911149       0.05675185
H        3.80455481       2.91252145      -2.67276047       0.00000000       0.00000000      -0.00735615      -0.07397354       0.00970882       0.02260376
H       -0.91636521       5.34713335      -2.32392433       0.00000000       0.00000000      -0.04471104       0.04567078       0.01786944       0.09377454
H       -1.46173719       4.76238109      -0.76011720       0.00000000       0.00000000      -0.01596311      -0.02540730       0.05419910       0.05869462
H       -2.63980719       6.71899243      -1.64844916       0.00000000       0.00000000       0.04206764       0.06486911       0.06670361       0.06538308
H       -3.71138055       5.41958450      -1.16986217       0.00000000       0.00000000      -0.12096278      -0.06027697       0.02764640       0.04499634
H       -2.91340864       5.78857729      -4.07909324       0.00000000       0.00000000      -0.03154130      -0.01786240       0.02937166       0.04544440
H       -4.20518190       6.72507501      -3.35180032       0.00000000       0.00000000       0.01275109      -0.00480221       0.01774732       0.06325498
H       -5.38520214       4.69019158      -2.65359341       0.00000000       0.00000000       0.00649351      -0.02365510      -0.01030011       0.03292941
H       -4.14861921       3.67665240      -3.40220060       0.00000000       0.00000000      -0.03171497       0.03137160      -0.01314437       0.00880138
H       -5.94135197       5.68990691      -4.84777949       0.00000000       0.00000000      -0.01187410       0.03015401      -0.00295440       0.05483760
H       -6.12172808       3.94110164      -4.87968814       0.00000000       0.00000000      -0.01680472      -0.02199370      -0.05373474       0.04485192
H       -4.71612149       4.70142036      -5.63202945       0.00000000       0.00000000       0.01633386      -0.01887007      -0.02535120       0.04087853
C       -4.82341112       4.92850860       1.93714661       0.00000000       0.00000000      -0.08706311      -0.00689954       0.07967047      -0.10652774
C       -3.55700189       5.75517405       2.09607959       0.00000000       0.00000000       0.05981145       0.03782238      -0.01266278      -0.06529005
C       -2.31256777       4.89305121       2.32189140       0.00000000       0.00000000      -0.02256723      -0.05693622       0.09250552      -0.06664177
C       -1.02689846       5.72694746       2.29642705       0.00000000       0.00000000      -0.01581172      -0.08186544      -0.12102626      -0.07514211
C        0.16800012       5.08057896       1.58247718       0.00000000       0.00000000       0.02510987       0.00662900       0.00022017      -0.01211437
N        0.86289214       3.94693351       2.20678531       0.00000000       0.00000000      -0.00649650      -0.10936916       0.03040597      -0.05551551
C        1.74832030       4.28960816       3.32374782       0.00000000       0.00000000       0.01358134       0.01193196      -0.01742900      -0.02138423
C        1.13534051       4.57121652       4.70481526       0.00000000       0.00000000      -0.00419161      -0.00276593      -0.02675934      -0.07503643
C        0.57433716       3.38015238       5.47875813       0.00000000       0.00000000       0.04575708      -0.00976563       0.00598150      -0.06888550
C       -0.87283776       3.04666262       5.13664881       0.00000000       0.00000000       0.01592730       0.00819232       0.00176876      -0.05254238
C       -1.43578880       2.02977524       6.11742798       0.00000000       0.00000000       0.04101314      -0.04939554       0.04511576      -0.11083344
C        0.95020700       2.80883909       1.51216273       0.00000000       0.00000000      -0.04221794       0.01383452      -0.00708230       0.24852307
O        0.28536741       2.55738905       0.48780482       0.00000000       0.00000000       0.05827764       0.07867395      -0.03011260      -0.39888875
C        1.91363264       1.68525748       1.95038863       0.00000000       0.00000000       0.04987436       0.00421255       0.02714683       0.04523458
O        1.94389863       0.69106809       0.92080476       0.00000000       0.00000000      -0.02341050       0.00839524       0.02206971      -0.24000713
C        3.09764318       0.77752858       0.07060931       0.00000000       0.00000000      -0.07641095      -0.00354576      -0.04531161       0.05339510
C        2.72540179       0.36050268      -1.36453802       0.00000000       0.00000000       0.04482976       0.08683070       0.04138508       0.27052805
O        1.57249725       0.65912048      -1.75252099       0.00000000       0.00000000      -0.05153603      -0.02439706       0.01383181      -0.37448340
N        3.63174237      -0.16480789      -2.17131832       0.00000000       0.00000000      -0.01648119      -0.03633835       0.06893151      -0.03169999
C        3.25784822      -0.46520778      -3.55587496       0.00000000       0.00000000       0.03406899      -0.07615256      -0.01380183      -0.01907026
C        3.24797756      -1.96110681      -3.88076870       0.00000000       0.00000000       0.00288644       0.04458533      -0.03730397      -0.07193424
C        2.15451193      -2.73272120      -3.14610950       0.00000000       0.00000000       0.05702431      -0.01763599      -0.02884499      -0.06907551
C        2.18574103      -4.20597907      -3.55660313       0.00000000       0.00000000      -0.00450527      -0.04239402       0.00647981      -0.06168025
C        1.17218135      -5.07148205      -2.81710933       0.00000000       0.00000000      -0.00804112       0.00493325       0.00244050      -0.10284642
C        4.95530407      -0.61607692      -1.75715295       0.00000000       0.00000000      -0.01943564      -0.04653405      -0.00562770      -0.03066049
C        5.97440712       0.46116037      -1.34221304       0.00000000       0.00000000      -0.06756360      -0.03612036       0.02015674      -0.07338577
C        7.04315388       0.73573041      -2.40451851       0.00000000       0.00000000      -0.00476082       0.04679893      -0.01812321      -0.07112749
C        6.58885386       1.69045345      -3.50340353       0.00000000       0.00000000      -0.06437696       0.01291818      -0.02161912      -0.05534724
C        7.65125344       1.85488701      -4.58047761       0.00000000       0.00000000       0.00686577      -0.03255194       0.00223520      -0.11372926
H       -4.84934074       4.43482001       0.97053919       0.00000000       0.00000000      -0.01266638      -0.10898702      -0.10811076       0.01688472
H       -4.89892939       4.17434492       2.71597071       0.00000000       0.00000000      -0.01748872      -0.01237849       0.07286714       0.03155029
H       -5.69692925       5.56943791       2.00478451       0.00000000       0.00000000      -0.01651372      -0.00231293      -0.01195367       0.06093343
H       -3.67520563       6.43304358       2.93731441       0.00000000       0.00000000       0.01254033       0.03478674       0.12477179       0.05388627
H       -3.43329737       6.37287919       1.20720814       0.00000000       0.00000000       0.07338075       0.03659407      -0.07935880       0.03817906
H       -2.26074115       4.11526931       1.56264165       0.00000000       0.00000000       0.08572873       0.00590481      -0.08298001       0.02211637
H       -2.42158455       4.38466465       3.28130757       0.00000000       0.00000000       0.03161729       0.02600048      -0.03475147       0.04108364
H       -0.76442523       6.03259561       3.30225819       0.00000000       0.00000000       0.04244269       0.04142407       0.05563602       0.06337958
H       -1.23726973       6.64457418       1.74237730       0.00000000       0.00000000       0.08644911      -0.00533268      -0.04325666       0.06518865
H        0.92406547       5.85542247       1.42283254       0.00000000       0.00000000       0.00527458       0.05278036       0.04388314       0.06595821
H       -0.15626884       4.72816388       0.60309367       0.00000000       0.00000000       0.00490572      -0.03964731      -0.00879556       0.07014089
H        2.27919945       5.20188462       3.03131546       0.00000000       0.00000000       0.01073518      -0.01555421      -0.04109883       0.07481668
H        2.48645412       3.50240665       3.45752507       0.00000000       0.00000000       0.01599164      -0.03020041      -0.01194343       0.05407872
H        0.36854929       5.33828847       4.65067519       0.00000000       0.00000000      -0.00865473       0.03716192      -0.04266272       0.06590811
H        1.95100098       4.99864506       5.28924060       0.00000000       0.00000000       0.07154120      -0.02316516      -0.01365921       0.07042040
H        0.60276336       3.63815264       6.53805421       0.00000000       0.00000000       0.03264067      -0.00686191       0.01556406       0.06444167
H        1.20393695       2.49771114       5.34726160       0.00000000       0.00000000       0.04624305       0.00691136      -0.03687454       0.02753152
H       -0.94234242       2.67388598       4.10928108       0.00000000       0.00000000      -0.01189315      -0.01049129      -0.01522696       0.00473869
H       -1.46413807       3.96004499       5.21510455       0.00000000       0.00000000      -0.01587467       0.00459698      -0.03792199       0.04352127
H       -0.87512969       1.09788521       6.08014277       0.00000000       0.00000000      -0.02533287       0.01691121       0.00108347       0.03213944
H       -2.48136602       1.82401321       5.91351509       0.00000000       0.00000000      -0.07126414      -0.01411459      -0.02350433       0.03580523
H       -1.36694286       2.41508979       7.13004405       0.00000000       0.00000000      -0.00743093       0.01057143       0.02570222       0.05799159
H        1.53616418       1.20877566       2.86273463       0.00000000       0.00000000       0.00461111      -0.04248580      -0.02638975       0.08780354
H        2.92830560       2.05610803       2.13706497       0.00000000       0.00000000      -0.11009844      -0.02712403      -0.00299160       0.07755999
H        3.89436445       0.17046006       0.51057188       0.00000000       0.00000000       0.04379403      -0.00437760      -0.08544141       0.08216230
H        3.42079871       1.82300979      -0.00972305       0.00000000       0.00000000       0.05304419      -0.00139764       0.02168140       0.08646848
H        3.97552880       0.04087664      -4.20689444       0.00000000       0.00000000      -0.01529766       0.01420575       0.00125936       0.08093884
H        2.26013380      -0.05936318      -3.73046861       0.00000000       0.00000000       0.04024580       0.05486084       0.02217548       0.09111090
H        4.22138547      -2.40980736      -3.66871676       0.00000000       0.00000000      -0.05889253       0.00393475      -0.00587082       0.05076764
H        3.09241503      -2.06241646      -4.95627155       0.00000000       0.00000000      -0.03114336       0.06357555       0.00157558       0.06855497
H        1.18512390      -2.29275495      -3.38561125       0.00000000       0.00000000      -0.00439010      -0.01125906       0.01563164       0.05305146
H        2.29833066      -2.63507912      -2.06783778       0.00000000       0.00000000      -0.01448834      -0.00618541      -0.01273822       0.04317988
H        3.18375555      -4.60867433      -3.37148328       0.00000000       0.00000000      -0.00233057      -0.00204472      -0.01571125       0.04349381
H        1.99888839      -4.28352794      -4.62924438       0.00000000       0.00000000       0.00391329       0.00175414       0.02799624       0.04851876
H        1.31812270      -5.00096316      -1.73764815       0.00000000       0.00000000      -0.00220464       0.00489467      -0.05062743       0.01725297
H        1.29629828      -6.11225574      -3.10436913       0.00000000       0.00000000      -0.00483640       0.00710974       0.01042189       0.05858776
H        0.15217476      -4.77807835      -3.06476757       0.00000000       0.00000000       0.04857436       0.00258950       0.00144322       0.02431328
H        5.37382836      -1.16346892      -2.60038915       0.00000000       0.00000000       0.03136455       0.03549029       0.00492789       0.10266536
H        4.82019984      -1.34061678      -0.95030587       0.00000000       0.00000000       0.03667236       0.05744599       0.02344072       0.05892993
H        6.48209172       0.10589801      -0.44480237       0.00000000       0.00000000      -0.00760766       0.04318131       0.03639803       0.05311477
H        5.46706324       1.39369992      -1.09602532       0.00000000       0.00000000       0.02310356       0.01857950      -0.01796816       0.03788451
H        7.36576231      -0.20275340      -2.85407768       0.00000000       0.00000000       0.02803409      -0.06785874       0.00950988       0.04933242
H        7.91202613       1.16856816      -1.91107602       0.00000000       0.00000000       0.04817598       0.03818738       0.00946015       0.05929997
H        6.37168026       2.66652057      -3.06580776       0.00000000       0.00000000      -0.00739569      -0.01133670       0.01759423       0.03423052
H        5.66967430       1.31909440      -3.96280996       0.00000000       0.00000000      -0.01627560       0.00555900      -0.00497328       0.01987782
H        8.57262160       2.23399012      -4.15280692       0.00000000       0.00000000       0.05933469       0.03796328       0.03611074       0.05056987
H        7.31477480       2.55190276      -5.33975129       0.00000000       0.00000000      -0.01388138       0.05390527      -0.05406700       0.04859847
H        7.86810638       0.90600235      -5.06170582       0.00000000       0.00000000      -0.00319839      -0.05618196      -0.01311361       0.04367640
C       -6.57795580       0.01880418      -1.19061699       0.00000000       0.00000000       0.01180166       0.00938514      -0.05525592      -0.10883576
C       -5.56757775      -0.77514276      -2.01453619       0.00000000       0.00000000       0.04536519       0.04237328       0.01374853      -0.05754791
C       -6.00919596      -2.22706555      -2.17967198       0.00000000       0.00000000       0.02388613       0.02013010      -0.01076817      -0.07204730
C       -5.09648848      -3.08546712      -3.05828762       0.00000000       0.00000000       0.01565754      -0.00890907       0.01389517      -0.07597870
C       -3.67463616      -3.33900763      -2.52740996       0.00000000       0.00000000       0.02995708       0.02803415      -0.04756573      -0.02125551
N       -2.67041343      -2.28772133      -2.71635615       0.00000000       0.00000000      -0.00344930       0.03779788       0.08298262      -0.02986384
C       -2.77103281      -1.47004749      -3.92297847       0.00000000       0.00000000      -0.03600588       0.01674616      -0.06159200      -0.02477671
C       -2.57555805      -2.30212886      -5.19405903       0.00000000       0.00000000       0.03361012      -0.00108634      -0.05216508      -0.07499788
C       -1.17359251      -2.91232402      -5.30494930       0.00000000       0.00000000       0.01274619       0.00751507      -0.03636823      -0.06412322
C       -0.23929182      -2.13863432      -6.23461784       0.00000000       0.00000000       0.01400958       0.06631492      -0.00441809      -0.06064677
C       -0.00447480      -0.69123770      -5.80697513       0.00000000       0.00000000       0.01227995      -0.00972549      -0.01124534      -0.10930779
C       -1.57767969      -2.15471220      -1.97824302       0.00000000       0.00000000      -0.02354201      -0.08857767      -0.02098803       0.26443416
O       -0.69232185      -1.30413850      -2.23158035       0.00000000       0.00000000       0.03519123       0.06928654       0.01157331      -0.37417741
C       -1.23768042      -3.08736280      -0.81184520       0.00000000       0.00000000      -0.00145785      -0.03174878      -0.01017568       0.04716270
O       -0.73630484      -2.28983460       0.27155762       0.00000000       0.00000000       0.04460655      -0.00798769       0.01863372      -0.23252765
C        0.10916498      -2.99577772       1.17590531       0.00000000       0.00000000      -0.06216295      -0.04945560       0.01222229       0.04612531
C        1.57329288      -2.70389561       0.80422972       0.00000000       0.00000000       0.04596707      -0.06409981       0.03651738       0.24768911
O        1.74971971      -1.83185204      -0.06634562       0.00000000       0.00000000      -0.00740588       0.03271271       0.04926031      -0.40966182
N        2.53719103      -3.40822703       1.39046266       0.00000000       0.00000000       0.00023794       0.03355628      -0.07034365      -0.06511726
C        2.37573413      -4.16236794       2.63221431       0.00000000       0.00000000      -0.03398775       0.06606136      -0.01150572      -0.01997090
C        2.66893079      -5.65979330       2.51738833       0.00000000       0.00000000      -0.08365127      -0.03903204      -0.05460925      -0.07694685
C        1.50271199      -6.47297642       1.94225728       0.00000000       0.00000000      -0.04534777      -0.03421950      -0.01000870      -0.06118934
C        0.54813581      -7.03327465       3.00194964       0.00000000       0.00000000      -0.00823734       0.01864762      -0.00015165      -0.06507869
C       -0.10847824      -5.99865575       3.91008151       0.00000000       0.00000000      -0.00069009       0.03339743       0.01384846      -0.10711870
C        3.91067524      -3.37081294       0.88500888       0.00000000       0.00000000      -0.03290680       0.02075784      -0.02651529      -0.00759593
C        4.09969481      -4.33283899      -0.30525599       0.00000000       0.00000000       0.03245452       0.03225664      -0.01063951      -0.06882751
C        5.42787047      -5.09773639      -0.28861488       0.00000000       0.00000000       0.02577548       0.01263337      -0.00102004      -0.06816109
C        6.62953435      -4.26920356      -0.75167462       0.00000000       0.00000000       0.02442902       0.06368250      -0.06288518      -0.06053761
C        6.69824774      -4.15238856      -2.27301297       0.00000000       0.00000000      -0.04855728      -0.01330589      -0.04844327      -0.10906424
H       -6.29237580       1.06657694      -1.12803179       0.00000000       0.00000000       0.00676948       0.01251738      -0.00342929       0.02944921
H       -7.55701963      -0.03491505      -1.65828452       0.00000000       0.00000000      -0.01035182       0.02695065       0.00224175       0.06037629
H       -6.67246052      -0.37195074      -0.18010193       0.00000000       0.00000000       0.01351552      -0.00136330      -0.01280544       0.02678042
H       -5.49648538      -0.31248093      -3.00235255       0.00000000       0.00000000      -0.02505300       0.01628177       0.04758516       0.03706993
H       -4.57662358      -0.73165492      -1.54859656       0.00000000       0.00000000      -0.03389306       0.03659387      -0.01633442       0.02140074
H       -6.11505089      -2.69609746      -1.20123785       0.00000000       0.00000000       0.01650422      -0.01755828       0.01440317       0.03756398
H       -7.00072651      -2.22653193      -2.63530412       0.00000000       0.00000000       0.01103146      -0.03429059      -0.02857614       0.06389713
H       -5.55867537      -4.07282903      -3.11864883       0.00000000       0.00000000       0.00389984      -0.02271879      -0.01702636       0.07046890
H       -5.08973963      -2.68880849      -4.06945115       0.00000000       0.00000000       0.04172542       0.03617135      -0.01490100       0.06873413
H       -3.76701846      -3.54911792      -1.46376536       0.00000000       0.00000000       0.03078286      -0.03428232       0.03992609       0.06496049
H       -3.28876898      -4.23466538      -3.02142192       0.00000000       0.00000000      -0.02640237      -0.10802785      -0.00687102       0.07318063
H       -3.75290335      -1.00055821      -3.92872460       0.00000000       0.00000000       0.01454607       0.01733932      -0.05021081       0.07940392
H       -2.00994287      -0.69036881      -3.85648750       0.00000000       0.00000000      -0.03590856      -0.03240199       0.01738966       0.09968446
H       -3.32069773      -3.09627036      -5.22704952       0.00000000       0.00000000       0.00956529       0.01617853      -0.02531138       0.05509787
H       -2.75795735      -1.65206933      -6.05120958       0.00000000       0.00000000      -0.01638656      -0.03171636       0.03125515       0.07093626
H       -0.72300817      -2.96671250      -4.31272424       0.00000000       0.00000000       0.00105387      -0.01053689       0.01090287       0.02724672
H       -1.25099449      -3.93222391      -5.68361686       0.00000000       0.00000000      -0.00433182      -0.00526378      -0.01169647       0.04688793
H        0.71675833      -2.66502287      -6.27194776       0.00000000       0.00000000      -0.01539033       0.02356451       0.00439337       0.03977616
H       -0.65334821      -2.14638697      -7.24380590       0.00000000       0.00000000       0.01744879      -0.01077410      -0.00158299       0.05089287
H        0.24690057      -0.62993256      -4.74666909       0.00000000       0.00000000      -0.01444582       0.00558798      -0.02715743       0.03306062
H        0.81406248      -0.26870477      -6.38672964       0.00000000       0.00000000      -0.04013827       0.01097596       0.04084627       0.04350496
H       -0.88900940      -0.08376566      -5.98826882       0.00000000       0.00000000       0.02798566      -0.01751597       0.01385641       0.03564362
H       -2.07499810      -3.68931260      -0.45805422       0.00000000       0.00000000      -0.08568861      -0.05527349       0.03219195       0.08174577
H       -0.44653936      -3.74660251      -1.19064900       0.00000000       0.00000000       0.03007819      -0.03312223      -0.00804533       0.09735334
H       -0.12526283      -2.62218588       2.17920952       0.00000000       0.00000000      -0.00171052       0.00348526       0.03021328       0.08166968
H       -0.09385417      -4.07040847       1.12684316       0.00000000       0.00000000       0.00621265       0.01273385       0.09586146       0.08459153
H        3.07781907      -3.72050580       3.34654112       0.00000000       0.00000000       0.02438711       0.00358234       0.02498805       0.06731201
H        1.37425029      -4.01356887       3.02136897       0.00000000       0.00000000      -0.05287609       0.01558571      -0.00116330       0.06250141
H        3.55952532      -5.81027319       1.91309729       0.00000000       0.00000000       0.02447262      -0.00107765      -0.03552633       0.06503324
H        2.90518644      -6.03210306       3.51249445       0.00000000       0.00000000      -0.04156983      -0.03424656       0.06317498       0.07285238
H        0.94357946      -5.86678008       1.22352702       0.00000000       0.00000000       0.01998516       0.01731661      -0.00897913       0.01113163
H        1.90029088      -7.32548562       1.38868184       0.00000000       0.00000000       0.02595559       0.01775567       0.02954024       0.05441511
H       -0.23355429      -7.59743185       2.48935733       0.00000000       0.00000000       0.02005551      -0.02039161      -0.00640028       0.04439701
H        1.09981766      -7.73489741       3.62565043       0.00000000       0.00000000       0.01334985      -0.04589000       0.01379730       0.05546646
H       -0.64304394      -5.24183746       3.33486480       0.00000000       0.00000000       0.01263866      -0.00502719       0.00463167       0.01367019
H       -0.82550374      -6.48978382       4.56263296       0.00000000       0.00000000      -0.00927993      -0.02834324      -0.01940376       0.05330604
H        0.62372255      -5.51281400       4.55057598       0.00000000       0.00000000       0.00340633       0.01245130      -0.02245413       0.03638021
H        4.14317089      -2.34633327       0.59287709       0.00000000       0.00000000      -0.06186595       0.05877970       0.00210270       0.04959014
H        4.57187649      -3.64092235       1.71075491       0.00000000       0.00000000      -0.01383296      -0.03216746      -0.08195704       0.07590668
H        3.28273703      -5.05688732      -0.29149749       0.00000000       0.00000000       0.03641802       0.01666905      -0.01424118       0.04744038
H        4.02928969      -3.77276911      -1.23716844       0.00000000       0.00000000      -0.05328678      -0.04018004       0.03129280       0.05496102
H        5.61230976      -5.47780956       0.71646519       0.00000000       0.00000000       0.02410071      -0.01669463       0.03639739       0.04006056
H        5.33711164      -5.95974729      -0.95141111       0.00000000       0.00000000      -0.00473123      -0.01008945       0.02633679       0.05868679
H        6.59080325      -3.27436105      -0.30158535       0.00000000       0.00000000      -0.02295269       0.00610498       0.01813426       0.02237726
H        7.54907220      -4.74450330      -0.40825437       0.00000000       0.00000000      -0.05318990       0.00912266       0.03771061       0.05419109
H        5.72045401      -3.92949060      -2.69658017       0.00000000       0.00000000      -0.00451898       0.04511641       0.00671729       0.02322796
H        7.38932421      -3.36966676      -2.57538893       0.00000000       0.00000000       0.02921824      -0.02474664       0.04493315       0.04042314
H        7.03912363      -5.08637120      -2.71409224       0.00000000       0.00000000      -0.02353808       0.01927013       0.05358529       0.05315996
