280
Properties=species:S:1:pos:R:3:initial_charges:R:1:initial_magmoms:R:1:forces:R:3:charge:R:1 energy=-9504.768203316078 free_energy=-9504.768203316078 dipole="0.02430580590174989 0.5431084866179278 1.687954046984303" pbc="F F F"
Eu      -0.21360294      -0.06756675       0.02426629       3.00000000       0.00000000       0.02267387      -0.04484277       0.02034182       0.78493727
C        2.51749692      -0.73672179       8.46324062       0.00000000       0.00000000      -0.01351942      -0.00317008      -0.00057688      -0.10842478
C        2.04799646      -1.56155978       7.27101879       0.00000000       0.00000000      -0.01437985       0.01373012      -0.00677873      -0.05621840
C        0.77993332      -1.00595366       6.61230592       0.00000000       0.00000000       0.00108196       0.00699181       0.00531812      -0.06078040
C       -0.52597767      -1.40842983       7.29575486       0.00000000       0.00000000       0.04299736      -0.00061055       0.03577692      -0.06653383
C       -1.74636078      -1.12931829       6.41640751       0.00000000       0.00000000      -0.00060805       0.00781230       0.01604533      -0.06630018
C       -1.84387250       0.32785472       5.97847766       0.00000000       0.00000000      -0.01064583       0.04928134      -0.02264472      -0.06224856
C       -3.15979740       0.66734812       5.27485902       0.00000000       0.00000000      -0.02735185       0.04158998       0.04713229      -0.07572319
C       -3.24525274       0.15397830       3.82466706       0.00000000       0.00000000      -0.02180575       0.01693741       0.05284050      -0.01194518
N       -3.59328018       1.22447564       2.88999134       0.00000000       0.00000000      -0.03828281       0.07471665       0.01139812      -0.04597316
C       -4.82004272       1.94252961       3.24023729       0.00000000       0.00000000      -0.05361127       0.00566229      -0.01115199      -0.02233750
C       -5.90827881       1.89474136       2.16024940       0.00000000       0.00000000       0.02885116      -0.00205623       0.03481684      -0.07274621
C       -6.41922785       0.46888890       1.94765930       0.00000000       0.00000000       0.07259305       0.02905939       0.01246482      -0.06025060
C       -7.41639263       0.35891106       0.79102982       0.00000000       0.00000000       0.04728572       0.01555480       0.08162032      -0.06555666
C       -6.87731153       0.84808022      -0.55726876       0.00000000       0.00000000      -0.04227783       0.00991416       0.06065078      -0.06632417
C       -5.48186867       0.31354414      -0.87406332       0.00000000       0.00000000      -0.01952165       0.01783429      -0.02265153      -0.05557280
C       -5.09727560       0.55190753      -2.33616966       0.00000000       0.00000000      -0.01819849       0.00668532      -0.00077142      -0.06198127
C       -3.58622056       0.65161789      -2.53689550       0.00000000       0.00000000      -0.01492032      -0.00454410      -0.00866930      -0.10616963
C       -2.80854183       1.36956662       1.81879698       0.00000000       0.00000000       0.05793577      -0.01958677      -0.03248586       0.25403802
O       -1.96898034       0.46407200       1.54609983       0.00000000       0.00000000      -0.02134495       0.02076150      -0.03295481      -0.40415131
C       -2.68280743       2.64472373       1.02598115       0.00000000       0.00000000      -0.04524805      -0.06176712       0.03752600       0.07389597
C       -3.37237445       3.85107482       1.27061353       0.00000000       0.00000000       0.00912500      -0.08022706      -0.02173078      -0.04487823
C       -2.95396010       5.01442171       0.67420868       0.00000000       0.00000000      -0.07105945      -0.03719111       0.01285883      -0.00251150
C       -1.82045981       5.00530716      -0.15303604       0.00000000       0.00000000       0.01646787      -0.01936565       0.01262387       0.02124193
C       -1.28339103       6.16302322      -0.75705828       0.00000000       0.00000000      -0.12760040      -0.04402189       0.08825193      -0.02389021
C       -0.11028520       6.09699530      -1.45347335       0.00000000       0.00000000      -0.00177059       0.02095709       0.02494615      -0.01350363
C        0.59385129       4.88031900      -1.52998579       0.00000000       0.00000000      -0.01637243      -0.05615859       0.03280992      -0.01197182
C        0.07509380       3.73440927      -0.99087076       0.00000000       0.00000000       0.07819694       0.03524915      -0.03312751      -0.04714845
C       -1.16970794       3.75169373      -0.33418601       0.00000000       0.00000000      -0.00017800      -0.02553479       0.04454989       0.09323060
N       -1.63345560       2.59706134       0.20208709       0.00000000       0.00000000       0.01324256       0.05307097       0.05851721      -0.17856306
H        3.45611691      -1.13014692       8.84463991       0.00000000       0.00000000      -0.03090490      -0.01927518       0.03489268       0.05012562
H        1.78760430      -0.75524449       9.26649125       0.00000000       0.00000000      -0.01347907      -0.00996860      -0.00605384       0.05032755
H        2.68251967       0.29982009       8.17429020       0.00000000       0.00000000      -0.01923418       0.01404301       0.02874990       0.02774157
H        1.88281111      -2.59189464       7.58773332       0.00000000       0.00000000      -0.03300214       0.01858596       0.01028682       0.04111548
H        2.84881936      -1.57700797       6.52645416       0.00000000       0.00000000       0.00615732      -0.02088028       0.00097492       0.01776961
H        0.74179025      -1.34291206       5.57173053       0.00000000       0.00000000      -0.00639380      -0.00392112       0.01801276       0.00359678
H        0.84178392       0.08237874       6.60018917       0.00000000       0.00000000      -0.01392981      -0.00262954       0.02992811       0.03014412
H       -0.62788072      -0.87205067       8.23836502       0.00000000       0.00000000       0.00452091       0.02373984       0.01729868       0.05235439
H       -0.50382347      -2.47384972       7.52754355       0.00000000       0.00000000       0.00850733      -0.01821885      -0.00114920       0.04304084
H       -2.64390495      -1.38564220       6.97858354       0.00000000       0.00000000      -0.03972967      -0.02845055       0.04027809       0.04764515
H       -1.70912477      -1.77081979       5.53573560       0.00000000       0.00000000      -0.00494893       0.01831838      -0.03124283       0.01908528
H       -1.01739869       0.57654300       5.31074122       0.00000000       0.00000000       0.04680118       0.02738626      -0.00696420       0.02069254
H       -1.76102252       0.95787907       6.86564389       0.00000000       0.00000000      -0.00433362       0.01380726      -0.00633525       0.05522268
H       -3.25622256       1.75251407       5.27989504       0.00000000       0.00000000       0.01152734       0.02895372      -0.03506582       0.05204768
H       -3.98228039       0.26013846       5.86239988       0.00000000       0.00000000      -0.01772405       0.02473774       0.03048460       0.06193686
H       -3.98802067      -0.64147017       3.74075113       0.00000000       0.00000000       0.00401394      -0.05750911      -0.00295488       0.06401690
H       -2.27547947      -0.23726787       3.51311104       0.00000000       0.00000000      -0.00511608      -0.07166082       0.01896357       0.07405453
H       -4.60176198       2.97192877       3.54315067       0.00000000       0.00000000       0.03796242      -0.06578903      -0.05528765       0.06214582
H       -5.22273626       1.44217390       4.12054181       0.00000000       0.00000000      -0.00303363      -0.01451945       0.01018316       0.08926697
H       -5.53511443       2.30013567       1.22005264       0.00000000       0.00000000      -0.03132581      -0.05523030       0.03408219       0.05169304
H       -6.73990770       2.51964690       2.49259812       0.00000000       0.00000000       0.05825075       0.01649420      -0.01765393       0.06831110
H       -6.90881348       0.12178853       2.86245665       0.00000000       0.00000000       0.03573561       0.02955504      -0.06235282       0.04326854
H       -5.56408534      -0.18466414       1.75941749       0.00000000       0.00000000      -0.01167699      -0.04759788      -0.02820926       0.02149513
H       -8.30852406       0.93442878       1.04466318       0.00000000       0.00000000       0.00017560      -0.05997788      -0.05302757       0.05208931
H       -7.70890516      -0.69058153       0.70060543       0.00000000       0.00000000      -0.01941597       0.06646895       0.00051579       0.04203839
H       -6.86284785       1.93812888      -0.58198650       0.00000000       0.00000000      -0.00393931       0.02781118      -0.00227840       0.03648592
H       -7.57192693       0.52309871      -1.33335164       0.00000000       0.00000000       0.02828669      -0.01261350      -0.01187525       0.04961336
H       -5.46450507      -0.75104370      -0.64123436       0.00000000       0.00000000       0.05243856      -0.00181607      -0.02030165       0.02386936
H       -4.73667894       0.79703061      -0.23533900       0.00000000       0.00000000       0.00668656       0.01747956      -0.00665940       0.01273625
H       -5.55706485       1.48485182      -2.67149539       0.00000000       0.00000000       0.00798994      -0.04906210      -0.01083689       0.04660944
H       -5.50412970      -0.24734679      -2.96001492       0.00000000       0.00000000      -0.00100885       0.05184055       0.03061263       0.04086719
H       -3.18694239       1.51616714      -2.00542874       0.00000000       0.00000000       0.02663080      -0.00175027       0.01453785       0.02399949
H       -3.36140988       0.76152705      -3.59337593       0.00000000       0.00000000       0.01304468       0.03111957      -0.03194355       0.04391012
H       -3.06178222      -0.22373160      -2.16443978       0.00000000       0.00000000      -0.00527483      -0.06235080      -0.00621037       0.05863239
H       -4.22406497       3.89370859       1.92125257       0.00000000       0.00000000       0.03736969      -0.00743073      -0.04148617       0.07879133
H       -3.46868349       5.94359346       0.86586773       0.00000000       0.00000000      -0.04618502      -0.00879362      -0.02677900       0.08304767
H       -1.82350754       7.09068700      -0.63914375       0.00000000       0.00000000       0.06925903       0.01503052      -0.03475017       0.07677009
H        0.29561104       6.98572058      -1.91336381       0.00000000       0.00000000       0.01416444      -0.06320203       0.00987391       0.07720129
H        1.55959728       4.87065275      -2.01148192       0.00000000       0.00000000       0.02965121      -0.04168150       0.00249165       0.04979243
H        0.61201594       2.79182021      -0.96911858       0.00000000       0.00000000       0.00606842       0.00909340      -0.11633512       0.10114090
C       -2.70500862       0.54043635      -6.81454499       0.00000000       0.00000000      -0.02479344      -0.03725452      -0.02769137      -0.11069349
C       -2.01380151      -0.63374925      -6.12804280       0.00000000       0.00000000      -0.01078439       0.04504890      -0.01779761      -0.05107180
C       -2.42024108      -1.98771971      -6.70321551       0.00000000       0.00000000       0.05448902       0.05081033       0.00221417      -0.05913628
C       -3.91361130      -2.28679494      -6.62616260       0.00000000       0.00000000       0.05168959       0.02987523      -0.05943923      -0.06558379
C       -4.50301266      -2.26714161      -5.21963982       0.00000000       0.00000000      -0.02245233       0.03518245      -0.01440236      -0.06324847
C       -3.82158915      -3.25759219      -4.27925255       0.00000000       0.00000000      -0.02224204      -0.01646882       0.01196207      -0.06543446
C       -4.73692887      -3.66237009      -3.12095032       0.00000000       0.00000000       0.01497712      -0.00566195       0.06188880      -0.07556808
C       -4.45919489      -2.98205627      -1.78132879       0.00000000       0.00000000       0.01741558       0.04039786       0.00980420      -0.00887012
N       -3.44921431      -3.52369968      -0.85803128       0.00000000       0.00000000       0.01863212      -0.02030244      -0.04206617      -0.06394709
C       -3.79078023      -4.81748758      -0.24632722       0.00000000       0.00000000       0.04489490      -0.01607919       0.00850540      -0.01200543
C       -3.83323954      -6.11758840      -1.08068068       0.00000000       0.00000000      -0.06331627       0.02315611       0.01210481      -0.06963609
C       -2.51293771      -6.70616915      -1.57467207       0.00000000       0.00000000      -0.02871644       0.02325698       0.03958231      -0.07188744
C       -1.76974189      -5.91190103      -2.65850394       0.00000000       0.00000000       0.01215890       0.01452805       0.09139663      -0.06447329
C       -1.97181311      -6.48039982      -4.06569007       0.00000000       0.00000000       0.04953365       0.04006580       0.06312966      -0.06344092
C       -1.02062252      -5.83317136      -5.07346643       0.00000000       0.00000000       0.02617267       0.01592330       0.01559504      -0.05943620
C       -1.13153306      -6.40177851      -6.49003654       0.00000000       0.00000000      -0.00657119       0.01744882      -0.00476136      -0.05787210
C       -2.28118843      -5.80370282      -7.28918517       0.00000000       0.00000000      -0.04230723      -0.00565252      -0.01065101      -0.10641268
C       -2.60545400      -2.64973261      -0.27688822       0.00000000       0.00000000      -0.05638064      -0.11117787       0.15322712       0.25310997
O       -2.20656179      -1.59027870      -0.80661971       0.00000000       0.00000000      -0.01414814       0.07785383      -0.04690171      -0.36707441
C       -2.16745191      -2.87512059       1.14599395       0.00000000       0.00000000       0.05139844       0.05561768      -0.01639411       0.07800919
C       -3.13981157      -3.25206378       2.09545500       0.00000000       0.00000000      -0.07382260       0.11319733      -0.03836292      -0.04440302
C       -2.75378009      -3.54569001       3.37125018       0.00000000       0.00000000      -0.03204404      -0.00762647       0.03643301      -0.01193239
C       -1.38297009      -3.48255000       3.69384220       0.00000000       0.00000000      -0.06182333      -0.06799766      -0.05647000       0.01489357
C       -0.85939305      -4.00062882       4.89641922       0.00000000       0.00000000      -0.14473572      -0.08822436      -0.03952861      -0.02252612
C        0.48484468      -3.98367674       5.13233340       0.00000000       0.00000000      -0.00202229       0.01485645       0.05785946      -0.01252909
C        1.34758981      -3.37324519       4.20854867       0.00000000       0.00000000      -0.08495021       0.00431761      -0.06235700      -0.01396084
C        0.86537266      -2.85181994       3.03414228       0.00000000       0.00000000       0.06533351      -0.06085380       0.12879685      -0.04780397
C       -0.50584654      -2.91723865       2.72234822       0.00000000       0.00000000       0.00488495      -0.09262439      -0.04674231       0.09014895
N       -0.92015972      -2.57401898       1.47032215       0.00000000       0.00000000      -0.02780121       0.02464528      -0.06869771      -0.17606756
H       -2.33778816       1.49633117      -6.44483873       0.00000000       0.00000000      -0.00094106      -0.03858942      -0.03151715       0.02462400
H       -3.77807702       0.51228528      -6.64617927       0.00000000       0.00000000       0.01450817      -0.00687092      -0.00141312       0.04406369
H       -2.52930409       0.49754916      -7.88548923       0.00000000       0.00000000      -0.00938000       0.01842313      -0.03459729       0.04744847
H       -2.22886212      -0.61612560      -5.05536596       0.00000000       0.00000000       0.06597997      -0.00265582      -0.05110499       0.02247750
H       -0.92934131      -0.54789861      -6.26707531       0.00000000       0.00000000      -0.06592663      -0.00466907       0.02933736       0.01404244
H       -1.85797299      -2.75784878      -6.16967697       0.00000000       0.00000000      -0.02759982      -0.03084595      -0.04812833       0.02792314
H       -2.11650433      -2.01758941      -7.75112329       0.00000000       0.00000000      -0.00993431      -0.05187368      -0.01546308       0.03962966
H       -4.08125281      -3.27377159      -7.05832102       0.00000000       0.00000000      -0.02860157      -0.02650405      -0.01537654       0.04440058
H       -4.45238331      -1.57009021      -7.24300060       0.00000000       0.00000000      -0.04850264       0.01857999      -0.04909215       0.04502694
H       -5.55414318      -2.54006607      -5.31479148       0.00000000       0.00000000      -0.06949140      -0.03171929      -0.01860970       0.03680892
H       -4.47534167      -1.26586539      -4.79518808       0.00000000       0.00000000       0.06426291       0.11854632      -0.02436009       0.02977012
H       -2.88783369      -2.84547730      -3.89195797       0.00000000       0.00000000      -0.00891270       0.00695424      -0.02865084       0.03077059
H       -3.58492437      -4.14447333      -4.86397969       0.00000000       0.00000000       0.06061502      -0.03004729       0.02008979       0.05757357
H       -4.72144308      -4.73886888      -3.01885860       0.00000000       0.00000000      -0.01577862      -0.01682258       0.01369328       0.06304907
H       -5.76323927      -3.39030825      -3.37731456       0.00000000       0.00000000       0.00981172      -0.03476390      -0.00447065       0.05702483
H       -5.39734827      -2.99200866      -1.20889742       0.00000000       0.00000000       0.01440745      -0.02233285      -0.02406273       0.04890374
H       -4.18314863      -1.94703599      -1.96710501       0.00000000       0.00000000       0.03913979      -0.01944634      -0.05720811       0.08551607
H       -4.79811157      -4.71210743       0.17994166       0.00000000       0.00000000       0.07692917      -0.04091719      -0.00752581       0.05583762
H       -3.08294302      -5.01445758       0.55974296       0.00000000       0.00000000      -0.00118388       0.05129793       0.01126462       0.05392126
H       -4.54177871      -6.05540846      -1.89963093       0.00000000       0.00000000      -0.00513764       0.03493644      -0.01705440       0.06358801
H       -4.25492841      -6.84513529      -0.38117315       0.00000000       0.00000000      -0.00668014      -0.01196060      -0.00171147       0.05919235
H       -2.73489463      -7.69934411      -1.96669927       0.00000000       0.00000000      -0.03352490      -0.01123999      -0.01286598       0.05863779
H       -1.86751325      -6.86351208      -0.71127655       0.00000000       0.00000000       0.02910757       0.02728579       0.01181215       0.03911607
H       -0.70129031      -5.96405928      -2.43954388       0.00000000       0.00000000       0.00658954       0.02102287      -0.01912705       0.02738677
H       -2.06399097      -4.86057217      -2.62258630       0.00000000       0.00000000       0.00133170      -0.03760478      -0.04534694       0.02783665
H       -3.01091802      -6.37029932      -4.37456998       0.00000000       0.00000000       0.00318258       0.02741094      -0.03253736       0.03575389
H       -1.74563009      -7.54668744      -4.03027649       0.00000000       0.00000000      -0.05331506      -0.04865505      -0.05279331       0.04187715
H       -0.00305130      -6.00374988      -4.71443189       0.00000000       0.00000000      -0.00980615       0.01223468      -0.02833399       0.02638125
H       -1.18143025      -4.75124705      -5.11345747       0.00000000       0.00000000      -0.01081788      -0.04060906       0.05510073       0.02251291
H       -1.23863547      -7.48546552      -6.43888014       0.00000000       0.00000000      -0.01782146      -0.01343948       0.01367286       0.04079088
H       -0.20260032      -6.18958491      -7.02098154       0.00000000       0.00000000       0.04254018      -0.02071891      -0.03012068       0.03374404
H       -3.23048425      -5.94401040      -6.77896956       0.00000000       0.00000000      -0.02639941      -0.02594608       0.00838337       0.03249728
H       -2.35068316      -6.27667029      -8.26447463       0.00000000       0.00000000       0.00297610      -0.03182066       0.00553831       0.04515360
H       -2.12100320      -4.73927083      -7.44585946       0.00000000       0.00000000      -0.01211610      -0.01925048       0.01121578       0.03426607
H       -4.17783336      -3.27255198       1.79969215       0.00000000       0.00000000       0.05241993      -0.08656068       0.09700954       0.06013452
H       -3.48008103      -3.87266079       4.10019202       0.00000000       0.00000000       0.06710659       0.03550747       0.07662939       0.07493494
H       -1.54390484      -4.44357497       5.60514438       0.00000000       0.00000000       0.03294487      -0.02986676      -0.03919044       0.07182253
H        0.88974827      -4.45369341       6.01442216       0.00000000       0.00000000       0.00507189       0.08550067       0.00623712       0.07564220
H        2.40195570      -3.35403497       4.43685865       0.00000000       0.00000000       0.04028767       0.00236221      -0.08927452       0.05563245
H        1.53130979      -2.48671769       2.27471039       0.00000000       0.00000000       0.02527440       0.06968547       0.00544450       0.06098856
C       -5.89305103       6.23643297      -1.76713617       0.00000000       0.00000000      -0.01233550       0.02151079       0.00863140      -0.10803574
C       -5.72117228       4.72291609      -1.78941927       0.00000000       0.00000000      -0.05012923       0.07223381      -0.00083600      -0.05235154
C       -4.38636815       4.25933640      -2.36839719       0.00000000       0.00000000      -0.02334552       0.01515398       0.03267155      -0.06101402
C       -4.19971002       4.57826290      -3.84946421       0.00000000       0.00000000       0.03453302      -0.02638463      -0.03449476      -0.06500262
C       -3.10997785       3.73518459      -4.51968543       0.00000000       0.00000000       0.03727349      -0.05200855      -0.07446998      -0.06625786
C       -1.77422945       3.79117174      -3.78199426       0.00000000       0.00000000       0.03630490       0.02472462      -0.01626097      -0.05983134
C       -0.58562289       3.18265908      -4.54294627       0.00000000       0.00000000       0.01386712       0.04874689      -0.06047731      -0.07134620
C       -0.31451644       1.67559977      -4.31581300       0.00000000       0.00000000       0.03545647       0.14140946      -0.05894164      -0.02413874
N        1.11607405       1.48083363      -4.09035823       0.00000000       0.00000000      -0.00981385       0.04656129       0.06965933      -0.05480526
C        1.97038072       1.77953667      -5.23039232       0.00000000       0.00000000      -0.06965084       0.07274511      -0.00272164      -0.02145644
C        2.97784118       0.65808056      -5.52794144       0.00000000       0.00000000      -0.07252533       0.15501755       0.05677600      -0.06957589
C        2.42264925      -0.41089593      -6.46850760       0.00000000       0.00000000      -0.04535865       0.11961910       0.08410623      -0.06265618
C        3.40996329      -1.56139490      -6.65427368       0.00000000       0.00000000      -0.02681931       0.01654106       0.02786026      -0.06680839
C        3.74225144      -2.30504275      -5.36292876       0.00000000       0.00000000       0.02632878      -0.04440543       0.02892846      -0.06333219
C        2.57278916      -3.09325067      -4.77802242       0.00000000       0.00000000       0.02248006       0.02581832      -0.01661304      -0.06344897
C        2.97562488      -3.72695431      -3.44625944       0.00000000       0.00000000      -0.00216094       0.05082239      -0.06553803      -0.05984158
C        1.95865693      -4.75765987      -2.97635713       0.00000000       0.00000000       0.01316252       0.00334425      -0.00975749      -0.11541732
C        1.52117643       1.22936732      -2.84065422       0.00000000       0.00000000       0.04004484       0.01985865       0.01973855       0.25099704
O        0.71947044       0.68542589      -2.03080842       0.00000000       0.00000000       0.00076720       0.03096947       0.10388999      -0.38813354
C        2.78490699       1.82409232      -2.28014811       0.00000000       0.00000000       0.01431981      -0.03590728       0.03013099       0.06704419
C        3.88204126       2.39567982      -2.96902972       0.00000000       0.00000000       0.07152953      -0.10652671       0.08477860      -0.05188173
C        4.72297007       3.26425652      -2.31282027       0.00000000       0.00000000      -0.08131594      -0.01819198      -0.02211655      -0.01178035
C        4.49623457       3.57388599      -0.95872428       0.00000000       0.00000000      -0.07374248      -0.02111756      -0.02394490       0.01103723
C        5.19348290       4.56466915      -0.23103286       0.00000000       0.00000000      -0.02186546      -0.06107542      -0.07330016      -0.02763129
C        4.85514766       4.83759855       1.06789243       0.00000000       0.00000000       0.07045123      -0.06845285      -0.14205821      -0.01631739
C        3.85155124       4.08755828       1.70625148       0.00000000       0.00000000       0.04176467       0.11734838      -0.00391278      -0.01887578
C        3.19028046       3.10066499       1.03823956       0.00000000       0.00000000      -0.03688935      -0.01504063       0.05562642      -0.05314837
C        3.45805610       2.83780017      -0.31789457       0.00000000       0.00000000      -0.02243347      -0.00691740      -0.00284742       0.08731285
N        2.64589369       1.98624836      -0.97190841       0.00000000       0.00000000      -0.01218110       0.07356466       0.03585192      -0.22230694
H       -6.79297122       6.49556072      -1.21385450       0.00000000       0.00000000       0.01636615       0.02831409      -0.03754977       0.04557894
H       -5.99001196       6.63632506      -2.77292506       0.00000000       0.00000000       0.03690432      -0.02844556       0.02949959       0.04915819
H       -5.04375026       6.71652190      -1.28303689       0.00000000       0.00000000      -0.01068453      -0.00864676      -0.02370032       0.02574021
H       -5.80009281       4.34599476      -0.76288879       0.00000000       0.00000000      -0.00572790      -0.00375146      -0.04138800       0.01156497
H       -6.53323378       4.28268440      -2.37024604       0.00000000       0.00000000      -0.02707953      -0.01628760       0.02841345       0.04093345
H       -4.32131107       3.18443895      -2.21680042       0.00000000       0.00000000      -0.00002956      -0.02127099      -0.05915728       0.02870891
H       -3.57624325       4.71818268      -1.80373310       0.00000000       0.00000000       0.01537689       0.06022702       0.00770062       0.01004026
H       -3.95366621       5.63392695      -3.96029152       0.00000000       0.00000000      -0.00925064       0.03483478      -0.01459244       0.04083837
H       -5.13373094       4.39590922      -4.37955318       0.00000000       0.00000000      -0.05999952       0.02281876      -0.01709565       0.04976162
H       -2.96118111       4.11612203      -5.53040573       0.00000000       0.00000000      -0.04111182       0.01538939      -0.05904049       0.04478506
H       -3.45219438       2.70443300      -4.60668045       0.00000000       0.00000000       0.00505890      -0.02619859       0.04227758       0.03939012
H       -1.86805391       3.30645356      -2.81189110       0.00000000       0.00000000       0.02850779      -0.05427970       0.04094439       0.02565045
H       -1.55150549       4.84600202      -3.59803540       0.00000000       0.00000000       0.02999518      -0.04231884      -0.02618505       0.03692371
H        0.31301579       3.72076821      -4.22981499       0.00000000       0.00000000      -0.06180334       0.02777943      -0.02644729       0.03529667
H       -0.72546450       3.36978948      -5.61111021       0.00000000       0.00000000       0.05497566       0.03678786       0.09761480       0.05864290
H       -0.61020512       1.10284110      -5.18720614       0.00000000       0.00000000      -0.01067744      -0.03693686      -0.00719296       0.08661851
H       -0.85218540       1.29520344      -3.44751144       0.00000000       0.00000000      -0.04241296       0.04965849       0.07103140       0.08370948
H        2.47006629       2.74316717      -5.07765740       0.00000000       0.00000000       0.00203241      -0.07711977      -0.06623519       0.05967336
H        1.31136778       1.87867670      -6.09425225       0.00000000       0.00000000       0.03179078       0.09968064       0.01685158       0.08521606
H        3.27429163       0.19660499      -4.58574882       0.00000000       0.00000000      -0.00386756       0.00408838      -0.02595795       0.04344653
H        3.86181981       1.09153828      -5.99610183       0.00000000       0.00000000       0.04364736      -0.00526333      -0.01169075       0.05778559
H        2.22418298       0.04552772      -7.44018651       0.00000000       0.00000000      -0.01444447      -0.04922989       0.01137657       0.04816915
H        1.47770078      -0.78909953      -6.07689421       0.00000000       0.00000000      -0.03207106      -0.02691673       0.00754186       0.03395038
H        4.33360800      -1.16440377      -7.07610398       0.00000000       0.00000000       0.01868997      -0.00310599      -0.02451789       0.04748495
H        2.99218641      -2.26537554      -7.37168645       0.00000000       0.00000000       0.00261988      -0.05130742      -0.05020338       0.05372352
H        4.10705442      -1.60573161      -4.60755601       0.00000000       0.00000000       0.05047723      -0.00573067       0.00167712       0.02097588
H        4.56007537      -2.99659344      -5.56148148       0.00000000       0.00000000       0.01740527      -0.06198441      -0.07014718       0.04691615
H        2.26789474      -3.87104793      -5.48169227       0.00000000       0.00000000       0.03913692       0.03566090       0.04739382       0.05017189
H        1.71492015      -2.43053676      -4.62139919       0.00000000       0.00000000       0.00781114      -0.06310796      -0.01874417       0.01646886
H        3.09542757      -2.93579150      -2.69649180       0.00000000       0.00000000      -0.00817630      -0.01170774      -0.01076013       0.00811494
H        3.94747417      -4.20949837      -3.56728457       0.00000000       0.00000000      -0.02840978       0.00260746       0.03870376       0.04487311
H        0.94368961      -4.39581900      -3.12057283       0.00000000       0.00000000      -0.04434144       0.04412348       0.03165531       0.03319510
H        2.11104315      -5.00132397      -1.93028532       0.00000000       0.00000000      -0.00401762      -0.02360357       0.04519635       0.03119527
H        2.06759406      -5.67323348      -3.54801187       0.00000000       0.00000000      -0.00121902      -0.03942909      -0.05409555       0.05337243
H        4.11582605       2.12504422      -3.97928723       0.00000000       0.00000000      -0.01979665       0.06301542      -0.05023686       0.07179628
H        5.53226816       3.74766693      -2.84277882       0.00000000       0.00000000      -0.00832762      -0.09157514       0.02578743       0.07118049
H        5.98006535       5.11394869      -0.72855848       0.00000000       0.00000000      -0.04945553      -0.00667502       0.02237058       0.06934614
H        5.35448508       5.62721411       1.60651978       0.00000000       0.00000000       0.01642791      -0.02520316       0.00123094       0.07322723
H        3.58640644       4.31723676       2.72529487       0.00000000       0.00000000       0.04156651      -0.00542747       0.08493354       0.04979588
H        2.41239553       2.52720557       1.50175100       0.00000000       0.00000000      -0.10466094      -0.01435986       0.02485680       0.04713821
C        0.20050156      -5.51424150       0.41928601       0.00000000       0.00000000       0.02232173       0.01384382       0.01432770      -0.10604188
C        0.16509289      -6.48581629       1.59895527       0.00000000       0.00000000       0.03585304       0.01599601       0.00724948      -0.05322551
C        1.40183038      -6.43445064       2.50207301       0.00000000       0.00000000       0.00723789       0.00954155       0.00363128      -0.06227643
C        2.73766552      -6.89536237       1.90860536       0.00000000       0.00000000      -0.03207032      -0.03079593       0.04410116      -0.06473519
C        3.40150991      -5.98377017       0.87375992       0.00000000       0.00000000      -0.01864951       0.01525729       0.02167454      -0.06769837
C        3.78716647      -4.57604453       1.36240692       0.00000000       0.00000000       0.00651568       0.05752644       0.01538412      -0.06502596
C        3.56938472      -3.55879261       0.23543789       0.00000000       0.00000000       0.01238676      -0.00749519       0.01093540      -0.07112737
C        4.35748872      -2.25121269       0.33207331       0.00000000       0.00000000      -0.01390706      -0.03954709      -0.04982770      -0.01021664
N        3.98484381      -1.36124679       1.43219691       0.00000000       0.00000000      -0.05621724       0.10114471      -0.10075892      -0.05323493
C        5.12427279      -0.81963916       2.16542851       0.00000000       0.00000000      -0.01908718      -0.00901970      -0.02921209      -0.01726751
C        5.70260624      -1.78290757       3.21161947       0.00000000       0.00000000      -0.03734035      -0.02544157      -0.01457498      -0.06511875
C        6.42787423      -1.06807496       4.35882863       0.00000000       0.00000000      -0.05549797      -0.05922161      -0.04266914      -0.06628084
C        7.71530434      -0.34148637       3.95525634       0.00000000       0.00000000      -0.04142931      -0.05179211       0.01992153      -0.07009710
C        7.56075831       1.06549714       3.37045749       0.00000000       0.00000000       0.01902884      -0.02914917       0.01204535      -0.06512958
C        6.91062120       2.06478949       4.32590792       0.00000000       0.00000000       0.00713108      -0.01777696      -0.00960866      -0.06000648
C        6.99864335       3.49469509       3.79505476       0.00000000       0.00000000      -0.01644006      -0.00643319       0.02285884      -0.05629734
C        6.34460166       4.48812079       4.74797889       0.00000000       0.00000000      -0.00476597       0.00650764       0.00364313      -0.10460363
C        2.76002910      -0.82885999       1.43081623       0.00000000       0.00000000      -0.04521211       0.03286093       0.01856046       0.25359093
O        1.95403472      -1.01432615       0.48574340       0.00000000       0.00000000       0.08848672      -0.10300738       0.08217277      -0.37261386
C        2.28256105       0.00082408       2.58971712       0.00000000       0.00000000       0.00282482      -0.03351918      -0.00648029       0.07316360
C        2.84941660      -0.04803766       3.87607026       0.00000000       0.00000000      -0.00645401      -0.00549195       0.05873724      -0.04652348
C        2.47075673       0.85940873       4.83063600       0.00000000       0.00000000      -0.00567899      -0.01431309      -0.02247274      -0.00429249
C        1.50579542       1.83042347       4.50849431       0.00000000       0.00000000      -0.03709331       0.01502967      -0.07484571       0.01714586
C        1.12491691       2.88796141       5.36322996       0.00000000       0.00000000       0.09346135      -0.05142485       0.04448092      -0.02526286
C        0.22308159       3.83030618       4.95090219       0.00000000       0.00000000       0.05155875      -0.00837917       0.02351711      -0.01627333
C       -0.32410521       3.76583874       3.65966230       0.00000000       0.00000000       0.01900816      -0.02797854       0.03732027      -0.01723296
C        0.01030670       2.74072020       2.82166891       0.00000000       0.00000000       0.01940169       0.01000756      -0.02104920      -0.05258853
C        0.90476173       1.73339629       3.22132816       0.00000000       0.00000000       0.06340509      -0.01159362      -0.06852737       0.09039508
N        1.26342036       0.79934738       2.29794363       0.00000000       0.00000000       0.00205194       0.04749151      -0.01444055      -0.17803092
H       -0.80593982      -5.25559194       0.09887489       0.00000000       0.00000000       0.01858174       0.00451215       0.02240395       0.02130504
H        0.71106670      -5.96908498      -0.42352378       0.00000000       0.00000000      -0.00472403       0.02297444      -0.01487305       0.04320200
H        0.70832474      -4.59256732       0.69383238       0.00000000       0.00000000       0.00513606       0.01032891       0.03913497       0.02820661
H        0.02671011      -7.50356673       1.22991028       0.00000000       0.00000000       0.00776058       0.02875288       0.00975403       0.04709371
H       -0.70053227      -6.24433041       2.22564572       0.00000000       0.00000000       0.03514589      -0.03201542       0.00324358       0.01325909
H        1.19331375      -7.08093353       3.35865535       0.00000000       0.00000000       0.02243379       0.02863174      -0.02134075       0.03883890
H        1.50587108      -5.41977505       2.88565869       0.00000000       0.00000000      -0.00234661      -0.00101476       0.00968233       0.01921014
H        2.59062557      -7.87156604       1.44535438       0.00000000       0.00000000       0.01426256      -0.02691236      -0.00284238       0.05009638
H        3.43205134      -7.03190291       2.74005974       0.00000000       0.00000000       0.01160700      -0.00965746       0.00021751       0.04211284
H        2.74551721      -5.89103035       0.01381957       0.00000000       0.00000000      -0.04665009      -0.02270241      -0.02689988       0.03899226
H        4.30093216      -6.49110421       0.52461868       0.00000000       0.00000000       0.02567985      -0.00651997      -0.01406128       0.04629896
H        4.83348159      -4.57569546       1.67294275       0.00000000       0.00000000      -0.02738396       0.01873122      -0.03009923       0.04169647
H        3.18981825      -4.30187581       2.23170147       0.00000000       0.00000000       0.01482332      -0.00402429      -0.01234961       0.03104106
H        2.50310967      -3.33677361       0.14293760       0.00000000       0.00000000       0.04892694       0.00266785      -0.02143779       0.04906147
H        3.90135534      -4.02318957      -0.69473648       0.00000000       0.00000000       0.00086060       0.01970990      -0.00006541       0.06455469
H        4.22499896      -1.70074266      -0.60774718       0.00000000       0.00000000       0.00720358      -0.00840441       0.01657670       0.06034917
H        5.41325165      -2.49671254       0.45041404       0.00000000       0.00000000      -0.04583018       0.04532424      -0.00645628       0.07852735
H        4.83865107       0.12318711       2.62764401       0.00000000       0.00000000      -0.01713169       0.03069154       0.02831478       0.06606068
H        5.88890374      -0.60033421       1.41723348       0.00000000       0.00000000       0.05641594       0.06315009       0.01438954       0.07398744
H        6.39858283      -2.47613729       2.73472330       0.00000000       0.00000000      -0.03105280       0.03776006       0.02518741       0.05862792
H        4.88968116      -2.38715880       3.62624541       0.00000000       0.00000000       0.04406674       0.00233231      -0.00345921       0.03847969
H        6.69052775      -1.83725235       5.08811314       0.00000000       0.00000000       0.02509811       0.01910178      -0.01205733       0.05560427
H        5.75152609      -0.37277127       4.85966746       0.00000000       0.00000000       0.02024717       0.00450718      -0.03578170       0.03656537
H        8.25873315      -0.96357387       3.24095014       0.00000000       0.00000000       0.01835900       0.01536605       0.02512643       0.04323643
H        8.33435763      -0.25773150       4.84929424       0.00000000       0.00000000       0.03427890       0.01445569      -0.01561766       0.05588177
H        7.00766582       1.04597868       2.42935634       0.00000000       0.00000000       0.00150728       0.01189318       0.01066242       0.01531866
H        8.56532435       1.42301329       3.14006501       0.00000000       0.00000000       0.01909245       0.02234838      -0.00989817       0.04928618
H        7.41512384       2.01165925       5.29245155       0.00000000       0.00000000      -0.02777269       0.00474832      -0.01124221       0.04796107
H        5.85604572       1.81285762       4.48217443       0.00000000       0.00000000       0.02331804       0.00860502       0.00329238       0.00931300
H        6.51412086       3.54669031       2.81475733       0.00000000       0.00000000       0.01041490      -0.00588213       0.00768445       0.01497380
H        8.04718025       3.76520726       3.66142952       0.00000000       0.00000000      -0.01918739      -0.01367578       0.00244613       0.04539777
H        5.28932719       4.25399270       4.88936909       0.00000000       0.00000000       0.01690260       0.00569881      -0.00512411       0.01867044
H        6.42579233       5.50196948       4.36440205       0.00000000       0.00000000      -0.00521265      -0.00913406      -0.00395025       0.04070654
H        6.83322938       4.45698952       5.71869732       0.00000000       0.00000000      -0.01202300      -0.00237337      -0.01479538       0.04981960
H        3.55763898      -0.81476681       4.12069006       0.00000000       0.00000000       0.05894394      -0.03380601       0.03566481       0.08428353
H        2.92180869       0.84539109       5.80902152       0.00000000       0.00000000       0.04147545       0.03260083       0.02564170       0.08900159
H        1.58537501       2.96193353       6.33793748       0.00000000       0.00000000      -0.01432710      -0.03781326      -0.03172286       0.07583616
H       -0.03458776       4.65615337       5.59336027       0.00000000       0.00000000      -0.03259775      -0.01690080       0.05422311       0.07851934
H       -0.98327765       4.54947694       3.32443259       0.00000000       0.00000000      -0.04514668       0.04430737      -0.02134273       0.05335002
H       -0.30474885       2.69976713       1.79382136       0.00000000       0.00000000      -0.05594872       0.00945001       0.00826858       0.07878530
O        0.31068173      -2.07158875      -1.52325824       0.00000000       0.00000000       0.02436553       0.01129057       0.02112907      -0.48511846
H        0.21729102      -3.00251292      -1.27574075       0.00000000       0.00000000       0.01977989      -0.02572774      -0.00018075       0.34461322
H        0.94786175      -2.05122854      -2.25092202       0.00000000       0.00000000       0.01925085      -0.00840999       0.01489384       0.34416333
