226
Properties=species:S:1:pos:R:3:initial_charges:R:1:initial_magmoms:R:1:forces:R:3:charge:R:1 energy=-7592.457678845239 free_energy=-7592.457678845239 dipole="-0.5587930073810902 1.573331488318348 1.6131344855235985" pbc="F F F"
Eu       0.07867298      -0.14406760      -0.25782909       3.00000000       0.00000000      -0.00232197       0.06589616       0.00259924       0.85072959
C       -2.02180111      -1.57479160      -7.42864712       0.00000000       0.00000000      -0.05058768       0.02000853       0.06504266      -0.10621726
C       -2.50464618      -1.15429043      -6.04485053       0.00000000       0.00000000      -0.04409162       0.03836545       0.00436777      -0.06204049
C       -3.62825474      -0.11621170      -6.08099878       0.00000000       0.00000000       0.02751148      -0.01276358       0.01056622      -0.06663295
C       -3.71875052       0.70118914      -4.78753035       0.00000000       0.00000000      -0.01650983      -0.02430972      -0.01597054      -0.05863423
C       -2.63304537       1.77505739      -4.64682533       0.00000000       0.00000000      -0.05606638      -0.01912726       0.00481605      -0.06456691
C       -3.04707659       2.83796206      -3.62765052       0.00000000       0.00000000       0.01083100       0.00133899      -0.01457508      -0.06456167
C       -2.14282228       4.06932113      -3.60782644       0.00000000       0.00000000       0.07557887      -0.00604281      -0.01766923      -0.07182182
C       -0.80567189       3.86609693      -2.88895493       0.00000000       0.00000000       0.03690904      -0.05090359       0.03005221      -0.01234134
N       -0.95638623       3.96809149      -1.43576738       0.00000000       0.00000000       0.04688470      -0.00519142      -0.02519412      -0.05280454
C       -0.99384668       5.31832197      -0.89010197       0.00000000       0.00000000       0.02646480       0.00139595       0.05305090      -0.03416929
C        0.41228442       5.88764884      -0.60617560       0.00000000       0.00000000       0.04213315       0.04149173      -0.02719457      -0.06903117
C        0.84089706       6.88183789      -1.68798844       0.00000000       0.00000000       0.01733188       0.01823816      -0.03204113      -0.06807560
C        2.17258653       7.59111125      -1.40884007       0.00000000       0.00000000       0.02634634      -0.01781127      -0.01288343      -0.06916962
C        3.36551394       7.01362136      -2.17445175       0.00000000       0.00000000       0.04278660      -0.03336687       0.04540174      -0.06843221
C        3.91977733       5.71346408      -1.58945927       0.00000000       0.00000000       0.03362024       0.03342349      -0.00763626      -0.06109391
C        5.17437327       5.26707709      -2.34781389       0.00000000       0.00000000      -0.04830718       0.03397608       0.04261221      -0.06528322
C        5.77718040       3.95925701      -1.83531350       0.00000000       0.00000000      -0.02908347       0.07871900       0.00752028      -0.10810217
C       -0.99828158       2.85246802      -0.71703343       0.00000000       0.00000000      -0.09347711       0.01210859      -0.01763897       0.26062205
O       -0.82403365       1.72204470      -1.21960886       0.00000000       0.00000000       0.07360645       0.02840172      -0.01847205      -0.37436253
C       -1.28273243       2.95905806       0.78898202       0.00000000       0.00000000      -0.00983627      -0.02219472       0.02028589       0.05126120
O       -0.91828788       1.74257695       1.44297155       0.00000000       0.00000000       0.06441432       0.09441494       0.08506829      -0.24005387
C       -1.90329211       1.24585902       2.34167067       0.00000000       0.00000000       0.00253276      -0.05875695      -0.04880151       0.04570148
C       -2.95824226       0.48387078       1.53484796       0.00000000       0.00000000      -0.12527520      -0.00878764       0.10622630       0.24313244
O       -2.65619135       0.11131847       0.38994374       0.00000000       0.00000000       0.08936368       0.03882673       0.07331498      -0.40914504
N       -4.13250135       0.26302668       2.10542606       0.00000000       0.00000000      -0.04043125      -0.05319853       0.02776982      -0.06184103
C       -4.51071343       0.47519238       3.50139382       0.00000000       0.00000000       0.01743382       0.04055639       0.02480783      -0.01411025
C       -5.79676577      -0.34189996       3.67060972       0.00000000       0.00000000       0.07503100       0.00644111       0.02585357      -0.06899986
C       -6.42495975      -0.28193106       2.28390642       0.00000000       0.00000000       0.09643580       0.02334679      -0.03004348      -0.06982614
C       -5.20569371      -0.41675942       1.38453890       0.00000000       0.00000000       0.08645115       0.01319708      -0.01393259      -0.00909933
H       -1.19972796      -2.28211727      -7.33909906       0.00000000       0.00000000      -0.02948475      -0.02840515      -0.06009500       0.03280324
H       -2.82081124      -2.04978721      -7.98992010       0.00000000       0.00000000      -0.01425643       0.02294849      -0.01953521       0.04649445
H       -1.66822230      -0.71382924      -7.99144055       0.00000000       0.00000000      -0.04396852      -0.02519934      -0.04218095       0.03839433
H       -2.84977041      -2.03904076      -5.50372848       0.00000000       0.00000000      -0.00096561       0.05100617      -0.08118101       0.02127139
H       -1.66807320      -0.73160578      -5.49117809       0.00000000       0.00000000      -0.04107682      -0.04085421      -0.06903393       0.03561504
H       -3.47510909       0.56491228      -6.92049150       0.00000000       0.00000000       0.00284363      -0.00798108       0.02744951       0.04494609
H       -4.58000951      -0.62478087      -6.24651508       0.00000000       0.00000000       0.01263569       0.03421261      -0.03376210       0.03755066
H       -4.68881315       1.19970483      -4.77447850       0.00000000       0.00000000      -0.01681656      -0.00229673      -0.02244086       0.03941016
H       -3.68216616       0.03044195      -3.92429370       0.00000000       0.00000000      -0.03013529       0.01431021       0.00897364       0.01829890
H       -1.68902006       1.32045669      -4.34298815       0.00000000       0.00000000      -0.05957499       0.02646345      -0.00424122       0.02885226
H       -2.48499398       2.25039288      -5.61891009       0.00000000       0.00000000      -0.00811469       0.01582669       0.03917185       0.04548493
H       -4.04453785       3.18351648      -3.89665408       0.00000000       0.00000000      -0.04730265      -0.01930311       0.05305203       0.05961740
H       -3.09450583       2.39276940      -2.63040431       0.00000000       0.00000000      -0.00685961      -0.01534629      -0.02506705       0.02668766
H       -1.94369297       4.36242710      -4.63724941       0.00000000       0.00000000       0.05846744       0.04687445      -0.05333096       0.06866798
H       -2.66847522       4.89855204      -3.13014424       0.00000000       0.00000000      -0.02350431      -0.01774138      -0.03238158       0.05151191
H       -0.39906106       2.87617541      -3.09996314       0.00000000       0.00000000      -0.06477059      -0.07240835      -0.11879156       0.07487726
H       -0.08755420       4.62326300      -3.21339333       0.00000000       0.00000000      -0.07119286       0.01605904       0.06027060       0.06528519
H       -1.47384294       5.97774899      -1.61618931       0.00000000       0.00000000      -0.08581158      -0.15539989      -0.01107686       0.09440143
H       -1.59406467       5.33173140       0.01189268       0.00000000       0.00000000      -0.12676146      -0.00554765       0.04780228       0.06944466
H        0.41804175       6.42512384       0.34359299       0.00000000       0.00000000      -0.13524646      -0.02843795       0.02073780       0.05509005
H        1.12550965       5.06863601      -0.51274245       0.00000000       0.00000000       0.05121795       0.05984009      -0.01046299       0.02761005
H        0.90417898       6.39138605      -2.66030723       0.00000000       0.00000000      -0.02052097      -0.01885264      -0.00659931       0.03772434
H        0.05433433       7.63388909      -1.75506780       0.00000000       0.00000000      -0.00167232       0.02866082      -0.01710986       0.05175116
H        2.06699321       8.63249354      -1.70677884       0.00000000       0.00000000       0.01882768       0.03740435      -0.00593073       0.06036077
H        2.37571221       7.58156114      -0.33713032       0.00000000       0.00000000       0.05452934       0.02401748      -0.00133437       0.04161892
H        3.07684569       6.84452638      -3.21617399       0.00000000       0.00000000       0.03724501       0.04069848       0.05031861       0.03760789
H        4.16669299       7.75209936      -2.17818804       0.00000000       0.00000000      -0.00141436       0.02752451       0.02461262       0.05576353
H        4.17021172       5.86150401      -0.53483322       0.00000000       0.00000000      -0.02020833       0.01714515      -0.05072630       0.03175204
H        3.14512052       4.94244661      -1.64961635       0.00000000       0.00000000       0.09589744       0.08324842      -0.01062738       0.00018782
H        4.92899467       5.17808808      -3.41081902       0.00000000       0.00000000       0.10886823       0.04036481       0.04024683       0.03462784
H        5.92702835       6.05224275      -2.25696239       0.00000000       0.00000000      -0.02452009      -0.04702126      -0.02958120       0.05795601
H        5.06049891       3.13746014      -1.84307998       0.00000000       0.00000000       0.02093097       0.02096225      -0.00288732       0.00969509
H        6.61573723       3.67613957      -2.46561277       0.00000000       0.00000000       0.04111906       0.01445753       0.07038570       0.05379316
H        6.13643025       4.08158482      -0.81666641       0.00000000       0.00000000       0.04833703       0.01868812       0.00030419       0.04022852
H       -0.72100941       3.78570198       1.24365606       0.00000000       0.00000000      -0.01650336      -0.07466617       0.00130603       0.08020112
H       -2.35383435       3.14592059       0.92287988       0.00000000       0.00000000      -0.02465659       0.06307951      -0.11754585       0.08463579
H       -1.38238629       0.53527463       2.99136755       0.00000000       0.00000000       0.04812397      -0.02262673       0.05268500       0.09272929
H       -2.33770603       2.03758593       2.96397478       0.00000000       0.00000000       0.02249284       0.04467437      -0.09505523       0.07282444
H       -3.72533323       0.14648553       4.18127170       0.00000000       0.00000000       0.09055867      -0.06522811      -0.00780831       0.05667461
H       -4.70173657       1.53128736       3.69879634       0.00000000       0.00000000      -0.04428801       0.12679781      -0.10153115       0.06956265
H       -5.54995348      -1.37184715       3.92074596       0.00000000       0.00000000       0.00539669      -0.06867217       0.04753309       0.06229324
H       -6.44282842       0.05480790       4.44826276       0.00000000       0.00000000       0.02999910       0.04200098      -0.00774548       0.08100617
H       -7.14697174      -1.07529633       2.10477681       0.00000000       0.00000000      -0.00163550       0.06655059       0.05837152       0.07420297
H       -6.90562317       0.68182925       2.12807664       0.00000000       0.00000000      -0.06137835       0.00661687      -0.01213267       0.06949619
H       -4.92404282      -1.46534684       1.26222946       0.00000000       0.00000000      -0.03930834       0.01293200       0.04848175       0.05667342
H       -5.33928149       0.03010634       0.40026202       0.00000000       0.00000000       0.04266690       0.03732209       0.04432803       0.08509866
C       -2.22014289      -5.34596399       3.10152068       0.00000000       0.00000000      -0.03179090       0.03991020       0.07624893      -0.10725507
C       -2.89953036      -4.26263188       3.93574317       0.00000000       0.00000000       0.01686807       0.01208497       0.06459976      -0.05676864
C       -2.09920645      -3.87885698       5.18598272       0.00000000       0.00000000      -0.01334776       0.01346799       0.00526070      -0.06957348
C       -0.89606225      -2.99522928       4.85127441       0.00000000       0.00000000      -0.06111757      -0.04164269       0.02969539      -0.06111205
C       -0.23028876      -2.38302867       6.08207580       0.00000000       0.00000000      -0.05485606      -0.01389052      -0.02300504      -0.07084003
C        1.02052665      -1.56853836       5.74185875       0.00000000       0.00000000      -0.02443588       0.03843561       0.01497580      -0.06623180
C        0.72871744      -0.24386016       5.02714238       0.00000000       0.00000000       0.02198462       0.02515961      -0.03241574      -0.06481167
C        2.04612701       0.40945278       4.59870709       0.00000000       0.00000000      -0.04646673       0.01437701      -0.07350746      -0.01319928
N        1.93717455       1.56506918       3.70011232       0.00000000       0.00000000       0.04804706       0.00117760       0.01773657      -0.05066317
C        2.29869504       2.85838543       4.27767099       0.00000000       0.00000000      -0.06640613       0.07384927      -0.02702487      -0.02381019
C        1.37883964       3.30764400       5.42053212       0.00000000       0.00000000      -0.08913527      -0.03471273       0.01327599      -0.07495749
C       -0.10299349       3.40506494       5.04443327       0.00000000       0.00000000      -0.05585009       0.01074254      -0.03605287      -0.06822313
C       -0.52612570       4.72539057       4.39177914       0.00000000       0.00000000      -0.04289218      -0.00186882       0.01777576      -0.06284993
C       -2.05628926       4.82889250       4.38007167       0.00000000       0.00000000       0.00313582       0.02316055      -0.01159550      -0.05870716
C       -2.61504731       6.21496678       4.04488600       0.00000000       0.00000000       0.01857588      -0.01242077      -0.02770084      -0.06850388
C       -2.55329172       6.59387940       2.56310704       0.00000000       0.00000000       0.00923171      -0.01692332       0.02789912      -0.05713471
C       -3.59921965       5.86573451       1.72003534       0.00000000       0.00000000       0.03840561       0.03176217       0.05408395      -0.10537558
C        1.70976997       1.33954390       2.40792105       0.00000000       0.00000000       0.03530343       0.03358080       0.02019831       0.26035998
O        1.32548438       0.23337912       1.97235143       0.00000000       0.00000000      -0.03415506       0.11630611      -0.01842298      -0.39867427
C        2.03103626       2.44505544       1.38189360       0.00000000       0.00000000      -0.02217715      -0.03594855       0.11631219       0.05070656
O        1.50262846       2.02928523       0.13640877       0.00000000       0.00000000       0.01532036       0.04567122      -0.00417302      -0.23562136
C        2.14744141       2.55613563      -1.01608720       0.00000000       0.00000000       0.00371723      -0.02312629      -0.08268092       0.04357428
C        2.43376729       1.36997467      -1.95142051       0.00000000       0.00000000       0.06118934       0.02705136      -0.03123596       0.25506550
O        2.05881740       0.24216015      -1.58555601       0.00000000       0.00000000       0.04048902       0.00928371      -0.01591044      -0.35327138
N        3.16804227       1.61713384      -3.02648347       0.00000000       0.00000000      -0.00755956      -0.03023004      -0.03158320      -0.06245635
C        4.01993350       0.60338032      -3.65545982       0.00000000       0.00000000      -0.00120096      -0.04143558       0.01561529      -0.00904937
C        4.74048855       1.36331524      -4.76722139       0.00000000       0.00000000      -0.01768015      -0.00805256       0.07970672      -0.07014699
C        3.73440573       2.43918183      -5.16769912       0.00000000       0.00000000       0.02172262      -0.05323264       0.03635630      -0.07139599
C        3.08733955       2.83339945      -3.83711664       0.00000000       0.00000000       0.06711155      -0.00348733      -0.02891254      -0.01896365
H       -2.78855480      -5.55077855       2.19565178       0.00000000       0.00000000       0.00353844      -0.04293537       0.04697624       0.03170345
H       -1.20580228      -5.06189070       2.82428459       0.00000000       0.00000000      -0.03476235      -0.04880390       0.01291629       0.01424362
H       -2.15185432      -6.26347990       3.67819759       0.00000000       0.00000000      -0.03909897      -0.02637851      -0.01791418       0.06376653
H       -3.06303771      -3.36117159       3.33208597       0.00000000       0.00000000      -0.01044185      -0.06493744       0.02280388       0.00672686
H       -3.87756495      -4.63413591       4.24425864       0.00000000       0.00000000       0.01509319      -0.00300176      -0.00630811       0.05176395
H       -2.74954943      -3.34222724       5.87844836       0.00000000       0.00000000      -0.02189228       0.00371460      -0.01835893       0.04442251
H       -1.76201512      -4.78613742       5.68779373       0.00000000       0.00000000      -0.01522332       0.03871903       0.02276990       0.05617453
H       -0.15294165      -3.60192110       4.33002291       0.00000000       0.00000000      -0.04417955       0.01258522       0.06597223       0.02283237
H       -1.23801272      -2.19671638       4.18185590       0.00000000       0.00000000       0.02912800      -0.05179465       0.04667011       0.01095461
H       -0.94631341      -1.75372216       6.61099592       0.00000000       0.00000000       0.00418145       0.02238539       0.03061747       0.04754862
H        0.05801549      -3.19077277       6.75458635       0.00000000       0.00000000      -0.00183599       0.00859242       0.02418060       0.06077109
H        1.55445507      -1.35307187       6.66563873       0.00000000       0.00000000       0.02810403       0.02430874       0.05839412       0.05848190
H        1.68771174      -2.17429352       5.12076290       0.00000000       0.00000000      -0.02792208       0.01032377       0.02926290       0.02621357
H        0.11439792      -0.42847208       4.14220194       0.00000000       0.00000000       0.04778226       0.04612859      -0.00119825       0.03254273
H        0.18146444       0.42064968       5.69725177       0.00000000       0.00000000      -0.01161839      -0.03651827      -0.03213334       0.05806115
H        2.58828333       0.73603470       5.48893903       0.00000000       0.00000000       0.01110975      -0.07526467      -0.13335488       0.08567744
H        2.64167947      -0.33724347       4.06217248       0.00000000       0.00000000       0.01731184      -0.01830216       0.07894156       0.06304106
H        3.32677439       2.81588970       4.65423127       0.00000000       0.00000000      -0.05330573      -0.08381208      -0.05708637       0.07845226
H        2.25346523       3.61982392       3.50976545       0.00000000       0.00000000       0.08594876       0.08604117      -0.13048971       0.06075522
H        1.48048565       2.63633668       6.26954475       0.00000000       0.00000000       0.03877198      -0.10636022       0.03171991       0.06243814
H        1.72464198       4.28877281       5.75297510       0.00000000       0.00000000       0.03320251      -0.07027157      -0.02389144       0.07604452
H       -0.37690633       2.57100811       4.39401046       0.00000000       0.00000000       0.05172880      -0.02537635      -0.02483056       0.01916864
H       -0.68963818       3.30265060       5.95937316       0.00000000       0.00000000       0.06504576      -0.00494717       0.02526659       0.05522651
H       -0.12900225       5.55568077       4.97761338       0.00000000       0.00000000      -0.00356773      -0.01354401      -0.01469277       0.05513527
H       -0.11871647       4.80856513       3.37826039       0.00000000       0.00000000      -0.03252062      -0.01066167       0.06548691       0.00881295
H       -2.47076817       4.08806367       3.68824154       0.00000000       0.00000000      -0.00120980       0.01603011       0.03871166       0.00766809
H       -2.40604178       4.57391634       5.38248277       0.00000000       0.00000000      -0.02388709      -0.01830553      -0.02739388       0.04433215
H       -3.65793787       6.24914080       4.36469196       0.00000000       0.00000000       0.00809615       0.02057078      -0.01102502       0.05141502
H       -2.07539092       6.95931847       4.63167299       0.00000000       0.00000000       0.02090269      -0.01149375      -0.02498725       0.05083125
H       -2.73683208       7.66539031       2.47479265       0.00000000       0.00000000       0.02163549      -0.02732596       0.00229605       0.05363453
H       -1.54479370       6.40234379       2.18247806       0.00000000       0.00000000      -0.04814343       0.01012404      -0.03403409       0.01392325
H       -4.59365897       6.06958240       2.10788510       0.00000000       0.00000000       0.01173413       0.01782768       0.00459234       0.05665106
H       -3.56840917       6.20700187       0.68744945       0.00000000       0.00000000      -0.02740031      -0.00188292       0.02129964       0.03523543
H       -3.44960611       4.78579268       1.73580196       0.00000000       0.00000000      -0.03551626       0.02495494       0.00786957       0.00502894
H        1.61480423       3.42349560       1.65275704       0.00000000       0.00000000      -0.04330157      -0.03134388       0.03150138       0.07047850
H        3.12694656       2.53256069       1.33636714       0.00000000       0.00000000      -0.01666591      -0.01542167       0.02216749       0.08280560
H        1.52000709       3.31676233      -1.48916772       0.00000000       0.00000000      -0.08074414      -0.02276383      -0.08948090       0.07604025
H        3.10865540       3.01832199      -0.76519213       0.00000000       0.00000000       0.04136837      -0.06588567       0.08497723       0.08670058
H        4.70788127       0.21652478      -2.90189019       0.00000000       0.00000000      -0.00800095      -0.03638987       0.01502094       0.06621519
H        3.42852973      -0.22892407      -4.03375743       0.00000000       0.00000000       0.02631071      -0.02373579      -0.02011687       0.09010013
H        5.64315193       1.82252158      -4.36774444       0.00000000       0.00000000       0.04641670       0.01828861      -0.05059435       0.06730198
H        5.01616038       0.71523657      -5.59762604       0.00000000       0.00000000      -0.03672556       0.05940176       0.07733906       0.07713467
H        4.20565536       3.28575737      -5.66424601       0.00000000       0.00000000      -0.03898049      -0.05267946       0.05738978       0.07481334
H        2.98329945       2.01621467      -5.83124733       0.00000000       0.00000000       0.04669157       0.03933349      -0.03868783       0.07508658
H        3.62508295       3.65491708      -3.37443947       0.00000000       0.00000000       0.04164446      -0.00319382       0.01127563       0.08547846
H        2.04360648       3.12618942      -3.97414857       0.00000000       0.00000000      -0.00082238      -0.01852770       0.05902206       0.05000698
C        0.51370531       1.01167041      -6.14724112       0.00000000       0.00000000       0.01633576      -0.00685191       0.04495160      -0.11267305
C        0.85098497       0.14004886      -4.94140212       0.00000000       0.00000000       0.00628250      -0.02369929      -0.00145860      -0.05537852
C        1.41271026      -1.21672883      -5.37644741       0.00000000       0.00000000       0.01381914       0.02489697       0.02126955      -0.06783719
C        1.31835677      -2.28963016      -4.28819582       0.00000000       0.00000000      -0.03469807      -0.02131916       0.02485157      -0.06170153
C       -0.14384957      -2.69036842      -4.14822516       0.00000000       0.00000000      -0.00590380      -0.03987780       0.03458146      -0.07069719
C       -0.46056571      -3.88744254      -3.26248538       0.00000000       0.00000000      -0.03111250       0.00319558       0.01125740      -0.06043540
C       -1.95679544      -4.19766972      -3.36086674       0.00000000       0.00000000      -0.06917736       0.02258661       0.00573040      -0.07204989
C       -2.87152069      -3.03319525      -2.95640578       0.00000000       0.00000000      -0.03269555       0.04792217       0.01789658      -0.02148195
N       -3.01171093      -3.01227854      -1.50457785       0.00000000       0.00000000      -0.00228912       0.07200009      -0.02243911      -0.04285425
C       -4.26912808      -3.54152544      -1.00783337       0.00000000       0.00000000      -0.04195193       0.04084343       0.05468767      -0.02521354
C       -5.37390383      -2.46352995      -1.07671717       0.00000000       0.00000000      -0.03031485       0.00298830      -0.06732541      -0.07639162
C       -6.36306206      -2.55556643      -2.24028590       0.00000000       0.00000000      -0.02254189      -0.01146268      -0.01853087      -0.06771385
C       -7.56308222      -1.62104656      -2.01451889       0.00000000       0.00000000       0.01531935       0.03708015      -0.01514399      -0.06825608
C       -7.44839192      -0.24239338      -2.67361962       0.00000000       0.00000000       0.03074841       0.03309267       0.01998718      -0.06871457
C       -6.61166032       0.79429343      -1.91815600       0.00000000       0.00000000      -0.04375302       0.01196492      -0.02028493      -0.05644293
C       -6.73704303       2.16516038      -2.58999624       0.00000000       0.00000000      -0.00187883      -0.06548920       0.03192294      -0.05955587
C       -6.06107499       3.28653162      -1.80496403       0.00000000       0.00000000      -0.03224938      -0.08711229      -0.00798088      -0.10396487
C       -2.08369158      -2.37491680      -0.80270508       0.00000000       0.00000000       0.02211588      -0.18193669       0.00526383       0.26330117
O       -1.24101653      -1.61748079      -1.32785377       0.00000000       0.00000000       0.02286129       0.00326300       0.06351292      -0.34862845
C       -1.94806137      -2.67687659       0.70607455       0.00000000       0.00000000       0.02225300       0.02849019      -0.10417088       0.04636752
O       -0.87450076      -1.90983372       1.26868823       0.00000000       0.00000000       0.00786865       0.05091783       0.03605752      -0.23214218
C        0.20953418      -2.64686697       1.83490911       0.00000000       0.00000000       0.06204517      -0.00337275      -0.05276447       0.03609983
C        1.46909295      -2.63051461       0.96104002       0.00000000       0.00000000       0.03957132      -0.11054245       0.06587900       0.25028217
O        1.45642272      -2.01864768      -0.12043938       0.00000000       0.00000000      -0.03311356       0.14028802       0.07095780      -0.36805281
N        2.52976867      -3.24501388       1.45642054       0.00000000       0.00000000       0.05152110      -0.01489977      -0.02457307      -0.04924179
C        2.57300882      -4.07049883       2.65962904       0.00000000       0.00000000       0.06237749      -0.03897529       0.00971349      -0.01555196
C        4.06176385      -4.31067889       2.90909042       0.00000000       0.00000000       0.05636988      -0.00554106      -0.08663665      -0.06885165
C        4.63843388      -4.32101732       1.49622844       0.00000000       0.00000000      -0.04822168       0.04146514      -0.10943407      -0.07257454
C        3.83676230      -3.22802816       0.79402759       0.00000000       0.00000000      -0.03829912       0.03847771      -0.06490555      -0.00746338
H        0.32434604       2.03977487      -5.84990721       0.00000000       0.00000000      -0.01698935       0.07256932       0.00706937       0.02342133
H        1.33405512       1.00275662      -6.85992111       0.00000000       0.00000000      -0.00163721      -0.00249290      -0.03507560       0.04398549
H       -0.37037992       0.64047596      -6.65270774       0.00000000       0.00000000       0.02590321      -0.00338149      -0.05163944       0.05927295
H        1.57636255       0.65032651      -4.31500410       0.00000000       0.00000000      -0.07347488      -0.00789325      -0.03894936       0.02073233
H       -0.03508171      -0.00560280      -4.31415152       0.00000000       0.00000000       0.03346406       0.03982523      -0.06523583       0.02476576
H        0.85284226      -1.56532616      -6.24597756       0.00000000       0.00000000       0.05299026       0.01855293      -0.00881435       0.05461473
H        2.44809318      -1.08869284      -5.69499020       0.00000000       0.00000000       0.03281365      -0.02296668      -0.05703169       0.03293128
H        1.91729484      -3.15503222      -4.57384995       0.00000000       0.00000000       0.02686334       0.00067242      -0.02219856       0.04163912
H        1.69083328      -1.91096910      -3.32860372       0.00000000       0.00000000       0.00606669       0.00956718       0.01357494       0.03547033
H       -0.66718495      -1.82542876      -3.74243737       0.00000000       0.00000000       0.02348087      -0.02802664      -0.02017535       0.04590587
H       -0.53715668      -2.90202688      -5.14398381       0.00000000       0.00000000       0.02195098      -0.02184647       0.04077576       0.05331245
H        0.09298428      -4.76244440      -3.60605095       0.00000000       0.00000000       0.02255878       0.00540370       0.03140639       0.05146815
H       -0.17425375      -3.68586328      -2.22691652       0.00000000       0.00000000       0.06552573       0.00863390      -0.01077811       0.02692270
H       -2.17749051      -4.47242302      -4.39141714       0.00000000       0.00000000      -0.04202504       0.01215577      -0.04620241       0.07001323
H       -2.21340293      -5.05199620      -2.73230906       0.00000000       0.00000000       0.05468692      -0.08531249      -0.02829013       0.04660156
H       -2.47358565      -2.06996772      -3.26646106       0.00000000       0.00000000       0.01659897      -0.01740283      -0.08382356       0.09021087
H       -3.85665416      -3.15623309      -3.40090620       0.00000000       0.00000000      -0.01996176      -0.05416987       0.05603168       0.08070712
H       -4.56237304      -4.40065104      -1.61441174       0.00000000       0.00000000       0.13429536      -0.01202333       0.02384937       0.09224323
H       -4.15282991      -3.87512706       0.01916937       0.00000000       0.00000000       0.06337276      -0.10683922       0.10232295       0.05020217
H       -5.97745319      -2.53332576      -0.17015225       0.00000000       0.00000000       0.06103001      -0.06680928      -0.04056568       0.05312533
H       -4.89063560      -1.48736947      -1.09828022       0.00000000       0.00000000       0.00166190      -0.01762863       0.00282373       0.04999669
H       -5.90474920      -2.30422765      -3.19682492       0.00000000       0.00000000       0.09767729       0.00060304       0.04734963       0.04627498
H       -6.72444666      -3.58080038      -2.31010916       0.00000000       0.00000000      -0.02283546      -0.06507299       0.02628938       0.04740759
H       -8.45499110      -2.09992053      -2.41699533       0.00000000       0.00000000       0.02444079      -0.02250324      -0.05633818       0.05711930
H       -7.72635262      -1.49850455      -0.94167873       0.00000000       0.00000000      -0.07000932       0.02337726      -0.01534408       0.03409513
H       -7.05368042      -0.35451996      -3.68561687       0.00000000       0.00000000      -0.01965745      -0.00262830       0.01823087       0.04185925
H       -8.45707367       0.16478160      -2.76442069       0.00000000       0.00000000       0.00822509      -0.01702847      -0.01108450       0.05032279
H       -6.97932930       0.86606640      -0.88921889       0.00000000       0.00000000       0.00696918       0.00108089      -0.05195728       0.02380045
H       -5.55355296       0.50486573      -1.89479566       0.00000000       0.00000000      -0.11110250       0.01441665      -0.01804073       0.01460202
H       -6.30250936       2.09643607      -3.59038667       0.00000000       0.00000000      -0.04708814       0.06069484       0.04600786       0.03373630
H       -7.79577203       2.40685877      -2.70450139       0.00000000       0.00000000       0.06496218       0.00398341      -0.02628059       0.04771639
H       -5.04650772       3.01007543      -1.52077859       0.00000000       0.00000000       0.00259395      -0.00566328      -0.01692233       0.01530631
H       -6.01910398       4.18702372      -2.41302099       0.00000000       0.00000000      -0.01434670       0.01224848       0.07998057       0.04167239
H       -6.61989951       3.50779881      -0.89882833       0.00000000       0.00000000      -0.00957046       0.00833728       0.00072430       0.03701666
H       -2.87183168      -2.41022024       1.23310951       0.00000000       0.00000000       0.08608568       0.03410836       0.02714860       0.08687088
H       -1.75608096      -3.74569808       0.84352593       0.00000000       0.00000000      -0.07734890      -0.01322666      -0.10274843       0.09222490
H        0.48636087      -2.13085062       2.76125648       0.00000000       0.00000000      -0.09344295      -0.02443017       0.00534334       0.11180878
H       -0.09333933      -3.67271798       2.06092448       0.00000000       0.00000000       0.02637035      -0.00484995      -0.01426965       0.08764276
H        2.09844495      -3.59121001       3.51541896       0.00000000       0.00000000      -0.06137965       0.08855134      -0.04036296       0.05759723
H        2.06654285      -5.01874182       2.46093851       0.00000000       0.00000000      -0.03342782      -0.05332945       0.01551841       0.07137434
H        4.49393314      -3.49593213       3.49021122       0.00000000       0.00000000      -0.03331581       0.01132226      -0.00628698       0.06206172
H        4.24439952      -5.24353867       3.43611980       0.00000000       0.00000000      -0.02812491       0.02206374       0.00777274       0.08241457
H        5.70877490      -4.12969755       1.46633770       0.00000000       0.00000000      -0.06416046       0.01500777       0.03924738       0.07949235
H        4.44987024      -5.28227734       1.02158451       0.00000000       0.00000000       0.00500967      -0.04288792      -0.00164508       0.07198968
H        4.29120731      -2.24242203       0.93284177       0.00000000       0.00000000      -0.02383005       0.01258192       0.03240559       0.06775058
H        3.71643643      -3.39623057      -0.27499045       0.00000000       0.00000000      -0.03705561      -0.01464790      -0.05420431       0.08435610
