358
Properties=species:S:1:pos:R:3:initial_charges:R:1:initial_magmoms:R:1:forces:R:3:charge:R:1 energy=-11290.529438866202 free_energy=-11290.529438866202 dipole="-0.2499692714532789 0.3741561216850262 0.8968244061468332" pbc="F F F"
Eu      -0.28783353      -0.03985600       0.18369936       3.00000000       0.00000000      -0.05447158      -0.01119352      -0.03845784       0.83227252
C       -1.81906023      -4.33116630       4.78069484       0.00000000       0.00000000      -0.00823263       0.00672620      -0.01209683      -0.09539043
C       -2.50421033      -3.76385239       6.01919199       0.00000000       0.00000000       0.02058668       0.00325819       0.01480876      -0.05598390
C       -1.53514042      -3.27806910       7.09836675       0.00000000       0.00000000       0.03077956       0.00184406       0.03494262      -0.05919126
C       -0.69325230      -4.41556317       7.70258579       0.00000000       0.00000000       0.03168646      -0.03822706       0.03538003      -0.06875800
C        0.80242284      -4.13669527       7.89504810       0.00000000       0.00000000      -0.01996820      -0.00361536       0.00242964      -0.06570626
C        1.66192825      -4.22926422       6.62887175       0.00000000       0.00000000      -0.02611596       0.06023220       0.02912032      -0.06313796
C        1.59406029      -2.95290459       5.78937864       0.00000000       0.00000000      -0.03690122       0.03086283      -0.02388005      -0.07228870
C        2.46549621      -3.03359807       4.53051284       0.00000000       0.00000000      -0.05961648       0.00345534      -0.03917564      -0.03111081
N        1.71334258      -2.98649901       3.27256519       0.00000000       0.00000000      -0.00145184       0.04263564      -0.00138104      -0.06447220
C        1.73459947      -4.26565507       2.55595124       0.00000000       0.00000000      -0.02500502      -0.02884236       0.01622050      -0.02524026
C        3.15735215      -4.68551119       2.11667104       0.00000000       0.00000000      -0.02263996       0.01256822       0.03037931      -0.07534439
C        3.38944935      -5.13636944       0.66062180       0.00000000       0.00000000       0.11382885      -0.02200425       0.07720441      -0.06978401
C        2.77539578      -6.45167544       0.17127203       0.00000000       0.00000000       0.01348802      -0.05371527       0.07534499      -0.06903834
C        3.05321589      -6.68058870      -1.33122985       0.00000000       0.00000000       0.00000538      -0.01426239       0.09109289      -0.06920864
C        2.09439015      -5.91418524      -2.24522834       0.00000000       0.00000000       0.01256883      -0.00213110      -0.03582211      -0.06071917
C        2.44693101      -5.87993630      -3.73398215       0.00000000       0.00000000      -0.00910858      -0.01518871      -0.06780040      -0.06214376
C        1.39016508      -5.09897792      -4.52029907       0.00000000       0.00000000       0.01062440      -0.02378912       0.03241196      -0.10302624
C        0.98546794      -1.97018680       2.80244829       0.00000000       0.00000000       0.02804575      -0.07438851       0.03804677       0.25020128
O        0.39443467      -2.00671278       1.70171226       0.00000000       0.00000000       0.07014392       0.01858361       0.00096994      -0.39789637
C        0.90358214      -0.64894712       3.58590905       0.00000000       0.00000000       0.03084305      -0.07009936      -0.03406592       0.09256878
C        2.30480007      -0.02349154       3.61795552       0.00000000       0.00000000       0.03137689       0.04552514      -0.03641055      -0.13521362
O       -0.03215294       0.16083735       2.86194649       0.00000000       0.00000000      -0.04235311      -0.09797833      -0.04378821      -0.25273855
C       -0.64443722       1.22645699       3.59738319       0.00000000       0.00000000       0.03872127      -0.02238602      -0.01199297       0.09409572
C        0.35604543       2.34609436       3.84668305       0.00000000       0.00000000       0.05350995       0.08734996      -0.00974417      -0.13495066
C       -1.73077845       1.79723242       2.68113478       0.00000000       0.00000000      -0.11180419       0.09667280       0.00969769       0.25719096
O       -1.72593280       1.39225668       1.49544467       0.00000000       0.00000000      -0.08835235       0.08984902      -0.03003140      -0.39012659
N       -2.55757187       2.75258138       3.11859576       0.00000000       0.00000000       0.10733467      -0.01352887      -0.13084139      -0.06034565
C       -3.45006716       3.35961044       2.12543185       0.00000000       0.00000000      -0.06657592      -0.09412933      -0.01138237      -0.01968344
C       -3.44496007       4.88175508       1.91175330       0.00000000       0.00000000       0.00625288      -0.04954450      -0.01815897      -0.07139868
C       -4.10747149       5.12555472       0.54456421       0.00000000       0.00000000      -0.05927488       0.06151884       0.01635179      -0.05996768
C       -4.01823495       6.56344464       0.03285228       0.00000000       0.00000000      -0.01012645       0.03664872       0.01381864      -0.06540013
C       -4.69627103       6.75857885      -1.33089930       0.00000000       0.00000000      -0.00800476       0.02642442       0.04575395      -0.06750660
C       -3.87891532       6.16972731      -2.48134890       0.00000000       0.00000000      -0.02378421       0.06849333      -0.03434137      -0.06020636
C       -4.19268697       6.76440779      -3.85495322       0.00000000       0.00000000      -0.05804133       0.02735336      -0.08067570      -0.05871218
C       -5.55316767       6.35869465      -4.41078624       0.00000000       0.00000000      -0.02145677       0.00035425       0.01659201      -0.10672531
C       -2.72370080       3.21759225       4.49519504       0.00000000       0.00000000      -0.07380150      -0.06042442      -0.08318624      -0.02305277
C       -3.83163054       2.54184465       5.32293644       0.00000000       0.00000000      -0.04474040       0.05885720       0.00977749      -0.07337091
C       -3.42024682       1.21859505       5.97753776       0.00000000       0.00000000       0.09334074      -0.07035329       0.00360161      -0.05714405
C       -3.91664787       1.01383875       7.41581845       0.00000000       0.00000000       0.01480933      -0.02778222       0.03202073      -0.06220036
C       -5.42644648       1.09722458       7.65200750       0.00000000       0.00000000       0.06784944       0.02918495       0.02375396      -0.06536823
C       -6.29035651       0.10796733       6.86721027       0.00000000       0.00000000       0.04053029       0.09079323       0.00876566      -0.06115322
C       -6.07379029      -1.35985545       7.23048383       0.00000000       0.00000000      -0.00204031       0.01730148      -0.01058672      -0.05382039
C       -7.13459597      -2.25251855       6.59571108       0.00000000       0.00000000      -0.00578264      -0.01551601      -0.01587318      -0.10625995
H       -2.56852520      -4.65207757       4.06188214       0.00000000       0.00000000      -0.01814749      -0.00792209      -0.00792192       0.03382485
H       -1.20535288      -5.19362462       5.02668025       0.00000000       0.00000000       0.00717899       0.02973651      -0.00063569       0.04026409
H       -1.18803565      -3.58138199       4.30052762       0.00000000       0.00000000       0.01790206      -0.01359782       0.01586482       0.00534232
H       -3.14612541      -4.52992161       6.45274547       0.00000000       0.00000000      -0.03642099      -0.02749325      -0.01398336       0.04693024
H       -3.14286643      -2.93100013       5.71437454       0.00000000       0.00000000      -0.02457034       0.00200322       0.00874996       0.02471631
H       -2.11985793      -2.80646372       7.88860336       0.00000000       0.00000000      -0.03033646      -0.01170189       0.04551381       0.03644008
H       -0.89886340      -2.49234756       6.69111330       0.00000000       0.00000000       0.01149305      -0.00225631      -0.01346610       0.01766186
H       -0.79983350      -5.31629825       7.09715014       0.00000000       0.00000000       0.02016791       0.01004181       0.00263203       0.04427889
H       -1.10295966      -4.65617516       8.68264535       0.00000000       0.00000000      -0.03155679      -0.01992042       0.02490216       0.04754592
H        1.18079877      -4.88121618       8.59795851       0.00000000       0.00000000      -0.02525938       0.05342490       0.00764525       0.05246470
H        0.94084673      -3.15213268       8.34828867       0.00000000       0.00000000      -0.00988129      -0.05454380       0.03892635       0.03981154
H        1.35027000      -5.08557986       6.02749562       0.00000000       0.00000000      -0.06115076       0.01141476       0.03339777       0.03936451
H        2.69897174      -4.40023440       6.92334638       0.00000000       0.00000000       0.00865506       0.03414223       0.01397475       0.04269106
H        1.90858706      -2.11174065       6.40782740       0.00000000       0.00000000      -0.02446106       0.01517083       0.02405820       0.04501857
H        0.56091027      -2.79628811       5.49250904       0.00000000       0.00000000       0.00356804      -0.02357355      -0.02828367       0.05126892
H        2.96338992      -4.00169842       4.53464736       0.00000000       0.00000000       0.07346026       0.04440681      -0.00365865       0.09110010
H        3.24788575      -2.27317195       4.54375726       0.00000000       0.00000000      -0.10424441       0.01586618      -0.01217040       0.06214624
H        1.05537566      -4.15598733       1.72385269       0.00000000       0.00000000       0.03340032      -0.06276263      -0.11553326       0.08419632
H        1.30958732      -5.01034592       3.23423051       0.00000000       0.00000000       0.03179499      -0.04978751      -0.05728863       0.07214718
H        3.52312509      -5.47022422       2.78195943       0.00000000       0.00000000      -0.05167301      -0.02886096      -0.10802881       0.05993557
H        3.81350705      -3.82301203       2.26050878       0.00000000       0.00000000       0.01187628       0.00795197       0.02690428       0.04391760
H        4.47357081      -5.24098542       0.58626682       0.00000000       0.00000000       0.04686043      -0.03237192      -0.11876738       0.05387458
H        3.11188726      -4.34175797      -0.02677110       0.00000000       0.00000000      -0.06536117       0.06537874      -0.00247477       0.02828788
H        1.70239810      -6.48460797       0.36571718       0.00000000       0.00000000      -0.03170614       0.04804328      -0.04644292       0.03189473
H        3.21992679      -7.27391777       0.73278263       0.00000000       0.00000000       0.02537109       0.01080778      -0.00162783       0.05174871
H        2.95956722      -7.74487966      -1.54583772       0.00000000       0.00000000       0.00479373       0.00448476      -0.00359592       0.05295691
H        4.08475335      -6.39825088      -1.54410466       0.00000000       0.00000000       0.01642327       0.03248416      -0.02426934       0.04319046
H        2.03574489      -4.87798066      -1.90861753       0.00000000       0.00000000      -0.00893174      -0.02321336       0.01447108       0.01211577
H        1.10645235      -6.37014872      -2.15112560       0.00000000       0.00000000      -0.03522695       0.06418052       0.03278048       0.03012512
H        2.49530114      -6.89142294      -4.13330853       0.00000000       0.00000000       0.01471801      -0.06187832       0.05425390       0.05302777
H        3.42571785      -5.42105736      -3.89047009       0.00000000       0.00000000      -0.00079570      -0.00435090       0.08423524       0.03414316
H        1.62291851      -5.09345780      -5.58408278       0.00000000       0.00000000       0.01205698      -0.02682956       0.11364356       0.05067375
H        0.40835934      -5.55564750      -4.39161068       0.00000000       0.00000000       0.06615416       0.00790957      -0.03365737       0.03455571
H        1.32979563      -4.06131384      -4.18103720       0.00000000       0.00000000       0.02685856      -0.05617180      -0.02000265       0.00564832
H        0.50215807      -0.83405145       4.58577104       0.00000000       0.00000000       0.06148019       0.02118609       0.10780486       0.06633579
H        3.04514670      -0.71156036       3.21667554       0.00000000       0.00000000       0.02013775       0.04173237       0.12084893       0.05723770
H        2.59457696       0.27497459       4.62327425       0.00000000       0.00000000       0.04153696      -0.03433260      -0.10805569       0.06899004
H        2.30602947       0.83757968       2.95681937       0.00000000       0.00000000      -0.00212277       0.01378408       0.09159596       0.09728347
H       -1.06576455       0.84111136       4.53290591       0.00000000       0.00000000      -0.00793754      -0.04173602      -0.00965031       0.06832809
H       -0.13594955       3.24440581       4.19296952       0.00000000       0.00000000       0.01686176       0.05595362       0.03599691       0.06223895
H        0.85803592       2.58114692       2.91299826       0.00000000       0.00000000       0.03245006       0.00084101       0.03669979       0.06018685
H        1.08265995       2.04711338       4.58988928       0.00000000       0.00000000      -0.02099482       0.06079116      -0.02219935       0.09324555
H       -4.48116130       3.05787732       2.34048608       0.00000000       0.00000000       0.13088559       0.00969452       0.03480145       0.07320116
H       -3.13809428       2.90004045       1.18371574       0.00000000       0.00000000      -0.08869347       0.06615596       0.06317319       0.08262270
H       -2.43935884       5.29739498       1.90917717       0.00000000       0.00000000       0.09537429      -0.08231087      -0.00802379       0.04203380
H       -4.00316656       5.41168716       2.68435387       0.00000000       0.00000000      -0.06145159      -0.10235201      -0.01605326       0.05580768
H       -5.16131561       4.85564890       0.61634503       0.00000000       0.00000000      -0.02610480      -0.06104850      -0.01680184       0.04736453
H       -3.64794624       4.45583886      -0.18864806       0.00000000       0.00000000      -0.02938012       0.04995540       0.01951868       0.01702225
H       -2.97299871       6.86441805      -0.05851141       0.00000000       0.00000000       0.06962423       0.01088941       0.06867700       0.03099198
H       -4.48487161       7.22771501       0.75885765       0.00000000       0.00000000      -0.05200565       0.00026689       0.03970817       0.04801966
H       -4.81707413       7.82773214      -1.50469786       0.00000000       0.00000000       0.04669178       0.03036519       0.02981354       0.05378720
H       -5.69319507       6.32172128      -1.31108649       0.00000000       0.00000000      -0.04888288      -0.03236243       0.01240643       0.04207452
H       -4.02757110       5.08976943      -2.52918393       0.00000000       0.00000000      -0.03887455      -0.01732080      -0.01311019       0.01572298
H       -2.82604223       6.37216072      -2.27792405       0.00000000       0.00000000       0.08063029      -0.02380861      -0.00435372       0.02331032
H       -3.41603401       6.44223032      -4.55530076       0.00000000       0.00000000      -0.02249928      -0.00028052       0.01472205       0.02810961
H       -4.13937984       7.85198119      -3.79277020       0.00000000       0.00000000      -0.01318867       0.00360518       0.01039869       0.04441307
H       -5.61502039       5.27577932      -4.53255016       0.00000000       0.00000000      -0.00810194       0.08001886       0.02846060       0.02428942
H       -5.71013822       6.82116994      -5.38495683       0.00000000       0.00000000       0.00938384      -0.06027524       0.10786277       0.04787255
H       -6.35404027       6.68292821      -3.74925579       0.00000000       0.00000000       0.03813871      -0.03150923      -0.04259868       0.04395385
H       -2.95733027       4.27974113       4.41157801       0.00000000       0.00000000       0.01402304       0.02645232       0.02775925       0.07860618
H       -1.78936968       3.11342991       5.03763188       0.00000000       0.00000000      -0.00639066       0.02002255       0.11919072       0.06160460
H       -4.72829007       2.40231655       4.72144868       0.00000000       0.00000000      -0.00138054       0.00183546      -0.04028930       0.05537434
H       -4.08672277       3.25232547       6.10899391       0.00000000       0.00000000       0.01190566       0.01405679       0.05509029       0.07233142
H       -2.33000670       1.18218573       6.04131264       0.00000000       0.00000000       0.04585457      -0.01662249       0.01777856       0.01658036
H       -3.73737485       0.38410128       5.35470255       0.00000000       0.00000000      -0.05311803      -0.05435471      -0.01195838       0.03415331
H       -3.43282637       1.76038822       8.05398836       0.00000000       0.00000000      -0.06667948      -0.00943855      -0.04829030       0.03710432
H       -3.56066323       0.03555698       7.75227820       0.00000000       0.00000000      -0.02945356       0.04259649      -0.05083010       0.04140169
H       -5.76962378       2.11221579       7.43584113       0.00000000       0.00000000      -0.00050380      -0.04375605      -0.04362779       0.03351833
H       -5.58945782       0.92678084       8.71871113       0.00000000       0.00000000      -0.02788565       0.01585748      -0.03124888       0.04760136
H       -6.13472618       0.24989038       5.79614828       0.00000000       0.00000000       0.00688263      -0.02521012      -0.06353312       0.02094124
H       -7.32931594       0.36009990       7.07965898       0.00000000       0.00000000      -0.06909857      -0.01802477      -0.02416682       0.04405575
H       -6.12141023      -1.47337547       8.31418393       0.00000000       0.00000000       0.01916619       0.01971846       0.01426076       0.03998470
H       -5.08544755      -1.69020980       6.90286209       0.00000000       0.00000000       0.03447205       0.01456755       0.00727988       0.01903574
H       -8.12609873      -1.97965317       6.94842949       0.00000000       0.00000000       0.02180905       0.02349488      -0.00302176       0.04433279
H       -6.96209101      -3.29337309       6.85636656       0.00000000       0.00000000       0.01830908      -0.01449356      -0.00480728       0.03928524
H       -7.12321256      -2.16268118       5.51056207       0.00000000       0.00000000       0.01913057       0.01271629      -0.00087639       0.02713193
C       -8.36431653      -3.50759519       1.94167976       0.00000000       0.00000000       0.01115736      -0.01247105      -0.00830384      -0.10822426
C       -6.91387673      -3.97899431       1.96826070       0.00000000       0.00000000       0.00188631      -0.03740113      -0.01887591      -0.05029400
C       -6.74412805      -5.34684768       1.30111849       0.00000000       0.00000000       0.03673409      -0.03805734      -0.03252747      -0.06327262
C       -5.46341202      -6.08802002       1.70342276       0.00000000       0.00000000       0.01777360      -0.00801893      -0.01115130      -0.06799184
C       -4.13414872      -5.37374513       1.39702672       0.00000000       0.00000000       0.00994561       0.05197179      -0.00479289      -0.06055221
C       -3.25555073      -5.98641618       0.29761184       0.00000000       0.00000000      -0.01371367      -0.04841224      -0.02089019      -0.06947083
C       -3.69891058      -5.77175187      -1.16074661       0.00000000       0.00000000       0.01490324       0.02602908      -0.00943187      -0.07457141
C       -2.81443799      -4.82478910      -1.99953210       0.00000000       0.00000000       0.00411832       0.07847040      -0.03229269      -0.02319958
N       -2.88222084      -3.42191856      -1.60241642       0.00000000       0.00000000       0.05084100      -0.02917004      -0.01406557      -0.05565948
C       -4.23346148      -2.85322027      -1.65870077       0.00000000       0.00000000      -0.01626083      -0.04193775       0.04295713      -0.01203482
C       -4.97969166      -3.14742080      -2.96745734       0.00000000       0.00000000      -0.05814297       0.00517646      -0.00738392      -0.07144095
C       -6.31779665      -2.38698918      -3.04311440       0.00000000       0.00000000      -0.01534512       0.03577988       0.00396714      -0.06790599
C       -6.65008341      -1.89471862      -4.45912701       0.00000000       0.00000000       0.01362180       0.02278746       0.02632588      -0.06319565
C       -7.85512660      -0.94591341      -4.46378246       0.00000000       0.00000000      -0.02233037       0.01395862       0.06732301      -0.06424339
C       -7.97418074      -0.09495630      -5.73743776       0.00000000       0.00000000      -0.01193032      -0.01549264       0.05910945      -0.06614487
C       -7.30558535       1.27605719      -5.61014592       0.00000000       0.00000000      -0.00658139       0.01549262       0.01073081      -0.05166154
C       -8.05127639       2.24301242      -4.69468584       0.00000000       0.00000000      -0.00576344       0.00252048      -0.00590422      -0.10678237
C       -1.87222415      -2.65697552      -1.18327368       0.00000000       0.00000000      -0.01975999       0.00285569      -0.05449472       0.25637361
O       -2.05788844      -1.54983342      -0.63609833       0.00000000       0.00000000      -0.04019351      -0.06926298      -0.01731528      -0.38654170
C       -0.40617700      -3.11807342      -1.36939021       0.00000000       0.00000000      -0.01074847      -0.08324413       0.02303988       0.09554218
C       -0.08421624      -4.24877893      -0.39312068       0.00000000       0.00000000       0.00188776      -0.00361432      -0.02260919      -0.13311157
O        0.40032272      -1.96723114      -1.06701223       0.00000000       0.00000000      -0.03221135       0.08131140       0.10518305      -0.23863736
C        1.78319872      -1.93563623      -1.47173694       0.00000000       0.00000000       0.09388184       0.00697812       0.04634343       0.09010771
C        2.70698336      -1.77472273      -0.25425640       0.00000000       0.00000000       0.00536834      -0.09300455       0.03110592      -0.12942241
C        1.91771845      -0.62059195      -2.25846716       0.00000000       0.00000000       0.04305798       0.07674805      -0.06021323       0.25586418
O        1.45364202       0.38242296      -1.69304782       0.00000000       0.00000000      -0.00428707       0.01042057       0.02947218      -0.38971559
N        2.44921676      -0.55991078      -3.47506150       0.00000000       0.00000000       0.01741373       0.01099336      -0.03542308      -0.06256790
C        2.07376130       0.59167280      -4.29616155       0.00000000       0.00000000      -0.00988646      -0.03083842       0.01358595      -0.00180481
C        2.84938653       1.89464183      -4.07586249       0.00000000       0.00000000      -0.01310049      -0.04386940       0.05129622      -0.06438603
C        2.33104366       2.94478549      -5.06025688       0.00000000       0.00000000      -0.01280155       0.01258189      -0.00590141      -0.06240385
C        2.96269602       4.33660157      -4.94664594       0.00000000       0.00000000       0.01763507       0.01654939       0.00718736      -0.06762676
C        2.30315532       5.26439614      -3.91690447       0.00000000       0.00000000      -0.01281861      -0.00441498       0.01013339      -0.06358199
C        2.97241508       5.30204638      -2.53944094       0.00000000       0.00000000       0.00214243      -0.00704745      -0.01884181      -0.05316775
C        4.25753430       6.13057676      -2.54374517       0.00000000       0.00000000       0.00516687      -0.01096855       0.01420483      -0.06092851
C        4.86757648       6.24895707      -1.15222791       0.00000000       0.00000000       0.00715683      -0.00579460       0.00054742      -0.10458185
C        3.33177795      -1.56366542      -4.05492003       0.00000000       0.00000000      -0.00378094      -0.01841221       0.01264603      -0.01346299
C        4.65926760      -0.96782397      -4.54152301       0.00000000       0.00000000      -0.05150509      -0.01555224      -0.00128478      -0.07413257
C        5.52691651      -0.38935149      -3.41449155       0.00000000       0.00000000      -0.00993402      -0.00210797      -0.00789651      -0.06312660
C        6.53412290      -1.39845974      -2.85657529       0.00000000       0.00000000      -0.00658786      -0.00703014       0.01816445      -0.06347810
C        7.60296550      -0.75568946      -1.96721810       0.00000000       0.00000000       0.00886846      -0.02130321      -0.05509831      -0.06648545
C        7.06950213      -0.26538926      -0.62216986       0.00000000       0.00000000      -0.01396798      -0.02961552      -0.10932414      -0.05617891
C        8.16591535       0.32066625       0.27199077       0.00000000       0.00000000      -0.03376657      -0.04429375      -0.02392330      -0.05897050
C        8.58901028       1.72585662      -0.13683949       0.00000000       0.00000000       0.00847284      -0.00494811      -0.01339913      -0.10636874
H       -8.44881847      -2.50062898       2.34508756       0.00000000       0.00000000       0.00830488      -0.00538735      -0.00091452       0.03424547
H       -8.98589345      -4.16486079       2.54402836       0.00000000       0.00000000       0.00190637      -0.00226904      -0.03063486       0.04750655
H       -8.75407924      -3.50501962       0.92605727       0.00000000       0.00000000       0.01726801       0.00015254       0.00007713       0.03712052
H       -6.58555232      -4.04536734       3.00862180       0.00000000       0.00000000       0.01605189       0.00019092      -0.01800060       0.03213195
H       -6.29209438      -3.23581476       1.45922371       0.00000000       0.00000000      -0.00706249      -0.01564068       0.01666240       0.01188306
H       -6.80544130      -5.23594679       0.21569708       0.00000000       0.00000000       0.03256384       0.01081572      -0.00373002       0.02391391
H       -7.58112707      -5.97678047       1.60623951       0.00000000       0.00000000      -0.01078037      -0.00568045      -0.03031829       0.04907531
H       -5.46679253      -7.07266617       1.23440066       0.00000000       0.00000000       0.00193553       0.01353940      -0.04726014       0.04436131
H       -5.51718261      -6.25344356       2.78138196       0.00000000       0.00000000      -0.01091675      -0.02600123      -0.01323963       0.04087144
H       -4.32545361      -4.32596878       1.17746721       0.00000000       0.00000000       0.00492101       0.09212671      -0.05541826       0.02988836
H       -3.52880082      -5.40157828       2.30731275       0.00000000       0.00000000      -0.02284734       0.05346435      -0.04553118       0.02804780
H       -3.18348125      -7.05698971       0.49101656       0.00000000       0.00000000      -0.02046661      -0.01425751      -0.00448276       0.05214427
H       -2.25552765      -5.57690669       0.42365255       0.00000000       0.00000000       0.06462084      -0.01320530       0.00355291       0.02623201
H       -4.73413406      -5.44434060      -1.17843195       0.00000000       0.00000000      -0.05257960       0.01749909      -0.01125572       0.06932155
H       -3.65755148      -6.72563563      -1.68941057       0.00000000       0.00000000      -0.04411000       0.00202066       0.03464762       0.06208817
H       -3.13001425      -4.88802117      -3.04373331       0.00000000       0.00000000      -0.04847988      -0.03672521      -0.00464027       0.07244646
H       -1.79032837      -5.17390770      -1.95987492       0.00000000       0.00000000       0.05215342       0.00215352       0.00329352       0.05854537
H       -4.12335354      -1.77714341      -1.54957613       0.00000000       0.00000000       0.02808994      -0.01012551       0.02343135       0.07053504
H       -4.81077734      -3.21578670      -0.80663807       0.00000000       0.00000000      -0.08693706      -0.04973903       0.00073813       0.07308292
H       -5.18528610      -4.21167542      -3.05872829       0.00000000       0.00000000       0.00099481      -0.00498943      -0.04080960       0.05676814
H       -4.35495508      -2.85570101      -3.81520877       0.00000000       0.00000000       0.04221204       0.02325442       0.03393518       0.03905746
H       -6.28454632      -1.52802196      -2.37035943       0.00000000       0.00000000       0.00849531      -0.01123155      -0.01077178       0.03620352
H       -7.12978405      -3.02496193      -2.69275796       0.00000000       0.00000000       0.03039924      -0.01015383      -0.00032150       0.04920127
H       -6.85727869      -2.74671535      -5.10912463       0.00000000       0.00000000       0.02083975       0.01817768       0.03657678       0.04348471
H       -5.78141498      -1.37805059      -4.87572470       0.00000000       0.00000000       0.01066788       0.03833005       0.03475040       0.02578984
H       -7.77766348      -0.27563325      -3.60513549       0.00000000       0.00000000      -0.03149451      -0.01185775       0.01858344       0.03292206
H       -8.76711580      -1.52646015      -4.32848002       0.00000000       0.00000000       0.02314226      -0.05463482      -0.00607304       0.04212833
H       -9.02638146       0.06145981      -5.97417635       0.00000000       0.00000000      -0.00889414      -0.00180696       0.02387359       0.04961318
H       -7.53252246      -0.63239699      -6.57807264       0.00000000       0.00000000       0.00499057      -0.02934955       0.00997175       0.03765290
H       -6.28602845       1.14550886      -5.23678083       0.00000000       0.00000000      -0.00503082       0.02120358      -0.01402999       0.01097489
H       -7.23810265       1.72799012      -6.60119717       0.00000000       0.00000000       0.00971014      -0.02939948      -0.00645348       0.03796549
H       -9.06493139       2.40100590      -5.05369025       0.00000000       0.00000000       0.02597047      -0.02753154      -0.00845305       0.04949873
H       -7.54691359       3.20813762      -4.68006679       0.00000000       0.00000000      -0.01593863      -0.02247499       0.01282929       0.03068852
H       -8.10829992       1.87268947      -3.67241071       0.00000000       0.00000000       0.00600108       0.00028627      -0.04249009       0.02986006
H       -0.25303191      -3.42146015      -2.41490099       0.00000000       0.00000000       0.05475544       0.01678510       0.02001651       0.06366069
H       -0.64498342      -4.10710510       0.52951940       0.00000000       0.00000000       0.03548280       0.03060476      -0.03170012       0.07173778
H        0.97723489      -4.22864230      -0.18207191       0.00000000       0.00000000       0.00103427       0.01446115      -0.00908133       0.08799167
H       -0.29929482      -5.22963283      -0.80315832       0.00000000       0.00000000      -0.03873026       0.02131417       0.04776410       0.07380458
H        2.01074748      -2.82575655      -2.05675343       0.00000000       0.00000000       0.04039420      -0.07387385      -0.06032803       0.06699266
H        2.64920583      -0.74294186       0.11334446       0.00000000       0.00000000      -0.05832893      -0.03372879      -0.02209894       0.09518187
H        3.74317246      -1.98064545      -0.52644696       0.00000000       0.00000000      -0.08811907       0.01511720      -0.03458342       0.07456043
H        2.40482802      -2.44153823       0.54738241       0.00000000       0.00000000       0.06179566      -0.01617452      -0.02544201       0.09170342
H        1.02171615       0.78704439      -4.05974062       0.00000000       0.00000000       0.00308544      -0.01079176      -0.07984654       0.05163817
H        2.13917460       0.28429706      -5.34245706       0.00000000       0.00000000       0.05788791       0.01562226       0.05601761       0.06988547
H        3.91543806       1.74223184      -4.23135321       0.00000000       0.00000000       0.00648039       0.00969206      -0.01898433       0.05685148
H        2.70372455       2.21889337      -3.04498340       0.00000000       0.00000000      -0.01665571       0.01381394       0.03527137       0.03738259
H        1.24856217       3.03716551      -4.94873465       0.00000000       0.00000000      -0.02029983       0.00719733      -0.01201744       0.03099970
H        2.51605508       2.57179061      -6.06815316       0.00000000       0.00000000       0.01702866      -0.02174781      -0.02815194       0.04402842
H        2.87190029       4.81206263      -5.92403677       0.00000000       0.00000000       0.00910644      -0.01962044       0.01309919       0.05297389
H        4.02620426       4.23636211      -4.73664708       0.00000000       0.00000000       0.03445296       0.01617445       0.01146668       0.04896168
H        1.25216884       4.97866320      -3.81192329       0.00000000       0.00000000       0.01191863      -0.00905839       0.01484116       0.01915098
H        2.31280866       6.28352300      -4.30725962       0.00000000       0.00000000      -0.01502200      -0.02274238       0.00148802       0.04998256
H        3.19560649       4.28799125      -2.19146467       0.00000000       0.00000000      -0.00526255       0.01187143      -0.01889347       0.01116469
H        2.27649090       5.75934086      -1.82663566       0.00000000       0.00000000       0.01401655      -0.01052027      -0.00222719       0.01286452
H        4.03132562       7.12996885      -2.91847147       0.00000000       0.00000000       0.01273608      -0.01699894      -0.00292095       0.04701073
H        4.98692883       5.68167006      -3.21925680       0.00000000       0.00000000      -0.02198712       0.00153711       0.00952092       0.04244543
H        4.18062236       6.75664663      -0.47538268       0.00000000       0.00000000       0.02040519      -0.01074636      -0.01024296       0.02711426
H        5.78638331       6.82695460      -1.19106009       0.00000000       0.00000000      -0.01004097      -0.00532746      -0.00491695       0.05438586
H        5.10242406       5.26433297      -0.74836376       0.00000000       0.00000000       0.00613234       0.01641275      -0.00958888       0.02181848
H        2.82515677      -2.05018908      -4.89657599       0.00000000       0.00000000       0.00882032       0.05094255       0.01275638       0.06458814
H        3.55644250      -2.31455710      -3.29894370       0.00000000       0.00000000      -0.00745937      -0.02125265      -0.01918624       0.05783782
H        4.45708799      -0.20966680      -5.29657385       0.00000000       0.00000000      -0.00184127       0.02377517       0.02057992       0.05853795
H        5.20678230      -1.76744636      -5.04205477       0.00000000       0.00000000      -0.00580225      -0.00316828       0.00157957       0.06862990
H        4.88600632      -0.01939201      -2.61039815       0.00000000       0.00000000      -0.01524348       0.00643467      -0.00931732       0.02428273
H        6.08624972       0.46240588      -3.80314019       0.00000000       0.00000000       0.03450860      -0.01145553      -0.02720484       0.05003993
H        7.04139227      -1.88121463      -3.69502360       0.00000000       0.00000000      -0.02357119       0.02092517       0.03826618       0.04702787
H        6.01141176      -2.17535580      -2.29180971       0.00000000       0.00000000       0.00735985      -0.03003747      -0.01754377       0.02010596
H        8.05031516       0.07836651      -2.50935141       0.00000000       0.00000000       0.01864554      -0.01264094       0.01770085       0.04579827
H        8.39008297      -1.49039137      -1.78658617       0.00000000       0.00000000      -0.02430575       0.01448861       0.00990056       0.04673950
H        6.59716804      -1.10758371      -0.10563038       0.00000000       0.00000000       0.00997322       0.02546787      -0.00167202       0.01623811
H        6.30456626       0.49421799      -0.80512158       0.00000000       0.00000000      -0.01699279      -0.00325418       0.04280433       0.01857856
H        9.03575043      -0.33519831       0.24430665       0.00000000       0.00000000       0.01314748      -0.02492039       0.00495696       0.04591444
H        7.80925797       0.33947431       1.30418370       0.00000000       0.00000000      -0.00985101       0.01335858       0.03332621       0.02695909
H        9.01709695       1.72839890      -1.13415024       0.00000000       0.00000000      -0.00112462      -0.00238473      -0.03040792       0.04482903
H        9.34431867       2.09979906       0.54820268       0.00000000       0.00000000       0.00766042       0.02113599       0.01421375       0.04603367
H        7.74246067       2.41180579      -0.12404655       0.00000000       0.00000000      -0.00247313      -0.00784541      -0.00739627       0.02311543
C       -0.58450701       4.27553830      -9.71630226       0.00000000       0.00000000      -0.00095887       0.00310439      -0.01034837      -0.10940460
C       -0.08575871       4.54894103      -8.30262286       0.00000000       0.00000000      -0.00553275       0.01584760      -0.02435337      -0.05539006
C       -0.82380967       3.71571315      -7.25546665       0.00000000       0.00000000       0.00819702      -0.03169261      -0.01239686      -0.05878656
C       -0.61317276       2.21545619      -7.44709990       0.00000000       0.00000000      -0.01461222      -0.02126853      -0.00866504      -0.06496301
C       -1.18016892       1.37790180      -6.30271661       0.00000000       0.00000000       0.01543632      -0.00773730       0.01604015      -0.05750784
C       -2.67294652       1.61281979      -6.06587140       0.00000000       0.00000000       0.04072978       0.01993862      -0.03815798      -0.06602205
C       -3.34631953       0.43191227      -5.37380033       0.00000000       0.00000000       0.03289301      -0.02021182      -0.00611590      -0.07060914
C       -2.72871393       0.08647642      -4.02177458       0.00000000       0.00000000       0.04257416       0.00671906       0.04393290      -0.00293851
N       -2.63184061       1.25849978      -3.14008418       0.00000000       0.00000000      -0.03095470       0.04682228      -0.01221115      -0.07892676
C       -3.90975986       1.89326736      -2.82761601       0.00000000       0.00000000      -0.01328022       0.10773866      -0.02246835      -0.00814061
C       -4.85751683       0.83413515      -2.24120345       0.00000000       0.00000000       0.01166016       0.01163649      -0.00705966      -0.07359842
C       -5.85415502       1.37468283      -1.21636847       0.00000000       0.00000000      -0.04561244      -0.00855383       0.01165638      -0.06502977
C       -5.26935553       1.30175243       0.19459391       0.00000000       0.00000000      -0.05544213      -0.01212007      -0.03353856      -0.06591130
C       -5.14174610      -0.11919071       0.75864647       0.00000000       0.00000000      -0.00739902      -0.01240967      -0.00563100      -0.06622028
C       -4.85727385      -0.08190369       2.26295216       0.00000000       0.00000000      -0.01066763       0.04811264      -0.01112704      -0.06067880
C       -4.22784832      -1.34201503       2.86229448       0.00000000       0.00000000      -0.05630134       0.02395550       0.00261631      -0.05833390
C       -2.90978832      -1.72854434       2.19624836       0.00000000       0.00000000       0.00098171      -0.03791358      -0.00065199      -0.10483523
C       -1.55940968       1.26634276      -2.32703406       0.00000000       0.00000000       0.00791766      -0.00796151      -0.04463182       0.26173232
O       -0.96762362       0.20250762      -2.08439363       0.00000000       0.00000000       0.01558986      -0.07029690       0.05412804      -0.38488984
C       -0.77850012       2.54410522      -1.94655495       0.00000000       0.00000000       0.00895862      -0.00707901      -0.01123529       0.09505579
C       -1.40435730       3.84649174      -2.40672739       0.00000000       0.00000000       0.00189771       0.01783324      -0.01328260      -0.13575532
O       -0.41986797       2.46302359      -0.55352334       0.00000000       0.00000000      -0.04850108       0.00345212       0.03590313      -0.25064626
C        0.55744020       3.42710766      -0.10494872       0.00000000       0.00000000      -0.04454574       0.02002624       0.03141943       0.09076335
C       -0.16557968       4.64333100       0.48573371       0.00000000       0.00000000      -0.03410465      -0.01690672      -0.02059102      -0.13081215
C        1.62805174       2.67709123       0.74986189       0.00000000       0.00000000       0.04434398      -0.01206629      -0.11307414       0.25801739
O        1.59127211       1.43062303       0.74110330       0.00000000       0.00000000      -0.07531417       0.10767304       0.02707771      -0.36797518
N        2.67886885       3.32148611       1.30732920       0.00000000       0.00000000      -0.01728513       0.00632123       0.00440783      -0.09388712
C        2.65733567       4.70519042       1.79570162       0.00000000       0.00000000      -0.03979931      -0.00799893      -0.06392528      -0.02391640
C        3.37214909       4.90683996       3.15073147       0.00000000       0.00000000       0.01559309      -0.04567656      -0.06366403      -0.08218829
C        2.43585439       4.98603545       4.37437407       0.00000000       0.00000000      -0.01916877      -0.00378795      -0.01146341      -0.06924642
C        2.80775995       3.97573410       5.46472838       0.00000000       0.00000000      -0.01153020       0.00304396       0.01706593      -0.06849997
C        1.76213603       3.82716281       6.57977617       0.00000000       0.00000000      -0.00160090       0.00371585       0.02502232      -0.06708958
C        1.75381063       2.41933122       7.18335238       0.00000000       0.00000000       0.02103279       0.02159850       0.02327120      -0.05736460
C        0.59226526       2.18521214       8.14677655       0.00000000       0.00000000      -0.00183343      -0.00379626       0.02184448      -0.05760088
C        0.51301312       0.72448362       8.57638555       0.00000000       0.00000000       0.01380867      -0.01584937      -0.00094334      -0.10418517
C        4.03303824       2.82909664       0.95705678       0.00000000       0.00000000      -0.05069954       0.03958779      -0.03728029      -0.00165145
C        4.64203754       1.59693615       1.62733653       0.00000000       0.00000000      -0.04209775       0.01443254      -0.03847809      -0.07564327
C        5.19134952       1.73955840       3.04660223       0.00000000       0.00000000      -0.00975473      -0.00522528       0.02508746      -0.06553536
C        6.40588807       2.66545229       3.13247633       0.00000000       0.00000000       0.02559080       0.01642470      -0.01425172      -0.06751446
C        7.11598136       2.62188841       4.48782142       0.00000000       0.00000000       0.03076702      -0.01329435      -0.00999067      -0.06591428
C        6.32423266       3.26928548       5.62169762       0.00000000       0.00000000       0.00091048      -0.00058298       0.00245189      -0.06069500
C        7.15495136       3.43733520       6.89256006       0.00000000       0.00000000      -0.00757890       0.01046719       0.02620973      -0.05840028
C        6.35975296       4.11511223       8.00473725       0.00000000       0.00000000       0.00385881      -0.00814159      -0.00820841      -0.10489299
H       -0.13268613       4.96732804     -10.42168123       0.00000000       0.00000000       0.00464531       0.01076420       0.02607532       0.04687072
H       -1.66470893       4.39534862      -9.76457332       0.00000000       0.00000000       0.01443451       0.01070529      -0.02262895       0.04011340
H       -0.33258393       3.26613784     -10.03008270       0.00000000       0.00000000      -0.00085389       0.01196053      -0.02400834       0.03764449
H       -0.23538399       5.60449402      -8.07057478       0.00000000       0.00000000      -0.00010539       0.03150254       0.00090431       0.03622706
H        0.98718277       4.34957260      -8.24746746       0.00000000       0.00000000      -0.01716623      -0.02793911       0.00979650       0.02872995
H       -1.88981994       3.94002479      -7.31971128       0.00000000       0.00000000       0.01374733       0.03004493       0.01426626       0.03671104
H       -0.47836539       4.00602275      -6.25866812       0.00000000       0.00000000       0.01018707       0.01265428       0.00161692       0.01356743
H        0.45622381       2.00809561      -7.53598632       0.00000000       0.00000000      -0.01437618       0.02623029      -0.00377887       0.03229628
H       -1.08708698       1.89870373      -8.37537983       0.00000000       0.00000000      -0.01556639       0.01701075      -0.00276609       0.05032317
H       -0.62848254       1.60321245      -5.38606574       0.00000000       0.00000000      -0.00102962       0.00753397       0.04183102       0.00552729
H       -1.01616952       0.32305484      -6.53465776       0.00000000       0.00000000      -0.00074791      -0.01296675      -0.03535659       0.02929670
H       -3.17327097       1.76838648      -7.02046734       0.00000000       0.00000000       0.01655611      -0.01898459      -0.07353981       0.06064304
H       -2.80728857       2.51974409      -5.47607269       0.00000000       0.00000000      -0.02194534       0.02910920      -0.01279147       0.03102726
H       -3.24155995      -0.44967392      -6.00805622       0.00000000       0.00000000       0.00474766      -0.04622760      -0.00327862       0.05586837
H       -4.41337117       0.62514040      -5.27956023       0.00000000       0.00000000      -0.00800002       0.04345191       0.04881109       0.05549924
H       -1.70726099      -0.26092237      -4.18010890       0.00000000       0.00000000       0.02245817      -0.04539081       0.02581229       0.05860757
H       -3.28571756      -0.72804556      -3.55285665       0.00000000       0.00000000       0.01621249       0.05003710      -0.00083609       0.05606056
H       -4.34038875       2.32520837      -3.73513834       0.00000000       0.00000000       0.07310920       0.03051853       0.08782799       0.07804990
H       -3.75871446       2.68631718      -2.09700512       0.00000000       0.00000000       0.07309853      -0.05380787      -0.02184317       0.05928115
H       -4.23731756       0.10739974      -1.71897555       0.00000000       0.00000000       0.03910083      -0.03041193      -0.05077452       0.04735880
H       -5.38050177       0.32885728      -3.04994933       0.00000000       0.00000000      -0.00452186       0.07662589      -0.01368582       0.06502536
H       -6.10712222       2.40699518      -1.46424154       0.00000000       0.00000000      -0.05478467      -0.01013320       0.04639955       0.04618049
H       -6.77945676       0.79335500      -1.24732970       0.00000000       0.00000000       0.07034920       0.04102451      -0.03554445       0.05153674
H       -5.88982376       1.89718696       0.86490784       0.00000000       0.00000000      -0.05026521      -0.01713180      -0.00778754       0.03866602
H       -4.27068464       1.73886405       0.16405126       0.00000000       0.00000000      -0.02772753      -0.00316415       0.02174724       0.02852899
H       -4.31566001      -0.62411817       0.25919604       0.00000000       0.00000000       0.01090589      -0.00572720       0.04874711       0.04009236
H       -6.05893538      -0.67697012       0.56429777       0.00000000       0.00000000      -0.00305765      -0.02707981       0.02899946       0.04110601
H       -5.78985500       0.13067716       2.78934563       0.00000000       0.00000000       0.03066428       0.02793932       0.04375051       0.03956086
H       -4.16474325       0.73953280       2.45124202       0.00000000       0.00000000      -0.02025390       0.02473446       0.02544800       0.02201890
H       -4.91870990      -2.18167855       2.81113428       0.00000000       0.00000000      -0.03545830       0.00877018      -0.03158401       0.05307718
H       -4.05655492      -1.14143106       3.92206391       0.00000000       0.00000000       0.01949339      -0.02878470       0.01750083       0.03241567
H       -3.09658270      -2.30770101       1.29741917       0.00000000       0.00000000      -0.01358514      -0.00775956      -0.00102454       0.04866376
H       -2.30030380      -2.33901279       2.85589571       0.00000000       0.00000000      -0.04723225      -0.01561062       0.06273913       0.04462452
H       -2.33586176      -0.83495197       1.91667116       0.00000000       0.00000000       0.01184006      -0.02455736       0.00164551       0.07292567
H        0.15452525       2.39374348      -2.52200502       0.00000000       0.00000000       0.01393632       0.01118919      -0.03669422       0.08570105
H       -2.23532605       4.13947715      -1.77277274       0.00000000       0.00000000       0.08192932       0.01992189      -0.04789990       0.07158803
H       -1.76841378       3.70656863      -3.42297218       0.00000000       0.00000000      -0.00323101       0.07916155       0.04939573       0.07469265
H       -0.66513846       4.64619479      -2.42659783       0.00000000       0.00000000      -0.07939203      -0.01108020       0.03626190       0.06927379
H        1.15067989       3.75118600      -0.97753168       0.00000000       0.00000000      -0.03304431      -0.01519312       0.02888448       0.07942446
H       -1.08904364       4.79110128      -0.06592420       0.00000000       0.00000000      -0.00958885      -0.02210399       0.04263234       0.08965645
H        0.41506151       5.55545906       0.37001176       0.00000000       0.00000000       0.00165162      -0.07496938       0.05439064       0.07045353
H       -0.43178138       4.48894125       1.52955719       0.00000000       0.00000000       0.07168760      -0.02578450      -0.04603571       0.05492741
H        1.62806511       5.01223749       1.92160867       0.00000000       0.00000000      -0.03245815       0.01830038       0.00338428       0.06584672
H        3.11707181       5.34369628       1.03597583       0.00000000       0.00000000       0.02570808       0.02651817       0.01627046       0.06044466
H        3.95528170       5.82542201       3.08475754       0.00000000       0.00000000      -0.04392251      -0.01379901      -0.00294614       0.06081823
H        4.07726809       4.09990965       3.31464221       0.00000000       0.00000000       0.02172156      -0.02893217      -0.04187952       0.07797652
H        1.40731058       4.81173761       4.06030218       0.00000000       0.00000000      -0.03551687       0.00883244       0.00236889       0.02448514
H        2.46790625       5.98948408       4.79485703       0.00000000       0.00000000       0.00048053       0.02082961       0.03441917       0.05309306
H        3.75583281       4.26942132       5.91028365       0.00000000       0.00000000      -0.00124209      -0.00037291      -0.01084363       0.05855215
H        2.96098183       3.00110877       4.99398787       0.00000000       0.00000000       0.00589103       0.01955482      -0.00780267       0.02152059
H        0.76333142       4.05951088       6.20118203       0.00000000       0.00000000       0.02137157      -0.01340215      -0.03521338       0.02195420
H        1.97060007       4.54252680       7.37388253       0.00000000       0.00000000      -0.02795265       0.03245238      -0.00453476       0.05177219
H        2.69395808       2.24385634       7.70634439       0.00000000       0.00000000       0.03699978       0.02111084       0.02546131       0.04259646
H        1.68886349       1.66407938       6.39228101       0.00000000       0.00000000       0.02640095       0.02036138      -0.02427315       0.00637862
H       -0.34877213       2.47318465       7.67047316       0.00000000       0.00000000      -0.00591500       0.01879552      -0.02199438       0.02155508
H        0.72016412       2.81509162       9.02490964       0.00000000       0.00000000      -0.00135255       0.02419556       0.03797279       0.04883258
H        0.29370464       0.08006570       7.72463561       0.00000000       0.00000000      -0.00048113      -0.00447238      -0.01255599       0.01450671
H       -0.26703927       0.57925541       9.31807702       0.00000000       0.00000000       0.00009810       0.02813172      -0.00480352       0.04928509
H        1.45793144       0.40605478       9.00930736       0.00000000       0.00000000      -0.00705954      -0.00021890       0.02707268       0.04393230
H        4.69833491       3.67839349       1.09972368       0.00000000       0.00000000       0.03080974      -0.02306584       0.01260987       0.08347119
H        3.98402204       2.60861993      -0.11503869       0.00000000       0.00000000       0.08938588      -0.01883327      -0.02712874       0.04199392
H        5.48966181       1.32091919       1.00008825       0.00000000       0.00000000       0.00131005      -0.00308988      -0.06563811       0.06777366
H        3.92839855       0.77744513       1.56829004       0.00000000       0.00000000      -0.03836452      -0.02677692       0.02227189       0.04121958
H        5.50612471       0.74438117       3.36582758       0.00000000       0.00000000       0.01741027      -0.03184484       0.03636868       0.03892398
H        4.41541773       2.06375690       3.73582440       0.00000000       0.00000000      -0.05407474       0.05229441       0.03558318       0.03354666
H        6.12132612       3.69828006       2.93075175       0.00000000       0.00000000      -0.01314568       0.04653170      -0.01982677       0.03231448
H        7.11810562       2.37404015       2.36008353       0.00000000       0.00000000       0.02907935      -0.03994037       0.00455699       0.04470414
H        8.06396538       3.15133678       4.38521754       0.00000000       0.00000000       0.01767857       0.00762657       0.00246516       0.04717040
H        7.34691267       1.58753624       4.74762398       0.00000000       0.00000000       0.01363586      -0.02022897       0.00283773       0.03488300
H        5.44716753       2.66226371       5.85568432       0.00000000       0.00000000      -0.00847793      -0.01867734      -0.00968781       0.02239629
H        5.98282098       4.25599203       5.29918033       0.00000000       0.00000000       0.00288229       0.01219947      -0.02129192       0.02977367
H        8.03752617       4.03818088       6.66724703       0.00000000       0.00000000      -0.00020844      -0.01455016       0.00545721       0.04025114
H        7.49673044       2.45895093       7.23557952       0.00000000       0.00000000       0.00906264       0.00367633      -0.00602019       0.03492669
H        6.02914897       5.10576546       7.69426618       0.00000000       0.00000000       0.01460276      -0.04632742       0.00567426       0.03447621
H        6.97539782       4.22783181       8.89389637       0.00000000       0.00000000      -0.02620726      -0.00781243      -0.03934014       0.04816926
H        5.48291822       3.52514152       8.27096017       0.00000000       0.00000000       0.02914367       0.01810792      -0.01818864       0.02794550
