358
Properties=species:S:1:pos:R:3:initial_charges:R:1:initial_magmoms:R:1:forces:R:3:charge:R:1 energy=-11488.613112809573 free_energy=-11488.613112809573 dipole="-0.6931845489981656 1.1576676433406938 0.07815124576476265" pbc="F F F"
Eu      -0.72180223      -0.34344917       0.09643273       3.00000000       0.00000000      -0.02427795       0.03705494      -0.05042164       0.84479399
C       -3.77955489      -3.94363846      -1.92214117       0.00000000       0.00000000      -0.00253241      -0.03370403       0.01312819      -0.10928603
C       -5.09736438      -3.26938261      -2.26921517       0.00000000       0.00000000      -0.04181144      -0.05198285       0.04261589      -0.04956255
C       -6.33622344      -4.08508643      -1.90111613       0.00000000       0.00000000      -0.02882125      -0.02847616      -0.06771501      -0.06353281
C       -6.52117807      -4.42176429      -0.41779812       0.00000000       0.00000000       0.02947486      -0.01608610      -0.07336257      -0.06508429
C       -6.84636545      -3.22620123       0.48278881       0.00000000       0.00000000       0.03800874       0.00098820       0.00085028      -0.06357572
C       -5.64934042      -2.50556856       1.10905899       0.00000000       0.00000000       0.04964478       0.07610347       0.09860521      -0.07027397
C       -6.13942919      -1.25921535       1.84615788       0.00000000       0.00000000       0.06608180       0.12444636      -0.07621411      -0.06842727
C       -5.05297821      -0.32911093       2.42361532       0.00000000       0.00000000      -0.02160663      -0.01775103       0.07939381      -0.01157900
N       -4.03979310      -0.93350428       3.28586263       0.00000000       0.00000000      -0.02458881      -0.10221821       0.10977515      -0.06212245
C       -4.44148010      -1.20412299       4.67150835       0.00000000       0.00000000       0.00171400      -0.03253191       0.13673840      -0.01898592
C       -5.53646701      -2.24320857       4.89721665       0.00000000       0.00000000       0.02562656      -0.11109371      -0.03141672      -0.07380955
C       -5.05691240      -3.68655571       4.68182428       0.00000000       0.00000000       0.02489552      -0.05956598       0.01302554      -0.06217439
C       -4.75134104      -4.46236680       5.97070718       0.00000000       0.00000000       0.00703579      -0.00013287      -0.01529052      -0.06919737
C       -3.41596051      -4.11211171       6.64601296       0.00000000       0.00000000      -0.03190209       0.00485185       0.02170587      -0.06116717
C       -3.51881474      -3.03621364       7.73399926       0.00000000       0.00000000      -0.01544664      -0.03858444      -0.04935313      -0.06738244
C       -2.14674359      -2.47808791       8.11430322       0.00000000       0.00000000      -0.06299802      -0.06053502      -0.04782773      -0.04966220
C       -2.25653759      -1.35127241       9.13030853       0.00000000       0.00000000       0.00141498       0.00236415      -0.00100317      -0.10817857
C       -2.74874075      -0.82215239       2.95997304       0.00000000       0.00000000       0.02691593      -0.00704171      -0.15595527       0.26998513
O       -2.31470630      -0.10527957       2.03801947       0.00000000       0.00000000      -0.03941749      -0.06185071      -0.02985975      -0.39899077
C       -1.77316573      -1.67890377       3.78411489       0.00000000       0.00000000      -0.12031555       0.08620418      -0.04363421      -0.02615626
N       -0.46538626      -1.82652601       3.18258249       0.00000000       0.00000000      -0.00733550       0.04486951       0.02577360      -0.06766912
C        0.68010690      -1.24062770       3.84485378       0.00000000       0.00000000       0.06827597       0.08614001       0.03420408      -0.03736741
C        1.12595653       0.03339695       3.08447598       0.00000000       0.00000000      -0.04737395      -0.01325456       0.05348997       0.26180719
O        0.58161867       0.27923693       1.99142370       0.00000000       0.00000000       0.00976260      -0.04560670       0.04775479      -0.37014802
N        2.03093034       0.82466666       3.65691951       0.00000000       0.00000000      -0.05857135       0.01586315       0.02563797      -0.04906979
C        2.21074565       2.15843803       3.07188581       0.00000000       0.00000000       0.01137378      -0.00405221       0.01708406      -0.00985965
C        3.65681716       2.63490703       3.02944497       0.00000000       0.00000000       0.13758754       0.04104860      -0.06981519      -0.07885358
C        4.33099913       2.30917966       1.69998777       0.00000000       0.00000000       0.06621621      -0.02531516       0.01228505      -0.06159685
C        5.86233135       2.31826117       1.79393118       0.00000000       0.00000000      -0.01426288      -0.05107039      -0.03692702      -0.07020243
C        6.50332138       1.32006684       0.81188716       0.00000000       0.00000000      -0.00482299       0.02793431      -0.02733185      -0.05861883
C        7.38242195       1.93131823      -0.28296977       0.00000000       0.00000000       0.01408849       0.01268554       0.00383876      -0.06567637
C        6.77318613       3.16826714      -0.94640888       0.00000000       0.00000000       0.00142221       0.01716684      -0.04280004      -0.05258156
C        7.25026984       3.35068852      -2.38174521       0.00000000       0.00000000       0.01431683      -0.00015455      -0.04322943      -0.11048510
C        2.57336402       0.62563425       5.00319726       0.00000000       0.00000000      -0.00518733      -0.02577777      -0.01001476      -0.02381491
C        3.68715459      -0.42092661       5.20273856       0.00000000       0.00000000       0.04418670      -0.03821259      -0.03571745      -0.07229759
C        5.08880950      -0.08536706       4.67807023       0.00000000       0.00000000       0.04909200      -0.00383038      -0.00095875      -0.06483031
C        6.12663723      -1.07117347       5.23701867       0.00000000       0.00000000      -0.01966892      -0.04028504       0.00177593      -0.06719135
C        7.50364843      -1.03557554       4.55309554       0.00000000       0.00000000      -0.02018282       0.02263244       0.01351179      -0.06525868
C        7.56112391      -1.88250125       3.27925572       0.00000000       0.00000000      -0.04269481       0.02470962       0.01671113      -0.05704679
C        8.96868619      -2.12954115       2.71872758       0.00000000       0.00000000      -0.02059969      -0.00081191       0.03843508      -0.06056559
C        9.40116777      -1.11289543       1.66989276       0.00000000       0.00000000       0.00313721       0.01963877       0.01354924      -0.10345583
C       -0.35064278      -2.25726954       1.89822930       0.00000000       0.00000000       0.01414717       0.05622681       0.12539092       0.29115822
C        1.01106133      -2.69843160       1.49526169       0.00000000       0.00000000      -0.01818605      -0.01887853      -0.07961827      -0.18089218
O       -1.32009939      -2.35476543       1.13578323       0.00000000       0.00000000       0.03979845       0.01519286      -0.06395488      -0.36804060
H       -2.95020804      -3.30960262      -2.22860702       0.00000000       0.00000000      -0.03449545      -0.04204426       0.02133194       0.02915913
H       -3.69808383      -4.09793572      -0.84893467       0.00000000       0.00000000       0.00121428      -0.01605024      -0.04246181       0.04579997
H       -3.69813520      -4.90818655      -2.41869682       0.00000000       0.00000000      -0.00266314       0.03909768       0.02448775       0.04195996
H       -5.12922125      -2.31274207      -1.75382874       0.00000000       0.00000000      -0.02540129       0.02551907      -0.00531694       0.01407623
H       -5.13415400      -3.07119471      -3.34465318       0.00000000       0.00000000       0.01143213      -0.00054179      -0.00360546       0.01777622
H       -7.21881096      -3.53564570      -2.24483026       0.00000000       0.00000000       0.01920656      -0.05228739       0.02465332       0.03302997
H       -6.30375529      -5.02123367      -2.46426690       0.00000000       0.00000000       0.00045843       0.00957809       0.05733873       0.04350709
H       -7.36768173      -5.10846728      -0.36991986       0.00000000       0.00000000       0.01846500      -0.03315113       0.02805975       0.04701856
H       -5.65180969      -4.95689365      -0.03715692       0.00000000       0.00000000       0.03450121       0.02727697       0.00163685       0.04178035
H       -7.44664564      -2.51654461      -0.08727946       0.00000000       0.00000000      -0.02750040       0.08245354      -0.05359000       0.03156649
H       -7.47193498      -3.57746292       1.30154027       0.00000000       0.00000000      -0.09560277      -0.03968427       0.07509047       0.03812346
H       -5.16258472      -3.16981535       1.82325020       0.00000000       0.00000000       0.04940817      -0.03458909      -0.06226370       0.03946640
H       -4.91333894      -2.22106130       0.35978309       0.00000000       0.00000000      -0.00636123      -0.07237068       0.06233505       0.05245926
H       -6.71001961      -0.64509439       1.14300471       0.00000000       0.00000000       0.01315225       0.04549644       0.01413656       0.03927519
H       -6.85140290      -1.55863683       2.61571358       0.00000000       0.00000000       0.06356084       0.04445228      -0.08485294       0.05517144
H       -4.51190054       0.13439019       1.59934585       0.00000000       0.00000000       0.06102042      -0.00014296       0.00759237       0.05886775
H       -5.55324419       0.44789530       3.00459801       0.00000000       0.00000000      -0.05174233       0.08361776      -0.05506709       0.06536734
H       -3.58215423      -1.52965293       5.25287214       0.00000000       0.00000000      -0.04046005       0.08884136      -0.06025725       0.06645582
H       -4.77532396      -0.24507372       5.08584921       0.00000000       0.00000000      -0.07705101      -0.02318398      -0.01795225       0.06349101
H       -5.89174912      -2.12342097       5.92244576       0.00000000       0.00000000       0.05129375      -0.03138416      -0.02512303       0.06496460
H       -6.38351781      -2.03628959       4.25506460       0.00000000       0.00000000      -0.05504309      -0.00722370       0.07885649       0.05909704
H       -5.82618774      -4.24390543       4.14303139       0.00000000       0.00000000      -0.02878339       0.05835044       0.06210689       0.04619560
H       -4.16872578      -3.68141774       4.04233270       0.00000000       0.00000000      -0.05867903      -0.04127290       0.01048162       0.02729988
H       -5.56980032      -4.31525191       6.67933368       0.00000000       0.00000000       0.06888216      -0.03768981      -0.03538078       0.05053572
H       -4.74007233      -5.52421414       5.71218494       0.00000000       0.00000000       0.02220530       0.05948240       0.02358122       0.04465239
H       -3.01023934      -5.01684383       7.10472432       0.00000000       0.00000000       0.00612952       0.06423159      -0.01539600       0.04258621
H       -2.69626640      -3.79567931       5.88230182       0.00000000       0.00000000      -0.03626374      -0.03760477       0.04282777       0.01268714
H       -4.15304303      -2.21084579       7.40044677       0.00000000       0.00000000       0.03247222      -0.04000548       0.00283851       0.02927209
H       -3.98789917      -3.46928434       8.62050378       0.00000000       0.00000000       0.02297504       0.04836603      -0.07209948       0.04801336
H       -1.52720723      -3.27728161       8.52338000       0.00000000       0.00000000      -0.00736329      -0.01268780      -0.01113056       0.03925958
H       -1.64937694      -2.10951956       7.20861584       0.00000000       0.00000000       0.02939465       0.02313969       0.00624279      -0.00285773
H       -2.69819539      -1.71240560      10.05186687       0.00000000       0.00000000      -0.03592637      -0.04034566       0.05014590       0.05207030
H       -1.27816639      -0.94514231       9.36354262       0.00000000       0.00000000       0.10093509       0.02991394       0.03408524       0.03600536
H       -2.88124021      -0.54797210       8.75017696       0.00000000       0.00000000      -0.06135701       0.06493189      -0.03323271       0.03094722
H       -1.64110934      -1.24207477       4.77376068       0.00000000       0.00000000       0.02575898      -0.05233180       0.01144416       0.08792707
H       -2.21088395      -2.67962524       3.87954292       0.00000000       0.00000000      -0.02053710       0.00414089       0.01084700       0.09833336
H        0.40725903      -0.97223226       4.87028786       0.00000000       0.00000000      -0.02386521      -0.04297219      -0.09954307       0.09355477
H        1.50491223      -1.95103776       3.91201299       0.00000000       0.00000000       0.02253222      -0.05505748      -0.02282116       0.09589481
H        1.80406374       2.11953734       2.05991793       0.00000000       0.00000000      -0.05268257       0.00359350      -0.00922774       0.08995292
H        1.61018782       2.85140635       3.67005044       0.00000000       0.00000000      -0.02322734       0.03431261       0.02423132       0.05065224
H        3.70184407       3.70359291       3.22460529       0.00000000       0.00000000      -0.05884583       0.12998876      -0.04931705       0.05132999
H        4.22447837       2.15038013       3.81452903       0.00000000       0.00000000       0.02654270       0.01185487       0.09610231       0.06943729
H        3.99716696       1.31772795       1.40371967       0.00000000       0.00000000      -0.07715586      -0.17075997      -0.01847873       0.04718024
H        3.99353428       3.00674109       0.93226379       0.00000000       0.00000000      -0.02624443       0.04140163      -0.03825872       0.01647646
H        6.23981755       3.32430850       1.62695813       0.00000000       0.00000000       0.02082286      -0.00090555      -0.02856759       0.04850548
H        6.14738541       2.04715817       2.80791070       0.00000000       0.00000000       0.04991662      -0.04182834       0.05155986       0.04184969
H        7.11608438       0.61116963       1.36845544       0.00000000       0.00000000      -0.01907538      -0.00136192      -0.01615238       0.04334634
H        5.70047764       0.74530404       0.33828340       0.00000000       0.00000000       0.02505610      -0.03277665      -0.02157694       0.00678418
H        8.35321892       2.19486066       0.13353291       0.00000000       0.00000000       0.02942035       0.01558164       0.01688751       0.04743425
H        7.55847288       1.16305824      -1.04124771       0.00000000       0.00000000       0.01411470       0.02596729       0.00081676       0.03244110
H        5.68367300       3.08977568      -0.92436008       0.00000000       0.00000000      -0.06442159      -0.01782150      -0.01404671       0.00803013
H        7.04032691       4.05920756      -0.38000311       0.00000000       0.00000000       0.01302576       0.03100211       0.02948485       0.04015239
H        6.90193268       2.54365743      -3.02326185       0.00000000       0.00000000      -0.01917554      -0.05094730       0.00487334       0.02625916
H        6.89313991       4.29293070      -2.79230122       0.00000000       0.00000000       0.01267072      -0.00172688       0.00805327       0.03641256
H        8.33497458       3.35683462      -2.41648562       0.00000000       0.00000000       0.03252188       0.03291671       0.01153973       0.05554866
H        2.94864271       1.59277094       5.33816483       0.00000000       0.00000000       0.00430872      -0.00510679       0.01634715       0.08814108
H        1.75069848       0.36099371       5.67494452       0.00000000       0.00000000      -0.00064458      -0.01437408       0.00274941       0.05717029
H        3.76653004      -0.56391412       6.28335719       0.00000000       0.00000000      -0.01605106       0.02130405      -0.02470127       0.06569281
H        3.39444850      -1.37864265       4.77473406       0.00000000       0.00000000      -0.06862788      -0.03805365       0.00188667       0.03426349
H        5.09406353      -0.11423272       3.58852889       0.00000000       0.00000000      -0.00890462       0.00916478      -0.02061525       0.04309148
H        5.38372567       0.91164067       5.00645655       0.00000000       0.00000000      -0.02866807       0.04670260      -0.01018083       0.04118806
H        6.26135081      -0.85484831       6.29876732       0.00000000       0.00000000      -0.01665953       0.01062995      -0.03360344       0.04506219
H        5.73056788      -2.08555507       5.16593427       0.00000000       0.00000000      -0.01216001      -0.06809710      -0.00130162       0.03235870
H        7.78595734      -0.00438433       4.34058997       0.00000000       0.00000000       0.00994827       0.02742509      -0.02252329       0.03924006
H        8.23678775      -1.43621339       5.25449605       0.00000000       0.00000000      -0.01558205       0.00832981       0.00551087       0.05040747
H        7.11476672      -2.85220402       3.51493246       0.00000000       0.00000000       0.01047626      -0.02147101       0.00209099       0.02561453
H        6.96056928      -1.40348014       2.50216806       0.00000000       0.00000000      -0.02371701       0.01072655      -0.01836430       0.01900685
H        9.68821214      -2.13561833       3.53575808       0.00000000       0.00000000       0.02739111       0.01538658       0.03640467       0.04770863
H        8.99242077      -3.12137863       2.26395327       0.00000000       0.00000000       0.01226142      -0.02214459      -0.02394166       0.03474588
H        9.40508262      -0.10435299       2.07164997       0.00000000       0.00000000      -0.00744669       0.04767932       0.06349106       0.03794231
H       10.40466857      -1.33900908       1.32461831       0.00000000       0.00000000       0.05315267      -0.00794480       0.00646143       0.04811686
H        8.74067397      -1.13935178       0.80428122       0.00000000       0.00000000      -0.03261835      -0.00475031      -0.00989141       0.01978345
H        0.97142266      -3.21956240       0.53845723       0.00000000       0.00000000      -0.14864512       0.03447717      -0.08300347       0.10473219
H        1.40441139      -3.35435101       2.25830654       0.00000000       0.00000000       0.06222897      -0.05394816       0.06112565       0.12032841
H        1.67376238      -1.84287319       1.39650810       0.00000000       0.00000000       0.02486479       0.05137334      -0.04847022       0.15227786
C        1.81297055      -9.06003338       0.12893331       0.00000000       0.00000000      -0.00928997      -0.00439100       0.01145835      -0.10570662
C        1.98593800      -8.08100585      -1.02870692       0.00000000       0.00000000       0.04348254      -0.00673574       0.04774337      -0.05560157
C        0.83859998      -8.14450093      -2.05040264       0.00000000       0.00000000       0.07755757      -0.00859830       0.03029593      -0.06647551
C       -0.12063076      -6.95276604      -1.97627353       0.00000000       0.00000000       0.01169435       0.01483201      -0.00371846      -0.06130632
C        0.49497068      -5.67221665      -2.55076613       0.00000000       0.00000000       0.01750902       0.01981223      -0.00164904      -0.06121145
C       -0.52770093      -4.54650573      -2.74176911       0.00000000       0.00000000       0.00442001      -0.00277852      -0.00339032      -0.06866959
C        0.08077330      -3.30854801      -3.42431772       0.00000000       0.00000000       0.03475979      -0.01218020       0.00016991      -0.07480608
C       -0.77966704      -2.65584212      -4.51848874       0.00000000       0.00000000      -0.00607410       0.00964213       0.01684691      -0.01469082
N       -1.68628321      -1.51365280      -4.27364547       0.00000000       0.00000000      -0.08696002       0.03505875       0.03924930      -0.06241545
C       -2.20982234      -0.90586578      -5.50975498       0.00000000       0.00000000      -0.02162510      -0.00892429      -0.01727814      -0.02262841
C       -2.25886204      -1.77868121      -6.76661669       0.00000000       0.00000000      -0.01258597      -0.04708738       0.01323750      -0.07217655
C       -3.22749437      -2.97191022      -6.68615522       0.00000000       0.00000000       0.02558912      -0.00312194      -0.00303759      -0.06600163
C       -4.57751384      -2.75185557      -7.37822149       0.00000000       0.00000000       0.04109551      -0.02579611       0.03973891      -0.06916326
C       -5.53658188      -1.83554771      -6.60607620       0.00000000       0.00000000       0.00922469      -0.00764270      -0.00339543      -0.06171003
C       -5.55120490      -0.38156086      -7.08064983       0.00000000       0.00000000      -0.01976219       0.00762473       0.04152350      -0.06446584
C       -6.36698753       0.49889084      -6.13233818       0.00000000       0.00000000       0.01236936       0.02266304      -0.02228943      -0.04939286
C       -6.56212040       1.90811225      -6.68070628       0.00000000       0.00000000       0.00328224      -0.01868461       0.01371146      -0.10959039
C       -1.87696022      -0.88848929      -3.11695168       0.00000000       0.00000000      -0.02318651       0.07417098       0.01814803       0.25371237
O       -1.43546252      -1.27295348      -2.02179930       0.00000000       0.00000000       0.02926150      -0.07484899      -0.03021429      -0.36799225
C       -2.66306872       0.45899388      -3.12814531       0.00000000       0.00000000       0.01478684       0.03000152       0.00037081      -0.02133913
N       -2.76598769       0.92733675      -1.74242017       0.00000000       0.00000000      -0.06941887      -0.03326145       0.02551353      -0.15959674
C       -2.97550254       2.34078631      -1.41962806       0.00000000       0.00000000       0.01177932       0.02310569       0.05950819      -0.02384077
C       -2.21026861       2.60938350      -0.10007153       0.00000000       0.00000000       0.01428650       0.02246354      -0.10155441       0.25648042
O       -1.23734145       1.86153551       0.12161796       0.00000000       0.00000000       0.02036388      -0.01628308       0.02580022      -0.36842072
N       -2.51175135       3.64318572       0.68321186       0.00000000       0.00000000      -0.03609615      -0.04216834      -0.02614955      -0.05268234
C       -1.44760104       4.09362998       1.60230179       0.00000000       0.00000000      -0.07322626      -0.02171802      -0.02213537      -0.01680117
C       -1.84049921       4.72465446       2.94413397       0.00000000       0.00000000      -0.03031744      -0.01384708      -0.01856864      -0.07749410
C       -1.38728155       3.89577697       4.14872273       0.00000000       0.00000000       0.04059464       0.02430624       0.01359490      -0.06453729
C       -2.27763347       2.68336457       4.38841276       0.00000000       0.00000000      -0.01491734      -0.01802649      -0.01557865      -0.06173579
C       -1.69447564       1.62415627       5.32261064       0.00000000       0.00000000       0.00928123      -0.00205276       0.00577565      -0.05098598
C       -1.42737894       2.05989142       6.76664527       0.00000000       0.00000000       0.02257552       0.01855911       0.01641450      -0.07012385
C       -0.07582249       2.74917834       7.00111524       0.00000000       0.00000000       0.05334403       0.01061896       0.01858211      -0.05628849
C        0.60148211       2.25000791       8.27500461       0.00000000       0.00000000      -0.00776025      -0.00513975       0.00187906      -0.11005688
C       -3.70988957       4.45824765       0.50012308       0.00000000       0.00000000       0.05221652      -0.03313296      -0.00307147      -0.02872938
C       -5.01707853       3.79268408       0.97394666       0.00000000       0.00000000       0.03944774       0.03300216      -0.02930571      -0.06836184
C       -5.20085927       3.74159620       2.49108555       0.00000000       0.00000000       0.01009518       0.02935921      -0.00953890      -0.06672351
C       -6.65390822       3.51209689       2.90659130       0.00000000       0.00000000      -0.03507284      -0.03248183       0.01721501      -0.06479241
C       -6.82411322       3.40751878       4.42713009       0.00000000       0.00000000       0.00082224      -0.01295872       0.05328206      -0.06575515
C       -6.48911525       2.01799030       4.97237555       0.00000000       0.00000000      -0.00407112       0.01005842       0.00935842      -0.05646912
C       -6.77935864       1.84715906       6.46934234       0.00000000       0.00000000      -0.03882854       0.00333421      -0.04677638      -0.06024968
C       -5.65486324       2.33235096       7.37588037       0.00000000       0.00000000      -0.01994642       0.00128569      -0.05005144      -0.10497421
C       -3.75526467       0.11782784      -1.06564636       0.00000000       0.00000000       0.03037181      -0.06303578      -0.03654286       0.30326169
C       -5.19597142       0.37547705      -1.38333068       0.00000000       0.00000000      -0.01955988       0.03538871       0.07257103      -0.15699096
O       -3.35388670      -0.72098151      -0.30067896       0.00000000       0.00000000      -0.02459933       0.09400666       0.05925208      -0.23985266
H        1.82255117     -10.08442137      -0.23263525       0.00000000       0.00000000      -0.00904385       0.00064727      -0.01912125       0.04492882
H        2.62443878      -8.95039000       0.84695697       0.00000000       0.00000000      -0.02015682       0.00416469      -0.02505228       0.03219681
H        0.87257812      -8.89426085       0.64998839       0.00000000       0.00000000      -0.02278017       0.00085034      -0.02600462       0.03351092
H        2.06089355      -7.07020628      -0.62433674       0.00000000       0.00000000       0.01723533       0.04422062      -0.01423476       0.02449210
H        2.93405392      -8.30248873      -1.52120924       0.00000000       0.00000000      -0.01076283      -0.00253804      -0.02296536       0.03080331
H        1.24947763      -8.19736370      -3.05924398       0.00000000       0.00000000      -0.00437266       0.02413926      -0.03476387       0.03532667
H        0.27889528      -9.06719039      -1.89392167       0.00000000       0.00000000      -0.03817082       0.02993882       0.03465442       0.04822889
H       -1.01881909      -7.19893521      -2.54421489       0.00000000       0.00000000      -0.01405379       0.02591318      -0.04853082       0.03550187
H       -0.42462476      -6.79159114      -0.94102628       0.00000000       0.00000000      -0.01794518       0.04300871       0.02208053       0.03425927
H        1.29855437      -5.32750241      -1.89617603       0.00000000       0.00000000       0.02107685       0.01695225      -0.00564260       0.02204376
H        0.94232116      -5.91539237      -3.51737204       0.00000000       0.00000000      -0.01640308       0.02247174      -0.01576849       0.03829739
H       -1.34147170      -4.93364845      -3.35257271       0.00000000       0.00000000      -0.04222090      -0.05285506      -0.03391811       0.04485786
H       -0.94047680      -4.26915357      -1.77266363       0.00000000       0.00000000      -0.04639118       0.01735811       0.03689848       0.04639439
H        0.38748736      -2.59489802      -2.66622359       0.00000000       0.00000000      -0.03622468       0.03201804       0.00599634       0.06870621
H        0.98450581      -3.63613313      -3.94719946       0.00000000       0.00000000      -0.01347480      -0.00709617       0.00730144       0.04993609
H       -0.09380699      -2.27637460      -5.28376041       0.00000000       0.00000000       0.01648007      -0.05483785      -0.00602691       0.05961072
H       -1.38603083      -3.43987811      -4.97606603       0.00000000       0.00000000       0.04109942      -0.00050729      -0.00265341       0.09195211
H       -3.22889384      -0.57051581      -5.32324759       0.00000000       0.00000000      -0.01399607      -0.02922934       0.01359142       0.07391542
H       -1.59378864      -0.02719849      -5.73346540       0.00000000       0.00000000       0.00038601       0.02601420      -0.01607153       0.05231667
H       -2.57940621      -1.11969768      -7.57662386       0.00000000       0.00000000       0.01063987      -0.03664880       0.02296031       0.07106864
H       -1.26066345      -2.12224551      -7.03493398       0.00000000       0.00000000      -0.01701957       0.00530356      -0.00885269       0.04984808
H       -2.74958985      -3.83420046      -7.15745122       0.00000000       0.00000000      -0.04640233       0.04771973       0.01509457       0.04799102
H       -3.41941024      -3.23208691      -5.64103044       0.00000000       0.00000000       0.00452047       0.00238990      -0.05617448       0.03717454
H       -4.41782648      -2.36678557      -8.38729122       0.00000000       0.00000000      -0.02387851      -0.00727692       0.06005969       0.04962092
H       -5.04195421      -3.73409551      -7.47817258       0.00000000       0.00000000      -0.01688801       0.02671711      -0.01780336       0.05050333
H       -6.55116785      -2.22242293      -6.70766319       0.00000000       0.00000000      -0.00801135       0.00327352       0.01151107       0.04515133
H       -5.28992373      -1.87580767      -5.53924523       0.00000000       0.00000000      -0.01677106       0.01526838      -0.02261066       0.01647747
H       -4.53611678       0.01727453      -7.15887721       0.00000000       0.00000000      -0.03262279      -0.00582714       0.00016877       0.02102821
H       -5.99561637      -0.33844447      -8.07640256       0.00000000       0.00000000       0.02186562      -0.00494353       0.03448857       0.04857457
H       -7.34541678       0.04041258      -5.96974185       0.00000000       0.00000000       0.05443144       0.01794475      -0.00483292       0.04026420
H       -5.86038327       0.54728984      -5.15851808       0.00000000       0.00000000      -0.03912399      -0.00337251      -0.03532341      -0.00428268
H       -7.13363481       1.87083280      -7.60457138       0.00000000       0.00000000       0.03534790       0.01599558       0.02253510       0.05142534
H       -7.10935367       2.52351098      -5.96941251       0.00000000       0.00000000       0.01359750      -0.00090378      -0.02382239       0.03639776
H       -5.60429894       2.38293499      -6.88929872       0.00000000       0.00000000      -0.02401963      -0.02075057       0.01382492       0.03330700
H       -2.11945270       1.19348007      -3.72670017       0.00000000       0.00000000       0.02075386       0.03858661      -0.01374112       0.07974851
H       -3.65249554       0.32464138      -3.58517964       0.00000000       0.00000000       0.00203507      -0.02387970       0.00974794       0.06697490
H       -2.50727750       2.97923493      -2.17685091       0.00000000       0.00000000       0.00281421      -0.03010058      -0.02092983       0.09138638
H       -4.03254578       2.60595803      -1.34677396       0.00000000       0.00000000       0.00326585       0.00906524      -0.08136469       0.07284076
H       -0.82385947       3.21818866       1.78549658       0.00000000       0.00000000       0.03269591      -0.06501462      -0.00766529       0.09263809
H       -0.85047720       4.81786929       1.03841659       0.00000000       0.00000000      -0.00830106       0.00166509      -0.03803891       0.05824396
H       -1.37489280       5.70846397       3.00864613       0.00000000       0.00000000       0.00592624       0.00467317       0.00559707       0.05642946
H       -2.91217705       4.87415082       3.01565583       0.00000000       0.00000000      -0.03438919      -0.00780989       0.00261733       0.06920950
H       -0.35930431       3.57427218       3.98815080       0.00000000       0.00000000       0.07608982      -0.02865965      -0.00560318       0.02942024
H       -1.39496422       4.53133190       5.03163367       0.00000000       0.00000000      -0.01547160       0.02599426       0.04896585       0.05781463
H       -3.22835831       3.02465610       4.79866902       0.00000000       0.00000000      -0.03698239       0.00193756       0.00678450       0.04549252
H       -2.46803740       2.19283101       3.42906655       0.00000000       0.00000000      -0.00147938      -0.02385307      -0.04409847       0.02711273
H       -2.42227919       0.80828778       5.35166302       0.00000000       0.00000000       0.01763819      -0.01129693      -0.00121688       0.01487230
H       -0.77209972       1.23683810       4.87726630       0.00000000       0.00000000      -0.00507216      -0.00077508       0.00259963       0.00706695
H       -2.23414206       2.71069516       7.10051554       0.00000000       0.00000000      -0.03912802      -0.01032261       0.01260443       0.04808484
H       -1.46021627       1.16582570       7.39227529       0.00000000       0.00000000      -0.00235191      -0.01499682       0.00979074       0.04332624
H        0.58572990       2.56553285       6.15194474       0.00000000       0.00000000       0.02516928      -0.01909281      -0.02669390       0.01471306
H       -0.20584951       3.82795017       7.07940307       0.00000000       0.00000000      -0.01685759       0.01172719      -0.01719286       0.03971905
H        0.80541188       1.18040065       8.21825363       0.00000000       0.00000000      -0.00944465       0.04440991      -0.01094784       0.02698240
H        1.54395214       2.76894295       8.43881418       0.00000000       0.00000000      -0.05382913      -0.01269073      -0.00626301       0.04384974
H       -0.03887973       2.42591101       9.13568426       0.00000000       0.00000000       0.02787623       0.01505162      -0.01503625       0.05175730
H       -3.56385155       5.38702343       1.05117657       0.00000000       0.00000000      -0.00196010      -0.00680233      -0.01931598       0.08855213
H       -3.80758719       4.72019065      -0.55622060       0.00000000       0.00000000       0.01084586      -0.02114312       0.04200179       0.06682734
H       -5.83807047       4.36978127       0.54340478       0.00000000       0.00000000       0.01576112       0.00664761       0.00293032       0.06435764
H       -5.07951817       2.77580443       0.57997122       0.00000000       0.00000000      -0.01261930       0.02833135       0.00221154       0.02354728
H       -4.56624621       2.95827239       2.90259110       0.00000000       0.00000000      -0.00315505      -0.00194659       0.00307390       0.03924639
H       -4.90011066       4.69552538       2.92227868       0.00000000       0.00000000       0.01628746       0.06604155       0.01796703       0.04473370
H       -7.25406757       4.34658424       2.54209498       0.00000000       0.00000000       0.00559065       0.02428907      -0.00493886       0.04550812
H       -7.04158924       2.60581041       2.44045714       0.00000000       0.00000000      -0.02646493      -0.07446526      -0.05318610       0.02867528
H       -6.20238955       4.16120945       4.91229967       0.00000000       0.00000000      -0.00982732       0.00423335       0.02303282       0.04061494
H       -7.86168550       3.62812608       4.67984516       0.00000000       0.00000000      -0.00232236      -0.00079836      -0.02325104       0.05121092
H       -7.09433329       1.28949066       4.42309278       0.00000000       0.00000000       0.02583415       0.02370677       0.01496023       0.02558037
H       -5.43111547       1.80123289       4.79127617       0.00000000       0.00000000      -0.02584308       0.01439758      -0.00345089       0.01524384
H       -7.69713321       2.38116021       6.71626357       0.00000000       0.00000000      -0.00427362      -0.00354819      -0.00327192       0.04814256
H       -6.95670254       0.78820998       6.67258872       0.00000000       0.00000000       0.00266354       0.00589801       0.01446272       0.03182952
H       -5.42752179       3.37803167       7.19581345       0.00000000       0.00000000      -0.00400136       0.07049045      -0.02742125       0.03792849
H       -5.94941528       2.22735991       8.41539704       0.00000000       0.00000000       0.01312167      -0.00387780       0.02332625       0.04900668
H       -4.75009214       1.74817907       7.21753898       0.00000000       0.00000000       0.03794225      -0.01156352      -0.01551944       0.02234645
H       -5.35844947       0.96923386      -2.27860387       0.00000000       0.00000000       0.10508041       0.04558524      -0.00085130       0.08346250
H       -5.71810904      -0.57210450      -1.49552521       0.00000000       0.00000000      -0.02840459      -0.06481767       0.03235212       0.12292566
H       -5.66967187       0.88147500      -0.54458574       0.00000000       0.00000000      -0.04096026       0.01424369       0.08662513       0.10583774
C       -2.43140840      -5.68702987       1.84571985       0.00000000       0.00000000       0.00364910       0.00257221      -0.00845766      -0.10584715
C       -1.73631344      -5.70375973       3.20669573       0.00000000       0.00000000      -0.00580189       0.00034471      -0.03036919      -0.04981284
C       -0.42417562      -6.49349448       3.20820465       0.00000000       0.00000000      -0.05602833       0.00340749       0.00756967      -0.06629900
C        0.59128332      -5.98918906       2.16565131       0.00000000       0.00000000       0.00310815       0.02855427       0.07875961      -0.07118973
C        1.97289882      -5.78949309       2.79912828       0.00000000       0.00000000       0.04191992       0.04729738       0.00050095      -0.06785209
C        3.02987241      -5.08129891       1.91780081       0.00000000       0.00000000       0.02249373       0.01063093      -0.00980299      -0.07349929
C        3.82698774      -4.01856737       2.69986085       0.00000000       0.00000000      -0.02288477      -0.00961472       0.01417373      -0.06711855
C        4.25728495      -2.68679625       2.02266672       0.00000000       0.00000000      -0.03764913      -0.04712497      -0.10889402      -0.01872532
N        4.29178509      -2.51521459       0.56594636       0.00000000       0.00000000       0.08793394      -0.03806004      -0.04002128      -0.09376513
C        5.49015121      -3.02662453      -0.10765997       0.00000000       0.00000000       0.03160123      -0.05727963       0.02598099      -0.01561132
C        5.74510367      -4.52514050       0.03868800       0.00000000       0.00000000      -0.01812768      -0.01046144      -0.00019600      -0.07383440
C        4.89938238      -5.38227002      -0.91287846       0.00000000       0.00000000       0.03331214       0.01145189      -0.02259733      -0.06266190
C        5.60569757      -5.73905047      -2.22706117       0.00000000       0.00000000      -0.01553446      -0.02115029       0.00787904      -0.06884892
C        5.71046606      -4.60479898      -3.25573548       0.00000000       0.00000000      -0.02257555       0.00659114      -0.00267115      -0.05959728
C        6.99215356      -3.76917351      -3.19181426       0.00000000       0.00000000       0.01993470       0.02115086      -0.00330169      -0.06839980
C        6.86114691      -2.47772829      -4.00100549       0.00000000       0.00000000       0.01250335       0.01013956      -0.00246262      -0.05193449
C        8.08367274      -1.57788274      -3.85171334       0.00000000       0.00000000      -0.02090058      -0.02038889       0.00109794      -0.10737475
C        3.66513971      -1.42599587       0.07186644       0.00000000       0.00000000       0.03135670       0.02849715       0.09551589       0.26019086
O        2.94573782      -0.69087793       0.74697264       0.00000000       0.00000000      -0.10147048       0.05889654      -0.00327442      -0.45392217
C        3.80642894      -1.14446368      -1.42452702       0.00000000       0.00000000       0.01337530      -0.05514209       0.04530485      -0.02047601
N        2.94276445      -0.09691806      -1.93093947       0.00000000       0.00000000      -0.08645625      -0.03334443      -0.00687636      -0.07570356
C        3.39417759       1.26729371      -2.07484040       0.00000000       0.00000000       0.00934702       0.03281457       0.02557162      -0.03527691
C        2.28106202       2.20506882      -1.55392098       0.00000000       0.00000000       0.03116085       0.04482722       0.03619739       0.25917870
O        1.37238105       1.71431343      -0.87151470       0.00000000       0.00000000      -0.01811530       0.04884091       0.01375366      -0.40506224
N        2.36313604       3.50367568      -1.86601809       0.00000000       0.00000000      -0.00746428      -0.00422169       0.03504547      -0.07151093
C        1.62872740       4.45045588      -1.01221508       0.00000000       0.00000000      -0.01543446      -0.07016792      -0.02726372      -0.01017211
C        0.93265690       5.60947407      -1.72936019       0.00000000       0.00000000      -0.01102293      -0.05001913      -0.03212388      -0.07702127
C       -0.48978044       5.29281681      -2.20881718       0.00000000       0.00000000       0.06222331      -0.06275904       0.00030464      -0.05506221
C       -0.83343723       6.08207933      -3.47286637       0.00000000       0.00000000      -0.04906298      -0.04143159       0.03781235      -0.06974986
C       -2.07222342       5.59397290      -4.23566031       0.00000000       0.00000000      -0.06904571       0.00584188      -0.04214238      -0.05847577
C       -3.34535892       6.42108952      -4.05209271       0.00000000       0.00000000      -0.08293897       0.04028655       0.04818754      -0.06898419
C       -4.13479457       6.09232340      -2.78935041       0.00000000       0.00000000      -0.04984132       0.00612995       0.03642531      -0.04906498
C       -5.46842399       6.83224079      -2.75376450       0.00000000       0.00000000       0.01525165      -0.01086971      -0.00822503      -0.11221755
C        3.37729760       4.07271171      -2.75605389       0.00000000       0.00000000      -0.00104493      -0.00637665       0.09229757      -0.02616510
C        3.25108851       3.74540538      -4.25613998       0.00000000       0.00000000       0.00507789      -0.03721391       0.04544329      -0.07193833
C        1.86843426       3.91758936      -4.88591231       0.00000000       0.00000000      -0.02451135       0.02046647      -0.00945180      -0.06067944
C        1.84690192       3.34210108      -6.30528378       0.00000000       0.00000000       0.02099775      -0.00242427      -0.01941000      -0.06466979
C        0.52155825       3.51632518      -7.05384448       0.00000000       0.00000000      -0.02138538       0.00732672       0.00707099      -0.06551943
C       -0.55788664       2.51921229      -6.62995612       0.00000000       0.00000000       0.00353471      -0.01140280       0.01859574      -0.05369066
C       -1.76081738       2.49432639      -7.57993880       0.00000000       0.00000000       0.03393017      -0.02307300       0.00267682      -0.05756026
C       -2.66919158       3.71212848      -7.47274696       0.00000000       0.00000000       0.01313569      -0.00795159       0.00793342      -0.10720718
C        1.60466660      -0.29410836      -1.97873613       0.00000000       0.00000000      -0.03248504       0.02435765       0.07512116       0.30164694
C        0.89825354       0.35033408      -3.15667305       0.00000000       0.00000000       0.01133669      -0.00431630      -0.01430910      -0.14549112
O        1.04217716      -1.13315722      -1.25591934       0.00000000       0.00000000       0.01634790       0.04160385       0.02697285      -0.37693510
H       -3.49482069      -5.48070201       1.95410873       0.00000000       0.00000000       0.04457359       0.02171325       0.03313443       0.03276645
H       -2.00716818      -4.92385718       1.19437890       0.00000000       0.00000000      -0.01318887      -0.03878182      -0.01269497       0.03066473
H       -2.32709193      -6.65470942       1.36286413       0.00000000       0.00000000      -0.03189998      -0.00292670      -0.00681201       0.04812740
H       -1.53610979      -4.67468495       3.52381304       0.00000000       0.00000000       0.00690057      -0.00491810       0.00015773       0.00176032
H       -2.40256378      -6.15114416       3.94628651       0.00000000       0.00000000       0.01824339      -0.00535129       0.00279773       0.04055169
H        0.01207855      -6.42328255       4.20996967       0.00000000       0.00000000      -0.04794664      -0.04331914      -0.08538303       0.03410309
H       -0.66350196      -7.54274778       3.03631134       0.00000000       0.00000000       0.07994098      -0.01154524      -0.02238763       0.04572262
H        0.65649461      -6.69227877       1.33797190       0.00000000       0.00000000       0.06350140       0.01353009       0.02001567       0.04905263
H        0.22627335      -5.04593892       1.76348546       0.00000000       0.00000000      -0.02032066      -0.06088945      -0.02697956       0.03033767
H        1.82772710      -5.22323297       3.72787389       0.00000000       0.00000000       0.06683803      -0.06512805      -0.06967283       0.02234260
H        2.35845292      -6.76958012       3.08096066       0.00000000       0.00000000      -0.02878105       0.04303133       0.09290226       0.05039783
H        3.72243712      -5.83503076       1.55425162       0.00000000       0.00000000      -0.02272761      -0.04493782      -0.03109056       0.05342975
H        2.57535590      -4.63576707       1.03474848       0.00000000       0.00000000      -0.01459229      -0.05878373       0.02399914       0.03993844
H        3.23559675      -3.70838246       3.56756798       0.00000000       0.00000000       0.01597259      -0.04285115       0.01743105       0.02714478
H        4.71043384      -4.49522616       3.12805022       0.00000000       0.00000000       0.01927242      -0.01386661      -0.10358854       0.04978304
H        3.59302515      -1.90283034       2.37797136       0.00000000       0.00000000       0.00066379       0.14716961       0.03708010       0.05823378
H        5.25641416      -2.45779777       2.38376893       0.00000000       0.00000000       0.10382817       0.00720512       0.07779335       0.07065123
H        5.42928655      -2.81929154      -1.17158606       0.00000000       0.00000000       0.00628227       0.04806369       0.11163805       0.07063606
H        6.34296860      -2.47812575       0.31446154       0.00000000       0.00000000       0.04067928      -0.03663920      -0.04915109       0.04922353
H        6.79701319      -4.70511258      -0.18359148       0.00000000       0.00000000       0.02461574       0.03642759       0.00279027       0.06280208
H        5.59741676      -4.82173787       1.07190180       0.00000000       0.00000000      -0.03291030      -0.02587505       0.01318927       0.05750097
H        4.64907378      -6.32489018      -0.42175829       0.00000000       0.00000000       0.06424627       0.04495002      -0.01126480       0.04630344
H        3.95462926      -4.87555793      -1.13173961       0.00000000       0.00000000       0.03623480      -0.01491372       0.01752839       0.02527308
H        6.59830661      -6.13071336      -2.00046219       0.00000000       0.00000000      -0.00273142       0.02224894      -0.05269645       0.04921870
H        5.03719056      -6.55339674      -2.67898838       0.00000000       0.00000000      -0.00046884      -0.00368626      -0.02802199       0.04377706
H        5.65520683      -5.03560397      -4.25655816       0.00000000       0.00000000      -0.02258270      -0.00576305      -0.00503610       0.04101963
H        4.83687763      -3.95308461      -3.14807941       0.00000000       0.00000000      -0.01047490       0.01831951      -0.01152193       0.01099624
H        7.25458138      -3.51898271      -2.16389373       0.00000000       0.00000000      -0.04089265      -0.00148707       0.03699598       0.03141819
H        7.82010189      -4.35159767      -3.59500157       0.00000000       0.00000000       0.00408525      -0.04167145       0.00144803       0.04745114
H        6.72522155      -2.72658020      -5.05540639       0.00000000       0.00000000      -0.01015881       0.00710095       0.02669698       0.03866378
H        5.96481329      -1.93378317      -3.67591585       0.00000000       0.00000000       0.03443362      -0.00186410      -0.02045394       0.00142492
H        8.97644725      -2.09457365      -4.19278174       0.00000000       0.00000000      -0.01740365       0.00766275      -0.00135105       0.05166598
H        7.96833210      -0.67173154      -4.44296917       0.00000000       0.00000000       0.01153177      -0.02079622       0.00724136       0.03623438
H        8.23586281      -1.29464682      -2.81089938       0.00000000       0.00000000      -0.01191338      -0.01175635      -0.00477594       0.02745916
H        4.83133907      -0.87765064      -1.68239548       0.00000000       0.00000000       0.02158106       0.04151128      -0.01158517       0.08460450
H        3.51968893      -2.06237817      -1.94847703       0.00000000       0.00000000       0.07984415       0.00185354      -0.06409621       0.07990224
H        4.26928561       1.42883586      -1.43576762       0.00000000       0.00000000      -0.00275204      -0.05977143       0.00715180       0.10103430
H        3.68321217       1.48804495      -3.10110183       0.00000000       0.00000000       0.01296407      -0.00596108      -0.03978367       0.08251030
H        0.89608950       3.85535889      -0.46387790       0.00000000       0.00000000       0.00590299      -0.00208275       0.05434997       0.07508810
H        2.35556189       4.85467649      -0.29567002       0.00000000       0.00000000      -0.03434564       0.00783929      -0.04243660       0.05479684
H        0.90905923       6.45958522      -1.04913711       0.00000000       0.00000000      -0.01572500       0.03233547       0.00673053       0.05584848
H        1.52160415       5.91292254      -2.59266351       0.00000000       0.00000000       0.01798310       0.04413635       0.01911778       0.06548795
H       -0.55290956       4.22320236      -2.41806353       0.00000000       0.00000000       0.01747911      -0.09439861      -0.07822755       0.01603181
H       -1.20343969       5.51532506      -1.41639055       0.00000000       0.00000000      -0.07713682      -0.01987332       0.02768191       0.02451399
H       -0.93778089       7.13590578      -3.22377156       0.00000000       0.00000000      -0.04972830       0.05057711       0.02304624       0.05209234
H        0.01663195       5.99703807      -4.14506344       0.00000000       0.00000000       0.06680386       0.05501058      -0.06955831       0.04126036
H       -1.83756754       5.61422474      -5.29786858       0.00000000       0.00000000       0.05185659       0.01583247      -0.06574461       0.04924277
H       -2.28116493       4.54974731      -3.98129649       0.00000000       0.00000000       0.00957648      -0.01618121       0.02168166       0.00747364
H       -3.09574633       7.48195691      -4.04537829       0.00000000       0.00000000       0.01737765       0.00154085      -0.05709892       0.04983319
H       -3.99961513       6.24576349      -4.90869204       0.00000000       0.00000000       0.02701992      -0.00098346      -0.01762217       0.04505821
H       -4.32291456       5.01155773      -2.76196450       0.00000000       0.00000000       0.00081911       0.03151290       0.01352482       0.00340521
H       -3.55003457       6.36952772      -1.91008048       0.00000000       0.00000000       0.04604965      -0.00447577       0.00862835       0.02286232
H       -6.05497188       6.59234763      -3.63683900       0.00000000       0.00000000      -0.01538215       0.00212317       0.00328982       0.04676424
H       -6.04857288       6.55812889      -1.87379752       0.00000000       0.00000000       0.05464988       0.02375659      -0.01825339       0.03346245
H       -5.30616347       7.90688027      -2.73896427       0.00000000       0.00000000      -0.00278611      -0.03117140       0.01162808       0.05118735
H        3.32337337       5.15347820      -2.63123339       0.00000000       0.00000000       0.00732227      -0.01419566      -0.01865902       0.08197811
H        4.37098310       3.77160034      -2.41653915       0.00000000       0.00000000       0.03273952      -0.04393820      -0.04986295       0.06577537
H        3.95598234       4.39946006      -4.77341393       0.00000000       0.00000000      -0.01371474      -0.01002562       0.02874022       0.06744297
H        3.58491174       2.72707025      -4.45408641       0.00000000       0.00000000       0.03864330      -0.05588410      -0.04051946       0.03460337
H        1.10653596       3.43266594      -4.27257849       0.00000000       0.00000000       0.00877878      -0.00436594       0.03113420       0.02559174
H        1.63597581       4.97951758      -4.94717954       0.00000000       0.00000000      -0.04694365       0.02798918       0.02387195       0.04665977
H        2.63010537       3.83749959      -6.87876907       0.00000000       0.00000000       0.02859003       0.04302283      -0.02250119       0.04842704
H        2.09650586       2.27794202      -6.27914595       0.00000000       0.00000000       0.01141431      -0.02279105       0.03131375       0.02514340
H        0.16144499       4.53694793      -6.93186540       0.00000000       0.00000000      -0.00330554       0.02928299       0.03814277       0.04336589
H        0.71381822       3.36651966      -8.11746564       0.00000000       0.00000000       0.01431254      -0.00348865       0.01033648       0.05136346
H       -0.10536775       1.52217880      -6.62424593       0.00000000       0.00000000      -0.00043047      -0.01826862       0.00510109       0.01588269
H       -0.89749852       2.73882709      -5.61328294       0.00000000       0.00000000      -0.00613903       0.03480575       0.01603733       0.00997049
H       -1.39386558       2.41380395      -8.60336055       0.00000000       0.00000000       0.00760335      -0.00680646      -0.01497399       0.04701063
H       -2.35538905       1.59792819      -7.37954675       0.00000000       0.00000000       0.00008264       0.00518377       0.01800392       0.01897923
H       -2.12666909       4.62591734      -7.69315730       0.00000000       0.00000000       0.01340990       0.00960236      -0.01932010       0.04458135
H       -3.48414771       3.62620314      -8.18600638       0.00000000       0.00000000       0.00045469       0.01387641      -0.01867301       0.04780916
H       -3.09864267       3.79413020      -6.47663833       0.00000000       0.00000000       0.00601365      -0.00617031       0.03718049       0.02705778
H        1.53410797       1.04326736      -3.69721591       0.00000000       0.00000000      -0.02165504       0.00690309       0.03066875       0.07794175
H        0.64605536      -0.47114856      -3.82623003       0.00000000       0.00000000      -0.02742202       0.02043023      -0.01282288       0.08966880
H       -0.01198037       0.85819146      -2.83989593       0.00000000       0.00000000       0.05879546      -0.00402579       0.04015968       0.08585452
