135
Properties=species:S:1:pos:R:3:initial_charges:R:1:initial_magmoms:R:1:forces:R:3:charge:R:1 energy=-4850.168668127849 free_energy=-4850.168668127849 dipole="1.5373859042231417 0.9955163686572841 2.309169014356234" pbc="F F F"
Dy      -0.25840202      -0.20298235      -0.20483708       2.00000000       0.00000000       0.11105340       0.06219129       0.12333205       0.86476599
C       -4.44303265      -4.44282208       2.65735205       0.00000000       0.00000000       0.01124145       0.02108540      -0.00868078      -0.11480022
C       -4.00681508      -3.13914758       3.31275339       0.00000000       0.00000000       0.00941857       0.05472596      -0.00706839      -0.05757148
C       -3.94434786      -1.98396440       2.30779546       0.00000000       0.00000000      -0.01875671       0.03201556      -0.02050517      -0.06741328
C       -3.71834353      -0.65935554       3.04457247       0.00000000       0.00000000      -0.00466135      -0.00127017       0.00911836      -0.01576646
N       -3.71067765       0.54403312       2.20561723       0.00000000       0.00000000       0.00259942      -0.02756782      -0.02213731      -0.03564396
C       -4.85489615       1.43868277       2.30500929       0.00000000       0.00000000      -0.04052102      -0.00523015      -0.00220815      -0.02433743
C       -6.15626446       0.88110146       1.72110535       0.00000000       0.00000000      -0.04496112      -0.04073163      -0.06422376      -0.07481186
C       -6.21995464       0.84529747       0.18960470       0.00000000       0.00000000       0.03364603      -0.03181671      -0.05688055      -0.06431885
C       -5.43101101      -0.28912937      -0.45985858       0.00000000       0.00000000       0.01770455      -0.00748179       0.00525231      -0.10697960
C       -2.63386620       0.80480655       1.48765358       0.00000000       0.00000000      -0.05306239       0.00282681       0.03032697       0.25742067
O       -1.64853076       0.03479139       1.46722022       0.00000000       0.00000000       0.01240565      -0.09708250      -0.04694706      -0.37881318
C       -2.56078470       2.09605016       0.65611396       0.00000000       0.00000000      -0.01943178       0.05500570      -0.02640975       0.04312001
O       -1.35799907       2.10173584      -0.10181881       0.00000000       0.00000000       0.04361865      -0.00534601       0.05537716      -0.21400568
C       -0.49031565       3.21545738       0.04815724       0.00000000       0.00000000      -0.02636762       0.04364931      -0.09433375       0.03700086
C        0.69944998       2.81750032       0.92949714       0.00000000       0.00000000      -0.00202314      -0.03979389       0.01534750       0.25088017
O        0.87519723       1.59941418       1.12011090       0.00000000       0.00000000      -0.03602882      -0.07988445      -0.05095484      -0.38243904
N        1.50490782       3.76187087       1.39370524       0.00000000       0.00000000       0.06601561       0.04122924       0.01449797      -0.05356335
C        2.66995311       3.38513267       2.19343074       0.00000000       0.00000000      -0.02710598      -0.04011524       0.03657144      -0.01126283
C        2.30259005       2.78419601       3.55120177       0.00000000       0.00000000      -0.04204428      -0.02709028       0.04088540      -0.06675465
C        3.53912937       2.50846216       4.41083831       0.00000000       0.00000000      -0.01493764       0.01230066      -0.01521359      -0.06255798
C        4.44598694       1.42002180       3.85039808       0.00000000       0.00000000      -0.00703971      -0.00171456      -0.00574191      -0.10861368
C        1.29364367       5.18013451       1.14094750       0.00000000       0.00000000      -0.04926002       0.04837281       0.02139659      -0.02696473
C        0.42800575       5.84034868       2.21997495       0.00000000       0.00000000      -0.01850808       0.02702624       0.03183176      -0.06632791
C        0.22452330       7.33860724       1.97757391       0.00000000       0.00000000       0.01203682      -0.00385178      -0.02299285      -0.06359018
C       -0.56638692       7.65809219       0.71371940       0.00000000       0.00000000       0.00540256      -0.01541475       0.01247920      -0.11371779
H       -4.44065920      -5.24891197       3.38489352       0.00000000       0.00000000      -0.01263675      -0.00949032       0.01297883       0.05204344
H       -3.77502742      -4.71168942       1.84592622       0.00000000       0.00000000       0.01542232       0.00166588      -0.03969033       0.04593466
H       -5.44836789      -4.35389825       2.25538375       0.00000000       0.00000000      -0.01252948       0.01222742       0.00321374       0.04882563
H       -3.03012209      -3.26918300       3.78328468       0.00000000       0.00000000       0.01776113      -0.00252818      -0.01229287       0.02917121
H       -4.71700039      -2.89204825       4.10335558       0.00000000       0.00000000      -0.02217480       0.03394816       0.01348464       0.04368560
H       -4.88868079      -1.94885181       1.76630281       0.00000000       0.00000000       0.00624137       0.01266554      -0.00251661       0.06191840
H       -3.14384059      -2.16072044       1.58140604       0.00000000       0.00000000       0.00694787       0.06249859       0.02064077       0.05244014
H       -2.75603055      -0.71101797       3.56050351       0.00000000       0.00000000       0.04093283       0.03663834       0.00377093       0.07278660
H       -4.50721274      -0.53558028       3.78677761       0.00000000       0.00000000       0.00222261       0.06173512       0.00301515       0.07935186
H       -4.63916389       2.37972009       1.80497329       0.00000000       0.00000000       0.03829205       0.02218756       0.02212317       0.05988602
H       -4.99864591       1.65744751       3.36695665       0.00000000       0.00000000      -0.05934188      -0.05285263       0.04010743       0.07741438
H       -6.95374686       1.53801881       2.07259936       0.00000000       0.00000000       0.00181392      -0.01946392       0.01937279       0.06943538
H       -6.35323764      -0.11227186       2.12001248       0.00000000       0.00000000      -0.00769613      -0.03563340       0.00347990       0.06638343
H       -5.89499089       1.80634942      -0.21688023       0.00000000       0.00000000       0.01614001       0.00266790       0.03981743       0.03245473
H       -7.26601820       0.72185347      -0.09575975       0.00000000       0.00000000       0.00766734       0.00694678       0.02561011       0.06390940
H       -4.36214644      -0.23000515      -0.24956343       0.00000000       0.00000000      -0.00787761      -0.00309093      -0.00393413       0.01280910
H       -5.56183570      -0.26850289      -1.53934682       0.00000000       0.00000000       0.00298311       0.04702640       0.02487430       0.05922101
H       -5.79992161      -1.24978306      -0.10820302       0.00000000       0.00000000       0.00929416       0.01303067      -0.02313583       0.04888898
H       -2.60865347       2.96787687       1.31326302       0.00000000       0.00000000       0.00091307       0.06095974       0.08673199       0.08205534
H       -3.40197792       2.12363232      -0.04918738       0.00000000       0.00000000       0.00719206       0.01893008      -0.06798885       0.11120853
H       -1.02330338       4.09161637       0.41291395       0.00000000       0.00000000      -0.09913525       0.07274388       0.08915741       0.08837558
H       -0.09408224       3.43128221      -0.95335784       0.00000000       0.00000000      -0.07114870       0.00774256      -0.06755346       0.10885801
H        3.27520473       4.27779387       2.35958498       0.00000000       0.00000000      -0.03104013      -0.04313081      -0.07968805       0.07716591
H        3.24887131       2.66382429       1.61303471       0.00000000       0.00000000       0.00077393      -0.05568163       0.00366374       0.06512460
H        1.74054005       1.86109561       3.40101421       0.00000000       0.00000000       0.00139661      -0.02572432      -0.02983665       0.05127182
H        1.65788255       3.48589265       4.08337856       0.00000000       0.00000000      -0.00627641       0.00447129      -0.00019328       0.04687375
H        3.20737652       2.20632595       5.40519359       0.00000000       0.00000000      -0.03052261       0.01015865      -0.00671241       0.05325709
H        4.11086217       3.42980139       4.52544896       0.00000000       0.00000000       0.01768505       0.01838597       0.00078471       0.04959553
H        3.88969430       0.49711472       3.70099553       0.00000000       0.00000000      -0.02099766      -0.01738428      -0.00224196       0.02460253
H        5.25351430       1.21995933       4.54774843       0.00000000       0.00000000       0.01969729      -0.00741762       0.01905334       0.05674064
H        4.89010640       1.71666047       2.90445195       0.00000000       0.00000000       0.00777996       0.01580919      -0.01979362       0.03258092
H        0.84442824       5.30733742       0.15726260       0.00000000       0.00000000      -0.00254183       0.03277647      -0.02221695       0.06221749
H        2.26807920       5.67376847       1.12211286       0.00000000       0.00000000      -0.02182210      -0.04235203       0.00115253       0.08322272
H        0.91628922       5.70946736       3.18573978       0.00000000       0.00000000       0.01131175      -0.00796663       0.03320829       0.05497725
H       -0.54551529       5.34762057       2.27550340       0.00000000       0.00000000       0.00433209      -0.01322081      -0.01898939       0.03093477
H        1.19818129       7.82770349       1.92989452       0.00000000       0.00000000      -0.00263330       0.01343875      -0.00680904       0.05014762
H       -0.30932607       7.75156787       2.83531604       0.00000000       0.00000000       0.03096394      -0.02583100      -0.00741537       0.05814420
H       -0.02303358       7.37540924      -0.18440789       0.00000000       0.00000000      -0.00129870      -0.00060211       0.00030114       0.03485457
H       -0.75281190       8.72671202       0.66341053       0.00000000       0.00000000      -0.00331156      -0.00585267      -0.00413484       0.06164806
H       -1.52897549       7.15038438       0.71775877       0.00000000       0.00000000       0.00435659      -0.00254038       0.00601959       0.03439482
C       -1.69423113      -6.95348096       1.66027952       0.00000000       0.00000000       0.01006972      -0.00732834       0.02259675      -0.11511649
C       -1.33292967      -5.90487913       0.61806533       0.00000000       0.00000000       0.02592320       0.04358027      -0.00844398      -0.05857705
C       -0.08038476      -5.09073148       0.94543649       0.00000000       0.00000000       0.05877617      -0.00757991      -0.01194355      -0.06773203
C       -0.20094645      -4.31223753       2.25921367       0.00000000       0.00000000       0.01687919      -0.01999997      -0.02474591      -0.01785635
N        0.98103815      -3.47569193       2.48422790       0.00000000       0.00000000      -0.01669795      -0.07794364       0.01831673      -0.03320985
C        1.91756262      -3.87903746       3.51733093       0.00000000       0.00000000       0.00107595       0.01939012      -0.00054256      -0.02296799
C        1.34374448      -3.81448748       4.93822006       0.00000000       0.00000000      -0.03037817       0.04284797       0.04074704      -0.07472604
C        1.02367553      -2.41234539       5.46260921       0.00000000       0.00000000      -0.03107328       0.07386848      -0.01297848      -0.06301668
C       -0.25976735      -1.80160653       4.90273411       0.00000000       0.00000000      -0.00227769      -0.00416926      -0.02939591      -0.10874945
C        1.11703345      -2.43204394       1.69062027       0.00000000       0.00000000      -0.07404159       0.03415675      -0.05983239       0.25364661
O        0.22728570      -2.11404698       0.87425180       0.00000000       0.00000000      -0.02396520       0.07670203       0.02071498      -0.35670719
C        2.36854355      -1.54127762       1.70362763       0.00000000       0.00000000       0.00091995       0.05550101       0.08694540       0.04196866
O        2.21285064      -0.63536089       0.61721224       0.00000000       0.00000000       0.04352689      -0.00454300       0.04933670      -0.21898219
C        3.25301606      -0.60155104      -0.34256782       0.00000000       0.00000000       0.01176801      -0.00014148       0.03575777       0.04493709
C        2.62689495      -0.05966789      -1.62585416       0.00000000       0.00000000      -0.10856628      -0.02796208       0.01351011       0.26307057
O        1.38937297       0.13236047      -1.62964056       0.00000000       0.00000000      -0.03878737      -0.04667305       0.01041177      -0.38144473
N        3.36476597       0.16603097      -2.69667815       0.00000000       0.00000000       0.03320846       0.00571238      -0.03965461      -0.04037935
C        4.82369334       0.13491535      -2.69769616       0.00000000       0.00000000       0.03245358      -0.03712249      -0.00213508      -0.02592282
C        5.53308778      -1.19864893      -2.42065948       0.00000000       0.00000000       0.00191799      -0.08784266      -0.04928104      -0.07686713
C        5.10363037      -2.35586861      -3.32635661       0.00000000       0.00000000      -0.05780239      -0.06076621      -0.03082993      -0.06527053
C        3.81374538      -3.05849424      -2.90472803       0.00000000       0.00000000       0.00579767      -0.00337799       0.01591326      -0.11088725
C        2.64330407       0.62369030      -3.89227103       0.00000000       0.00000000       0.00288504      -0.01064075       0.00492949      -0.01295516
C        1.82879413      -0.49398306      -4.55159716       0.00000000       0.00000000       0.03629311      -0.01784819       0.01079464      -0.06247446
C        1.08968665      -0.01538526      -5.80275998       0.00000000       0.00000000       0.02855183      -0.00680820       0.01725927      -0.06176831
C       -0.04749960       0.95530934      -5.51644132       0.00000000       0.00000000      -0.00189308       0.01034099       0.01676477      -0.11175023
H       -2.52582292      -7.55221377       1.30282691       0.00000000       0.00000000      -0.02833363      -0.02530712      -0.01230782       0.05420247
H       -0.85758051      -7.62058202       1.84555975       0.00000000       0.00000000       0.05021201      -0.01294301      -0.00236764       0.04524157
H       -1.99380741      -6.49965972       2.59997166       0.00000000       0.00000000      -0.00225261       0.01733693       0.04300510       0.03587231
H       -1.16791753      -6.40237622      -0.33699779       0.00000000       0.00000000       0.02971029      -0.02130737      -0.03777438       0.05342650
H       -2.16607116      -5.21582463       0.47790645       0.00000000       0.00000000      -0.04981330       0.02048991       0.00238207       0.03975842
H        0.78830969      -5.75036396       1.00256714       0.00000000       0.00000000      -0.02029427      -0.03990438       0.00035751       0.04479959
H        0.07638564      -4.38166241       0.12927988       0.00000000       0.00000000       0.02540804      -0.00663493       0.01150716       0.05399438
H       -1.07763192      -3.66141725       2.21579380       0.00000000       0.00000000      -0.00230527      -0.00780392      -0.00632130       0.08317708
H       -0.29837937      -5.00465108       3.09091663       0.00000000       0.00000000       0.02477897       0.02656510       0.03166803       0.08357917
H        2.22223161      -4.90914394       3.31044213       0.00000000       0.00000000      -0.01399503      -0.02334404       0.00701407       0.08094330
H        2.80283079      -3.24588934       3.47647513       0.00000000       0.00000000       0.00896010      -0.00273004      -0.04080590       0.05700640
H        0.44961281      -4.43161135       5.01658494       0.00000000       0.00000000      -0.01238861      -0.01987458      -0.00098602       0.06226205
H        2.09858551      -4.25447501       5.59123629       0.00000000       0.00000000       0.00159949      -0.02681295      -0.00531641       0.06925456
H        0.90577313      -2.48775854       6.54522499       0.00000000       0.00000000       0.02352973      -0.01367308      -0.01464165       0.06037780
H        1.86612648      -1.74182287       5.27891706       0.00000000       0.00000000       0.01215294      -0.01979409      -0.03067054       0.03182422
H       -1.09112313      -2.48841172       5.04952601       0.00000000       0.00000000       0.01716801       0.00904187      -0.00796734       0.04413567
H       -0.49227316      -0.88066812       5.43495545       0.00000000       0.00000000       0.03679100      -0.02973432      -0.00659871       0.04261396
H       -0.18140883      -1.56602319       3.84191534       0.00000000       0.00000000       0.00073203      -0.00102911      -0.01048015       0.02548563
H        2.38906031      -0.95027333       2.62740778       0.00000000       0.00000000       0.04717791      -0.00002208       0.06409353       0.09926874
H        3.28801962      -2.12563124       1.61849900       0.00000000       0.00000000       0.01392168      -0.02501266      -0.04655699       0.07974623
H        4.07599804       0.04061198       0.00169376       0.00000000       0.00000000       0.01388008       0.04777616      -0.00513090       0.07988790
H        3.64005048      -1.60669350      -0.53974494       0.00000000       0.00000000      -0.05391225      -0.05652424       0.01280578       0.09602020
H        5.14508212       0.45918600      -3.68757858       0.00000000       0.00000000      -0.05757282       0.03851995      -0.00570060       0.09251473
H        5.17616524       0.87721666      -1.97297992       0.00000000       0.00000000       0.04960765       0.00338733      -0.00209784       0.05839978
H        6.59103975      -0.99935264      -2.60222920       0.00000000       0.00000000       0.00094267       0.02164690      -0.04243880       0.07266154
H        5.46309636      -1.50506565      -1.37779961       0.00000000       0.00000000      -0.01914720       0.03808617      -0.01954019       0.03786801
H        5.00777896      -1.99035221      -4.34956393       0.00000000       0.00000000      -0.02011585      -0.01387189      -0.00575577       0.05111764
H        5.89888286      -3.10332574      -3.32264854       0.00000000       0.00000000       0.01046667       0.04086093      -0.02274919       0.06025224
H        2.95603074      -2.39060141      -2.90091851       0.00000000       0.00000000       0.03281592      -0.01619595       0.03035751       0.02850715
H        3.59873730      -3.86672947      -3.60052783       0.00000000       0.00000000       0.02761760       0.01744389       0.03735635       0.05871646
H        3.91876439      -3.49740740      -1.91267082       0.00000000       0.00000000       0.03487484      -0.01117778      -0.03125984       0.02705929
H        1.96963838       1.42782631      -3.58549754       0.00000000       0.00000000      -0.02016886      -0.00635908       0.00925946       0.07759324
H        3.35843306       1.01911458      -4.61196285       0.00000000       0.00000000       0.05497885       0.00109310       0.04781622       0.07641368
H        2.50896361      -1.29690072      -4.83900332       0.00000000       0.00000000      -0.01543971      -0.01652295      -0.00680549       0.05497419
H        1.10183905      -0.89056470      -3.83614773       0.00000000       0.00000000       0.02049800       0.01542603      -0.01413886       0.04639060
H        1.80464352       0.44369321      -6.48632369       0.00000000       0.00000000       0.00684410       0.03073917      -0.03763929       0.04567935
H        0.67671530      -0.89207643      -6.30159024       0.00000000       0.00000000       0.00188860      -0.03539941      -0.00440948       0.05751459
H        0.31914145       1.90803526      -5.14540488       0.00000000       0.00000000       0.02724726       0.03319546       0.02387576       0.03156956
H       -0.59939812       1.14509452      -6.43153696       0.00000000       0.00000000      -0.02712790       0.01757178      -0.01659295       0.05706872
H       -0.73753300       0.53990845      -4.78622142       0.00000000       0.00000000      -0.00974137      -0.01703495       0.03363535       0.04501565
N       -1.82939455      -0.86674769      -2.06458921       0.00000000       0.00000000       0.01582493       0.05350374      -0.05603135       0.78168611
O       -2.58511806      -1.17495655      -2.92607973       0.00000000       0.00000000       0.10532001       0.02771641       0.14355025      -0.36699664
O       -1.34223060      -1.69554750      -1.27392778       0.00000000       0.00000000      -0.01517054      -0.09996159       0.00122249      -0.43178859
O       -1.47419374       0.31645703      -1.89019772       0.00000000       0.00000000      -0.03130310      -0.02670663      -0.11057362      -0.43910239
