231
Properties=species:S:1:pos:R:3:initial_charges:R:1:initial_magmoms:R:1:forces:R:3:charge:R:1 energy=-7604.964215916627 free_energy=-7604.964215916627 dipole="0.7430072087274084 -3.9428161355538025 1.2315901861525185" pbc="F F F"
Dy       0.00192592       0.40754283      -0.11948839       2.00000000       0.00000000       0.02561437      -0.18861764       0.04627764       0.85338934
C       -1.13810230       1.08083555      -6.69314957       0.00000000       0.00000000      -0.00777382       0.00755712      -0.01842047      -0.10792524
C       -0.72792763      -0.21982406      -6.01499182       0.00000000       0.00000000       0.05021057       0.02440589      -0.01881471      -0.05342971
C       -1.66780674      -1.36137605      -6.39333650       0.00000000       0.00000000       0.00403230       0.01121733      -0.01257370      -0.06235936
C       -1.32474265      -2.67270727      -5.68853787       0.00000000       0.00000000       0.03179589      -0.01797561      -0.00742322      -0.05536375
C       -0.12762387      -3.37470688      -6.33008462       0.00000000       0.00000000       0.01059172      -0.00993199      -0.00021564      -0.06484162
C        0.30058950      -4.64046249      -5.58493371       0.00000000       0.00000000      -0.00661991       0.01611726      -0.00153437      -0.06235773
C        1.11007742      -4.31071381      -4.33031925       0.00000000       0.00000000      -0.00912817       0.00826055       0.00864746      -0.06238447
C        1.40968643      -5.53926453      -3.46985211       0.00000000       0.00000000      -0.06303451      -0.00690326       0.03484992      -0.06820631
C        0.21683863      -6.02978875      -2.64613576       0.00000000       0.00000000      -0.02577063       0.00488678       0.04240412      -0.07313265
C       -0.13030485      -5.19010174      -1.40782832       0.00000000       0.00000000      -0.01403020       0.04319789      -0.05567182      -0.01785518
N       -0.78418201      -3.90236401      -1.64961115       0.00000000       0.00000000      -0.01454391      -0.00582271       0.01851478      -0.05621644
C       -2.10779054      -3.98326053      -2.28914268       0.00000000       0.00000000       0.00312290       0.01034801       0.01128962      -0.01673092
C       -3.19208687      -4.71587551      -1.48929810       0.00000000       0.00000000      -0.00108405      -0.00100862      -0.01537170      -0.06164517
C       -4.39863782      -5.14415337      -2.35179256       0.00000000       0.00000000       0.04574977       0.01973466      -0.00879469      -0.06590514
C       -4.99999512      -4.07704698      -3.26980227       0.00000000       0.00000000       0.00476072       0.02187254       0.03444835      -0.06628502
C       -5.49203917      -2.84235386      -2.51806349       0.00000000       0.00000000      -0.00398778       0.03984280       0.01630307      -0.06481793
C       -5.57623452      -1.60142921      -3.41280508       0.00000000       0.00000000      -0.02349144       0.00190875      -0.02350730      -0.06391391
C       -5.31271398      -0.30700199      -2.64329081       0.00000000       0.00000000       0.05996329      -0.04017184      -0.05899331      -0.06162621
C       -3.88705453      -0.21643955      -2.09040734       0.00000000       0.00000000       0.02555762       0.00893255      -0.01010304      -0.06722342
C       -2.79687390       0.07275260      -3.12363747       0.00000000       0.00000000      -0.02097262      -0.00012087      -0.07485860      -0.05043742
C       -2.78063273       1.52729014      -3.56871218       0.00000000       0.00000000      -0.01234675      -0.00518545      -0.00333908      -0.11814848
C       -0.23831292      -2.73420457      -1.32378789       0.00000000       0.00000000       0.02240242       0.00922506       0.11349715       0.25598579
O       -0.85160396      -1.65155140      -1.26776390       0.00000000       0.00000000      -0.06406645      -0.07122139       0.02732303      -0.37280810
C        1.25790763      -2.68253601      -0.96861860       0.00000000       0.00000000       0.07846332      -0.01963927       0.01085654       0.04950567
O        1.61585858      -1.30770164      -0.95048676       0.00000000       0.00000000       0.03539833      -0.00641611       0.03331976      -0.22516835
C        2.98603380      -1.07077663      -0.63033951       0.00000000       0.00000000       0.02465212       0.02869424      -0.02479411       0.04417116
C        3.10049006       0.43270054      -0.34326100       0.00000000       0.00000000       0.17403889      -0.01049951       0.09702389       0.26549471
O        2.06153166       1.10104275      -0.49181184       0.00000000       0.00000000      -0.06201374       0.14620537       0.03471636      -0.36666243
N        4.25293241       0.97931464       0.02076929       0.00000000       0.00000000      -0.14950338       0.02348620       0.07690865      -0.04791740
C        4.32612987       2.44829317       0.06044631       0.00000000       0.00000000       0.05161909       0.04896879      -0.01844259      -0.01763721
C        4.26992121       3.19291665       1.40569010       0.00000000       0.00000000      -0.00227986      -0.03122969      -0.02666583      -0.07317529
C        2.88436951       3.37113735       2.03366971       0.00000000       0.00000000       0.02878350      -0.02492280      -0.02372534      -0.06502749
C        2.43469025       2.24194944       2.96219843       0.00000000       0.00000000       0.00750527      -0.01450569      -0.01758945      -0.06118133
C        3.27713618       2.11189724       4.23297018       0.00000000       0.00000000       0.01001819      -0.01304799       0.00474903      -0.05817583
C        2.60552778       1.20577904       5.25787827       0.00000000       0.00000000      -0.01777256      -0.00507056       0.00635840      -0.10644332
C        5.53422537       0.28546767       0.11667332       0.00000000       0.00000000      -0.05531621       0.06846429      -0.05309515      -0.01716724
C        6.18407465       0.46197910       1.49666599       0.00000000       0.00000000      -0.04601599       0.00756127      -0.08995086      -0.06737538
C        7.35535319      -0.48667180       1.78308553       0.00000000       0.00000000      -0.08066010       0.02406904       0.01413461      -0.06801664
C        8.69432194      -0.10427897       1.14786559       0.00000000       0.00000000      -0.03317073      -0.01720426       0.00064711      -0.06817485
C        8.85255919      -0.41042699      -0.34179096       0.00000000       0.00000000       0.00156296      -0.00396272      -0.03985507      -0.05868487
C        8.63606712      -1.87622322      -0.69930371       0.00000000       0.00000000       0.00322403      -0.00698459       0.00030337      -0.10632222
H       -0.53703235       1.91292858      -6.33257992       0.00000000       0.00000000       0.02965716      -0.01022275      -0.05079087       0.03451989
H       -2.18359747       1.29948779      -6.49321361       0.00000000       0.00000000      -0.03254870       0.01824658      -0.03142032       0.04022105
H       -1.01411986       1.00271417      -7.76958847       0.00000000       0.00000000       0.02850426       0.01028253      -0.01338627       0.04385487
H       -0.73143081      -0.09110992      -4.92920718       0.00000000       0.00000000      -0.00399290      -0.00146205      -0.01849490       0.02131292
H        0.29397789      -0.46222969      -6.30325697       0.00000000       0.00000000       0.06402610      -0.04333289      -0.06756371       0.02882410
H       -1.64371321      -1.51180831      -7.47205091       0.00000000       0.00000000       0.01773767      -0.00789538      -0.04952843       0.04375143
H       -2.68703520      -1.06906406      -6.13575531       0.00000000       0.00000000      -0.05667036       0.01414900       0.00478351       0.03087155
H       -2.18850180      -3.34220276      -5.73178207       0.00000000       0.00000000       0.01830437      -0.00723413      -0.01687482       0.02507689
H       -1.12090451      -2.45543125      -4.63589432       0.00000000       0.00000000       0.01987005      -0.02088173      -0.00955654       0.01479271
H        0.72021440      -2.68903261      -6.37334985       0.00000000       0.00000000      -0.00964018      -0.00717733      -0.02143266       0.03706759
H       -0.39164019      -3.63500041      -7.35614725       0.00000000       0.00000000      -0.00812133      -0.00744520       0.01721217       0.04556573
H        0.91326768      -5.25833546      -6.24343282       0.00000000       0.00000000       0.00289499       0.01237884       0.00955408       0.04325701
H       -0.58708182      -5.22321736      -5.33038578       0.00000000       0.00000000       0.00120207       0.00450645       0.00807517       0.02971036
H        0.57622050      -3.56541368      -3.74057232       0.00000000       0.00000000      -0.00318104       0.03931890      -0.01399068       0.01947990
H        2.05342659      -3.86211454      -4.64770565       0.00000000       0.00000000       0.02413241      -0.00663977      -0.00705497       0.03516431
H        2.24661501      -5.33696401      -2.79598104       0.00000000       0.00000000      -0.02294304       0.01079285      -0.01918877       0.02619634
H        1.72028556      -6.35180191      -4.12904424       0.00000000       0.00000000       0.00739988       0.01638170       0.01838307       0.05985091
H        0.44945164      -7.02730639      -2.26886147       0.00000000       0.00000000       0.00186158      -0.00998132      -0.02612716       0.06195015
H       -0.66058980      -6.12644905      -3.28400977       0.00000000       0.00000000       0.05465266      -0.03130726      -0.00138253       0.06547367
H        0.77028305      -5.04553902      -0.80923695       0.00000000       0.00000000      -0.06239663       0.04222951      -0.06258613       0.04652416
H       -0.83599058      -5.77095643      -0.80217481       0.00000000       0.00000000       0.10059736      -0.00256763      -0.02749506       0.07078128
H       -1.95648403      -4.50460371      -3.23663816       0.00000000       0.00000000      -0.04275937       0.00562975      -0.00499082       0.08573690
H       -2.44068643      -2.96986183      -2.51123286       0.00000000       0.00000000       0.09493263       0.05060443       0.06230412       0.08975867
H       -3.52128166      -4.09111261      -0.65565928       0.00000000       0.00000000      -0.01233702       0.01681390      -0.04278988       0.02953650
H       -2.78976123      -5.63572613      -1.06222433       0.00000000       0.00000000      -0.00662255       0.02067963       0.02693598       0.04359739
H       -5.17605125      -5.50571850      -1.67348992       0.00000000       0.00000000       0.06714981       0.00579219      -0.03400569       0.05095488
H       -4.09580341      -5.98424790      -2.98024695       0.00000000       0.00000000       0.02765049      -0.01211900       0.04690757       0.04462615
H       -5.84005146      -4.51847786      -3.80711150       0.00000000       0.00000000       0.04561395      -0.05992616      -0.02044752       0.05005398
H       -4.26516943      -3.78240754      -4.02228257       0.00000000       0.00000000       0.03998802       0.00293667       0.06700217       0.03450475
H       -4.80873183      -2.64159934      -1.69477577       0.00000000       0.00000000       0.01616845       0.01487012       0.01032399       0.02630298
H       -6.46611429      -3.04445520      -2.07075787       0.00000000       0.00000000      -0.01137788      -0.00918677      -0.02469432       0.03637212
H       -6.56197634      -1.55119547      -3.87242241       0.00000000       0.00000000      -0.04505834       0.01501833      -0.02255638       0.04253079
H       -4.85534732      -1.67697912      -4.22922070       0.00000000       0.00000000       0.03054106      -0.03924282       0.04970335       0.03716287
H       -6.03315276      -0.23154331      -1.82015705       0.00000000       0.00000000       0.11873290      -0.03340351      -0.07092892       0.02193117
H       -5.48216725       0.54447781      -3.30420489       0.00000000       0.00000000      -0.05056745      -0.04543316       0.00997897       0.04596315
H       -3.62401315      -1.13249799      -1.55785946       0.00000000       0.00000000      -0.02679565      -0.03982199      -0.01597370       0.01542754
H       -3.86078452       0.58404963      -1.36711125       0.00000000       0.00000000      -0.01808264       0.02589676       0.01543533       0.04110811
H       -2.93775734      -0.57933794      -3.98176958       0.00000000       0.00000000       0.04269725      -0.06432937      -0.08384114       0.04714692
H       -1.81049532      -0.14364316      -2.67755816       0.00000000       0.00000000      -0.07855118      -0.00212941       0.03991991       0.04343011
H       -3.72332447       1.81745534      -4.02769741       0.00000000       0.00000000       0.01048954      -0.01051111       0.02287276       0.04059896
H       -1.98695642       1.71041197      -4.28546111       0.00000000       0.00000000      -0.03544866      -0.03056366       0.01315388       0.05209494
H       -2.58840342       2.15527943      -2.70568395       0.00000000       0.00000000       0.01934890      -0.01799676      -0.02874723       0.05158069
H        1.86737715      -3.21658304      -1.70266156       0.00000000       0.00000000      -0.00545243      -0.07333110      -0.13029198       0.08787971
H        1.41864694      -3.12617622       0.02435887       0.00000000       0.00000000       0.00653128       0.01253339       0.04298728       0.06300926
H        3.61732580      -1.33102566      -1.48928236       0.00000000       0.00000000       0.04648897      -0.06954879      -0.03836193       0.08001417
H        3.27544497      -1.65109745       0.25047671       0.00000000       0.00000000      -0.02341418      -0.00044727      -0.03482034       0.09380096
H        3.51424101       2.82310061      -0.56755218       0.00000000       0.00000000       0.00400352       0.01268509       0.01589010       0.08791495
H        5.27316941       2.70251563      -0.41666041       0.00000000       0.00000000       0.05674430       0.05027361      -0.04413699       0.07096515
H        4.65343479       4.18999062       1.17187247       0.00000000       0.00000000      -0.00122164      -0.05214527       0.02304819       0.06340113
H        4.94030316       2.75771924       2.14272988       0.00000000       0.00000000       0.01274390      -0.02586735      -0.06940680       0.06135508
H        2.15161200       3.50366630       1.23503031       0.00000000       0.00000000      -0.02740790      -0.00720344       0.03835669       0.04257411
H        2.89811758       4.29363192       2.61806419       0.00000000       0.00000000      -0.02115742      -0.01898378      -0.02837270       0.05770825
H        2.41704546       1.29072156       2.41791674       0.00000000       0.00000000      -0.00645437      -0.02448653      -0.01909032       0.03000932
H        1.40868812       2.45307660       3.26763570       0.00000000       0.00000000      -0.01671161       0.00497693      -0.03177599       0.05534403
H        3.41686016       3.09650938       4.68030678       0.00000000       0.00000000      -0.01314884       0.03635191      -0.04218886       0.04785836
H        4.26770867       1.71355340       4.00590337       0.00000000       0.00000000       0.02638390      -0.01307782      -0.03473309       0.02423039
H        1.66444130       1.63588826       5.58837542       0.00000000       0.00000000      -0.01845416       0.03693057       0.00473145       0.04265702
H        3.24155365       1.06896348       6.12851158       0.00000000       0.00000000       0.01266317       0.01410712       0.00093116       0.04381746
H        2.39427734       0.23039851       4.82585845       0.00000000       0.00000000      -0.02615385      -0.00918076      -0.01180449       0.01576974
H        6.17843677       0.71461101      -0.65454677       0.00000000       0.00000000       0.08753377      -0.04560562       0.00983581       0.07896645
H        5.41769000      -0.77543242      -0.10855989       0.00000000       0.00000000      -0.08796594       0.07027390       0.02361114       0.04892611
H        5.40947124       0.30194650       2.25374104       0.00000000       0.00000000       0.05507265      -0.00797867      -0.03618089       0.03958438
H        6.54617833       1.48563058       1.58845255       0.00000000       0.00000000       0.00440013      -0.03581602       0.04146027       0.06428989
H        7.09461069      -1.50652276       1.50485052       0.00000000       0.00000000       0.01742967       0.00712142      -0.02302638       0.04273962
H        7.49776573      -0.47915314       2.86440958       0.00000000       0.00000000       0.03011191      -0.00070981       0.04071510       0.04802158
H        9.47453361      -0.64864384       1.68151636       0.00000000       0.00000000       0.01412412      -0.03251609       0.00971221       0.04991289
H        8.87791469       0.95851221       1.31388434       0.00000000       0.00000000      -0.00841545       0.01622170      -0.01311702       0.04171693
H        9.87082389      -0.14022174      -0.62162006       0.00000000       0.00000000       0.03663919       0.02079604      -0.01158533       0.04828574
H        8.18716083       0.21225910      -0.94046895       0.00000000       0.00000000      -0.03769143       0.02144631       0.00007481       0.02279881
H        9.28853320      -2.51128162      -0.10645015       0.00000000       0.00000000       0.01306449      -0.00369168       0.01304238       0.04558465
H        8.86688949      -2.03851075      -1.74891822       0.00000000       0.00000000       0.00547469      -0.00855789       0.00282012       0.04227369
H        7.60722700      -2.18789090      -0.52979094       0.00000000       0.00000000      -0.00958592       0.00698633      -0.01164519       0.01783891
C        0.26416008       6.19235615       3.64771150       0.00000000       0.00000000       0.02703953       0.02529806       0.00402449      -0.10678365
C       -0.79288147       5.12619100       3.89357190       0.00000000       0.00000000       0.04047680      -0.00312230       0.01944438      -0.05348513
C       -2.13525640       5.53920002       3.30021075       0.00000000       0.00000000       0.00226950      -0.00087122       0.01003836      -0.06431751
C       -3.16252865       4.41174202       3.29332695       0.00000000       0.00000000      -0.01458819      -0.02651963       0.02323088      -0.05787734
C       -3.64273469       3.98361930       4.67984230       0.00000000       0.00000000       0.00367875      -0.00174296       0.01251698      -0.06398067
C       -4.74023256       2.91768437       4.61869447       0.00000000       0.00000000       0.03158489       0.01182394      -0.00124784      -0.06328212
C       -4.21019712       1.54842883       4.18501045       0.00000000       0.00000000      -0.00378360      -0.01382425      -0.00496867      -0.06315094
C       -5.33669927       0.56106484       3.87196306       0.00000000       0.00000000      -0.06711205       0.02983591      -0.08482319      -0.06542835
C       -6.09019989       0.87674018       2.57641096       0.00000000       0.00000000      -0.04673052      -0.02164628      -0.07253907      -0.07481691
C       -5.40733857       0.42147185       1.28592794       0.00000000       0.00000000       0.04733121       0.08012292       0.01520044      -0.01625301
N       -4.14244913       1.06624052       0.96227242       0.00000000       0.00000000       0.01138181       0.06824728      -0.00578443      -0.04651203
C       -4.15367190       2.49898701       0.59545039       0.00000000       0.00000000      -0.08249050       0.05476783       0.00866197      -0.01368017
C       -4.77331122       2.88802377      -0.74717008       0.00000000       0.00000000      -0.01248097       0.01324504      -0.05281844      -0.07439614
C       -4.81952451       4.40513349      -1.00190028       0.00000000       0.00000000      -0.00020535      -0.01935854       0.02015851      -0.06569812
C       -3.50318177       5.18986938      -1.13499088       0.00000000       0.00000000      -0.02990398      -0.01279878       0.02514651      -0.06805121
C       -2.53282525       4.71252672      -2.21854185       0.00000000       0.00000000      -0.01114386      -0.01394759       0.04509281      -0.06317266
C       -1.50110463       5.79041849      -2.55902519       0.00000000       0.00000000      -0.02032844      -0.00713254       0.02001179      -0.06243978
C       -0.46952388       5.35506728      -3.60665635       0.00000000       0.00000000      -0.03749682       0.00840212       0.02512063      -0.06051350
C        0.46052290       4.20794421      -3.19783905       0.00000000       0.00000000      -0.00974709       0.03118637      -0.00411426      -0.05838256
C        1.30933142       4.46934388      -1.95171139       0.00000000       0.00000000       0.00989711       0.02634069       0.00506277      -0.05170623
C        2.37173135       5.54381190      -2.14059480       0.00000000       0.00000000       0.00826836       0.01465935      -0.01496601      -0.10691537
C       -3.01333093       0.39015497       0.83909438       0.00000000       0.00000000       0.05849154       0.03867484      -0.05770365       0.26851790
O       -2.08158032       0.82837742       0.13829575       0.00000000       0.00000000       0.03526150       0.08259777       0.08249364      -0.37931194
C       -2.73653732      -0.92445941       1.59269857       0.00000000       0.00000000      -0.00756377       0.00315932      -0.00755242       0.04939055
O       -1.31247628      -1.03994769       1.57929207       0.00000000       0.00000000      -0.07961467      -0.08897897      -0.03362996      -0.22738889
C       -0.75729839      -2.07185292       2.38239549       0.00000000       0.00000000      -0.07347539      -0.02907560      -0.03185737       0.05117673
C        0.75762755      -1.80986923       2.36885485       0.00000000       0.00000000      -0.03220496       0.06830629      -0.05334900       0.25683897
O        1.14762986      -0.85694300       1.66950766       0.00000000       0.00000000       0.12642232      -0.10182769      -0.01447274      -0.37711323
N        1.58472071      -2.58459523       3.07116936       0.00000000       0.00000000       0.02223833       0.02226365      -0.03760138      -0.06624357
C        2.96229595      -2.11545363       3.29069827       0.00000000       0.00000000       0.04495417      -0.04386905      -0.01565572      -0.01284099
C        4.11486062      -3.12556255       3.13731287       0.00000000       0.00000000       0.00770952      -0.00557559       0.02736340      -0.07704647
C        4.79685193      -3.22098519       1.76646256       0.00000000       0.00000000      -0.01800747       0.00316096       0.06835934      -0.07136291
C        4.08595707      -4.08482878       0.72180208       0.00000000       0.00000000      -0.03187893       0.00197503       0.03688329      -0.06079640
C        4.47815400      -5.56076221       0.76079758       0.00000000       0.00000000      -0.00263066      -0.03350260       0.00543675      -0.05935184
C        3.84894381      -6.31995042      -0.40065960       0.00000000       0.00000000      -0.01389742      -0.02035472      -0.00295618      -0.10779256
C        1.16746658      -3.72378428       3.88622880       0.00000000       0.00000000       0.02801133       0.09204112      -0.02516175      -0.02272430
C        1.21496417      -5.04815534       3.11440532       0.00000000       0.00000000      -0.00664500       0.08643105      -0.00676718      -0.06340501
C        0.70924194      -6.25400175       3.91606117       0.00000000       0.00000000      -0.00189940       0.06050997      -0.06101930      -0.06679913
C        1.65941963      -6.79977649       4.99058236       0.00000000       0.00000000      -0.05479845       0.02444602      -0.01673483      -0.06668239
C        1.71909950      -6.03893034       6.31908420       0.00000000       0.00000000       0.01242147       0.02475738       0.01394030      -0.05802190
C        0.36234479      -5.80026363       6.97122646       0.00000000       0.00000000       0.00376316      -0.00555080      -0.01019328      -0.10848104
H        1.21401732       5.90412186       4.09061649       0.00000000       0.00000000       0.02612727      -0.00291288       0.01807550       0.02902712
H        0.40770878       6.33749419       2.58029364       0.00000000       0.00000000       0.01267814      -0.00576341      -0.02183205       0.03922867
H       -0.04308806       7.13836331       4.08391927       0.00000000       0.00000000       0.00105302       0.03506677       0.01750608       0.04091433
H       -0.46917652       4.19285554       3.42878482       0.00000000       0.00000000      -0.01393721      -0.03183602      -0.01455203       0.02774919
H       -0.89107594       4.95598147       4.96616523       0.00000000       0.00000000      -0.01616133      -0.00348944       0.03713912       0.02822482
H       -2.53210539       6.39819491       3.84132925       0.00000000       0.00000000      -0.00013454       0.02688649       0.03547921       0.03835915
H       -1.96852231       5.84240875       2.26536662       0.00000000       0.00000000       0.02421084       0.02612005      -0.02115951       0.04292857
H       -4.02591095       4.74481001       2.71135647       0.00000000       0.00000000      -0.01675340      -0.01013957       0.01863045       0.02595827
H       -2.71040862       3.56025791       2.78106104       0.00000000       0.00000000       0.00735707      -0.01217015       0.00860955       0.01864381
H       -2.80418392       3.59775995       5.26127589       0.00000000       0.00000000       0.00143401       0.01705841       0.00221448       0.03512708
H       -4.03511681       4.85926360       5.19927111       0.00000000       0.00000000       0.00990233      -0.00195713       0.00225828       0.04468741
H       -5.20244797       2.81379670       5.60261376       0.00000000       0.00000000       0.02965016       0.01254894      -0.00738770       0.04103438
H       -5.52083252       3.25911715       3.93587837       0.00000000       0.00000000       0.02572771       0.00356982       0.00049720       0.03227882
H       -3.55834074       1.65701631       3.31795794       0.00000000       0.00000000      -0.00102341       0.01635081      -0.00884956       0.02281736
H       -3.60203867       1.14520015       4.99644215       0.00000000       0.00000000       0.01259033      -0.01485341       0.04691493       0.03266747
H       -4.95202534      -0.46297227       3.81867959       0.00000000       0.00000000      -0.00699415       0.05277561       0.02131460       0.01796185
H       -6.05299685       0.58943037       4.69472614       0.00000000       0.00000000       0.01266630       0.00242999       0.00405746       0.05873480
H       -7.04798079       0.35654218       2.59066705       0.00000000       0.00000000      -0.06694860       0.01924919       0.06434700       0.06390736
H       -6.30428406       1.94348604       2.51468937       0.00000000       0.00000000       0.00013035      -0.05281803       0.06225622       0.06665584
H       -5.25011449      -0.66111480       1.30437578       0.00000000       0.00000000       0.00023136       0.12576530       0.03689153       0.04984808
H       -6.07287798       0.64635074       0.44367971       0.00000000       0.00000000      -0.03715999      -0.04603211       0.10457900       0.08264162
H       -4.71290927       2.99739007       1.38458061       0.00000000       0.00000000      -0.06617234       0.03785868       0.08637015       0.08729791
H       -3.12769396       2.87295417       0.62380287       0.00000000       0.00000000      -0.01605519      -0.16027039       0.00611613       0.07930563
H       -4.22982239       2.43335254      -1.56561866       0.00000000       0.00000000       0.05841578       0.01203235      -0.02348333       0.06806421
H       -5.80263499       2.52472214      -0.78419573       0.00000000       0.00000000      -0.01863460       0.00325073      -0.02275403       0.04145418
H       -5.36923119       4.53416064      -1.93864363       0.00000000       0.00000000      -0.00801630       0.00175052       0.06138689       0.05106898
H       -5.40888539       4.87550082      -0.21130580       0.00000000       0.00000000       0.00977796       0.01178792      -0.00393910       0.03906211
H       -3.79879562       6.21137537      -1.38593839       0.00000000       0.00000000       0.00922967       0.02743831       0.08221719       0.04658463
H       -2.97047167       5.23262762      -0.18277019       0.00000000       0.00000000      -0.05481604      -0.06569782       0.02485261       0.03776387
H       -2.00149153       3.83232732      -1.85916781       0.00000000       0.00000000       0.01062358      -0.02736795       0.02224351       0.03762178
H       -3.08152633       4.45179928      -3.12678377       0.00000000       0.00000000      -0.01085452       0.00917057       0.03818297       0.03329614
H       -2.02919462       6.66122445      -2.95471736       0.00000000       0.00000000       0.01725822       0.01196184       0.00723146       0.03506087
H       -1.00113905       6.10568476      -1.64225209       0.00000000       0.00000000       0.03338013      -0.02139769      -0.01273571       0.04033703
H       -1.00379194       5.04915302      -4.51068015       0.00000000       0.00000000       0.01007246      -0.00210872       0.01517848       0.03161026
H        0.13736797       6.22280414      -3.87374337       0.00000000       0.00000000      -0.02521318      -0.01274780       0.03215668       0.04007820
H       -0.12664087       3.30239039      -3.02647608       0.00000000       0.00000000      -0.00354675       0.00693559       0.01615534       0.03463010
H        1.13247521       4.00462772      -4.03588673       0.00000000       0.00000000      -0.00118934       0.00311980      -0.02695938       0.02730179
H        0.66450290       4.75771774      -1.12242601       0.00000000       0.00000000      -0.02385002       0.00004049       0.00400316       0.04629710
H        1.79870433       3.52528932      -1.68291857       0.00000000       0.00000000      -0.02296041      -0.01113549      -0.00549000       0.01256668
H        1.91303303       6.49846123      -2.37747520       0.00000000       0.00000000      -0.00479054       0.01925696      -0.01000918       0.04809303
H        2.94982921       5.66817510      -1.22651452       0.00000000       0.00000000       0.01151993       0.00222838      -0.01461982       0.02752332
H        3.05208766       5.28096717      -2.94748486       0.00000000       0.00000000       0.00735157      -0.00252327      -0.01957518       0.03251979
H       -3.11044972      -0.85249109       2.62015685       0.00000000       0.00000000      -0.00147318      -0.02758870       0.02064834       0.08666984
H       -3.18979284      -1.78591745       1.08149774       0.00000000       0.00000000      -0.01699458       0.00757436       0.01719558       0.07587464
H       -1.14431494      -2.02379624       3.40889117       0.00000000       0.00000000       0.00790716       0.08610681       0.02371660       0.08131022
H       -0.98914941      -3.06283081       1.96903022       0.00000000       0.00000000      -0.05516289      -0.05884705      -0.03979888       0.06779517
H        3.11972903      -1.24957186       2.64127722       0.00000000       0.00000000      -0.01272602      -0.07601544       0.03063041       0.07657214
H        2.98779357      -1.76387152       4.32942717       0.00000000       0.00000000       0.00222527       0.00690669      -0.05820015       0.07080258
H        4.88074888      -2.78035170       3.83432537       0.00000000       0.00000000       0.00669489      -0.07270708       0.02381385       0.06559173
H        3.80798566      -4.11721906       3.46284984       0.00000000       0.00000000       0.02490919       0.03752982       0.03941603       0.06639245
H        4.93414035      -2.20650194       1.39075373       0.00000000       0.00000000      -0.02105026      -0.01726856       0.01742000       0.03150928
H        5.79439118      -3.63754119       1.91674789       0.00000000       0.00000000      -0.00576188       0.00676310       0.04423597       0.05966689
H        3.00781151      -4.00157857       0.86514241       0.00000000       0.00000000      -0.07078670      -0.03132954      -0.00691569       0.01411663
H        4.32386522      -3.71580566      -0.27952861       0.00000000       0.00000000       0.02251635       0.01905499       0.01790365       0.02477182
H        5.56226961      -5.64910762       0.69563369       0.00000000       0.00000000       0.02871732       0.01949818      -0.00113375       0.04920403
H        4.16768086      -6.01534110       1.70165861       0.00000000       0.00000000       0.00486741      -0.00308905       0.04841417       0.03615478
H        4.16957914      -5.89558676      -1.35001851       0.00000000       0.00000000       0.00597563      -0.01078215       0.00370124       0.03691199
H        4.14605481      -7.36351381      -0.38517051       0.00000000       0.00000000       0.01566978      -0.01233223       0.03070474       0.05609910
H        2.76205286      -6.27804741      -0.34923503       0.00000000       0.00000000      -0.01502821      -0.01488702       0.01205545       0.02202676
H        1.85001635      -3.76709495       4.73365271       0.00000000       0.00000000      -0.01293964      -0.04045208       0.01800432       0.09276513
H        0.16305207      -3.56381749       4.28305388       0.00000000       0.00000000      -0.00043741       0.02019503      -0.06766100       0.05443502
H        0.60334930      -4.93957235       2.21197368       0.00000000       0.00000000      -0.03123048      -0.03975036       0.01994429       0.01433672
H        2.23562681      -5.25165148       2.79021171       0.00000000       0.00000000      -0.04284454      -0.01462268       0.01115905       0.05906292
H       -0.25938663      -6.02022520       4.35894961       0.00000000       0.00000000       0.03104367      -0.01904579       0.00321969       0.04730823
H        0.54871570      -7.05357634       3.19019511       0.00000000       0.00000000      -0.01953882      -0.04215876       0.03271880       0.04720280
H        1.33540891      -7.81721331       5.21239884       0.00000000       0.00000000      -0.04443026      -0.01648749       0.01292600       0.05276339
H        2.67032495      -6.87701146       4.58090584       0.00000000       0.00000000      -0.03817985       0.04207397      -0.01211326       0.03498409
H        2.32292180      -6.63142128       7.00713378       0.00000000       0.00000000       0.03503028      -0.04233210      -0.01430968       0.04909196
H        2.23660054      -5.08600432       6.19963847       0.00000000       0.00000000       0.01330864       0.04421593      -0.01615320       0.02037852
H       -0.17659248      -6.73635320       7.08720522       0.00000000       0.00000000       0.00820758      -0.02207235      -0.00708112       0.04793404
H        0.50145433      -5.36517602       7.95757107       0.00000000       0.00000000      -0.00979191      -0.01078102      -0.00758355       0.04641120
H       -0.25277912      -5.11833852       6.38856458       0.00000000       0.00000000      -0.00132582       0.01658393       0.00422639       0.02223385
N       -0.30591393       2.71065782       0.46396804       0.00000000       0.00000000      -0.09019915      -0.00676347       0.02617523       0.80536236
O       -0.55405849       3.82984648       0.77228519       0.00000000       0.00000000      -0.05042324       0.03891365      -0.07883793      -0.38185616
O       -0.06755709       1.85069574       1.33440937       0.00000000       0.00000000       0.02612029       0.01162712      -0.02008859      -0.44639035
O       -0.29236471       2.35144251      -0.72089901       0.00000000       0.00000000       0.05966365       0.03849609       0.00364998      -0.40586335
