193
Properties=species:S:1:pos:R:3:initial_charges:R:1:initial_magmoms:R:1:forces:R:3:charge:R:1 energy=-7130.795465125174 free_energy=-7130.795465125174 dipole="0.8804709355049266 0.3189424861222177 0.42526186834575574" pbc="F F F"
Dy      -0.00806717      -0.06645942       0.21357991       3.00000000       0.00000000       0.07892323       0.03623167      -0.06290132       0.78712749
C       -3.82409648       6.86836949      -3.47869612       0.00000000       0.00000000      -0.00523931      -0.03956236      -0.05862326      -0.10386208
C       -3.72404098       7.81089681      -2.28542068       0.00000000       0.00000000      -0.00082416      -0.04566857      -0.06685721      -0.05371641
C       -4.81931441       7.52470727      -1.25788542       0.00000000       0.00000000       0.02042827       0.02359864       0.00590159      -0.06292367
C       -4.58647129       8.28886041       0.04476840       0.00000000       0.00000000       0.01661056       0.02412253       0.04063618      -0.06354293
C       -5.49279449       7.83820283       1.20008193       0.00000000       0.00000000      -0.02223116      -0.05640498       0.07106923      -0.06169762
C       -4.75581360       7.09724429       2.33320373       0.00000000       0.00000000       0.03574098      -0.06887773       0.08133244      -0.06992211
C       -4.58588859       5.62325149       2.10820232       0.00000000       0.00000000       0.02440848      -0.02202349      -0.02828830       0.03033483
C       -5.21548394       4.68723738       2.92793512       0.00000000       0.00000000       0.06887127       0.02647895      -0.00832809      -0.03341568
C       -4.97500914       3.32242286       2.80559075       0.00000000       0.00000000       0.04357467       0.03153918      -0.01448364      -0.03910645
C       -4.11121315       2.87753578       1.81494397       0.00000000       0.00000000      -0.00532342       0.05480803       0.04085525       0.04487479
N       -3.82263246       1.49727250       1.49954406       0.00000000       0.00000000      -0.00819298      -0.03067250      -0.03610483      -0.08200719
C       -4.72684390       0.97859449       0.45262378       0.00000000       0.00000000      -0.03923218      -0.04122640       0.01479734       0.00320379
C       -5.22705927      -0.41127649       0.82193890       0.00000000       0.00000000       0.02172193      -0.00509630       0.00426239      -0.11544125
C       -2.54775443       1.05034561       1.42322654       0.00000000       0.00000000      -0.02385231      -0.04918386      -0.09355294       0.27246907
O       -2.12158354       0.53127106       0.36642590       0.00000000       0.00000000      -0.03825550       0.00461532       0.12655842      -0.37508432
C       -1.57830527       1.10221988       2.58615231       0.00000000       0.00000000       0.03111034       0.02652426      -0.01277548       0.07978444
C       -1.80948525       1.59231590       3.86245471       0.00000000       0.00000000      -0.05840108      -0.06871699      -0.02634105      -0.01568027
C       -0.72765563       1.68957642       4.73002323       0.00000000       0.00000000      -0.04471814       0.05833688      -0.05220207      -0.00878602
C        0.52810073       1.24488258       4.36368340       0.00000000       0.00000000       0.07970627      -0.00385739       0.00453045      -0.02431811
C        0.68244159       0.70487807       3.09141141       0.00000000       0.00000000       0.05564805      -0.08854453       0.02364330       0.10276568
C        2.01508521       0.33761490       2.52286906       0.00000000       0.00000000      -0.00695771      -0.02059764      -0.03816556       0.11011313
C        3.19435558       0.90587869       3.00921017       0.00000000       0.00000000       0.02644618      -0.04673741      -0.01230626      -0.02143430
C        4.37594203       0.66763175       2.33347032       0.00000000       0.00000000       0.10369646      -0.12641461      -0.03654619       0.00616398
C        4.37582981      -0.08476525       1.16347534       0.00000000       0.00000000      -0.04974352      -0.01338747      -0.05917128      -0.02755887
C        3.16868862      -0.60932190       0.71980704       0.00000000       0.00000000      -0.02957777       0.06983247       0.01252624       0.07556047
C        2.84563439      -1.24276558      -0.61825993       0.00000000       0.00000000       0.12574527       0.05371666      -0.00684951       0.25871040
O        1.68895584      -0.97338352      -1.02069278       0.00000000       0.00000000      -0.09188157      -0.06709795       0.03513478      -0.41604907
N        3.62634297      -2.03995265      -1.35207056       0.00000000       0.00000000      -0.08538342      -0.04305567       0.01500039      -0.04292893
C        5.08008834      -2.06041946      -1.32850687       0.00000000       0.00000000      -0.09583249      -0.10575818       0.04775109      -0.01183595
C        5.62296150      -0.90295068      -2.16293503       0.00000000       0.00000000       0.01601257      -0.05601336       0.08444019      -0.12078377
C        2.98927036      -2.94569421      -2.26698595       0.00000000       0.00000000      -0.04243729      -0.04228564      -0.08751170       0.05531570
C        3.47516515      -3.26467225      -3.53357108       0.00000000       0.00000000       0.08694683      -0.02712353       0.04940265      -0.04118859
C        2.92853288      -4.31523930      -4.25920743       0.00000000       0.00000000       0.01655929       0.03490728       0.04002944      -0.03329974
C        1.90079496      -5.09701260      -3.73824007       0.00000000       0.00000000      -0.03574193       0.11872602      -0.00743591       0.02556142
C        1.36668335      -6.31728984      -4.42453226       0.00000000       0.00000000       0.00228989       0.04446690      -0.02573980      -0.07662830
C        0.02923261      -6.11301906      -5.17828759       0.00000000       0.00000000       0.01558024       0.01333849      -0.04559469      -0.06074887
C       -1.19650951      -6.50596583      -4.34340954       0.00000000       0.00000000       0.02676187      -0.02783555      -0.04410705      -0.06481288
C       -2.55861890      -6.33225468      -5.03466118       0.00000000       0.00000000      -0.02901513       0.02360730      -0.01670852      -0.07005187
C       -3.06197438      -4.89719501      -5.20680104       0.00000000       0.00000000       0.00965581       0.00953143      -0.00278473      -0.05387659
C       -4.47286803      -4.83162409      -5.79175893       0.00000000       0.00000000       0.06700791      -0.01755812       0.02379271      -0.11032616
C        1.39144185      -4.72517335      -2.50336792       0.00000000       0.00000000      -0.02200216       0.02741863       0.04049815      -0.05044205
C        1.89968662      -3.66109001      -1.79146928       0.00000000       0.00000000       0.02850250      -0.03680897      -0.01675661      -0.04692942
N        2.03145088      -0.42478808       1.42361616       0.00000000       0.00000000      -0.09066219       0.00031731      -0.06845386      -0.16547051
N       -0.36098181       0.64336452       2.26051221       0.00000000       0.00000000       0.00853221       0.01363929       0.13313457      -0.14447821
C       -3.57166719       3.79665259       0.91639684       0.00000000       0.00000000       0.02118631       0.03417764       0.00192627      -0.04317241
C       -3.77227856       5.14986460       1.08036795       0.00000000       0.00000000       0.00117195       0.01056972       0.06743471      -0.03469171
H       -3.09508059       7.12520039      -4.24309187       0.00000000       0.00000000       0.01514755       0.03066464       0.00808220       0.03706528
H       -4.81352641       6.92274299      -3.92382103       0.00000000       0.00000000      -0.01124213       0.03318807      -0.00759881       0.04790020
H       -3.64995536       5.83612438      -3.17373835       0.00000000       0.00000000      -0.00991563      -0.00063088       0.02192661       0.01497508
H       -3.80423324       8.84251976      -2.63133709       0.00000000       0.00000000      -0.00708149      -0.02578817       0.03683843       0.04523059
H       -2.73781104       7.69660603      -1.82042184       0.00000000       0.00000000      -0.04920342       0.01267648       0.01031311       0.01350959
H       -4.85923459       6.44769121      -1.06919169       0.00000000       0.00000000      -0.00357079       0.03234115       0.03092341       0.02363357
H       -5.78629249       7.81958145      -1.66778477       0.00000000       0.00000000       0.01245798      -0.05002818      -0.03314865       0.04464408
H       -4.75070743       9.34892138      -0.15020158       0.00000000       0.00000000      -0.00241610       0.00114656      -0.01533702       0.04843198
H       -3.54022493       8.19028718       0.34493079       0.00000000       0.00000000       0.02791797      -0.00343853      -0.01807732       0.02576372
H       -6.28831288       7.19750559       0.82203654       0.00000000       0.00000000      -0.05829306      -0.01243815      -0.04232108       0.04651829
H       -5.96986503       8.71182309       1.64162752       0.00000000       0.00000000       0.01521592       0.01541729       0.01190741       0.05688485
H       -5.29398142       7.24668977       3.27047294       0.00000000       0.00000000      -0.05714941      -0.00253240      -0.04587219       0.05456349
H       -3.76364600       7.54169906       2.45492873       0.00000000       0.00000000      -0.02275041       0.01669527       0.01268435       0.05381802
H       -5.90385637       5.04420035       3.68296443       0.00000000       0.00000000       0.09023464      -0.12169761      -0.01305895       0.07032154
H       -5.46788540       2.63638115       3.47868453       0.00000000       0.00000000       0.06892208      -0.04757175      -0.06048560       0.06251981
H       -4.19690543       0.93932046      -0.50544500       0.00000000       0.00000000      -0.01995043       0.03514614       0.02612671       0.06350467
H       -5.56853256       1.66351377       0.35723450       0.00000000       0.00000000       0.01342152       0.04728634       0.08372559       0.07602984
H       -4.38890402      -1.10341952       0.88769142       0.00000000       0.00000000      -0.03900263      -0.01948970       0.01214619       0.04431814
H       -5.91574156      -0.75543387       0.05194743       0.00000000       0.00000000       0.07270298      -0.00330683       0.07369590       0.07329190
H       -5.75658641      -0.39685040       1.77356103       0.00000000       0.00000000       0.06403627       0.01450763      -0.06990371       0.06688702
H       -2.79747971       1.89867066       4.15748634       0.00000000       0.00000000      -0.07229648       0.00403358       0.06434146       0.09384974
H       -0.85265040       2.15390147       5.68590121       0.00000000       0.00000000      -0.02622371       0.03135959       0.00442683       0.13119765
H        1.36333644       1.31145965       5.04330427       0.00000000       0.00000000      -0.09625312       0.03798762       0.04016004       0.08827659
H        3.18808750       1.55438720       3.86508630       0.00000000       0.00000000       0.01103422       0.05460297       0.11324977       0.08987891
H        5.29979496       1.08758040       2.69304830       0.00000000       0.00000000       0.07870838       0.06029875       0.03141722       0.10209565
H        5.28097289      -0.20785185       0.59376642       0.00000000       0.00000000       0.04324513       0.08339294       0.08565817       0.09354311
H        5.39053726      -3.02120172      -1.74137022       0.00000000       0.00000000       0.08721498       0.02094217      -0.06421538       0.08865191
H        5.42751075      -2.02028941      -0.29552513       0.00000000       0.00000000       0.05087519       0.02273149      -0.00100925       0.06773056
H        5.30475980      -0.98252433      -3.19827118       0.00000000       0.00000000       0.02074028      -0.02551126       0.00779125       0.06585700
H        6.70653447      -0.91532699      -2.14266153       0.00000000       0.00000000       0.07609138       0.05413100       0.03081102       0.08471011
H        5.25635353       0.04608671      -1.77989547       0.00000000       0.00000000       0.07891152       0.06120097       0.03434944       0.04344160
H        4.30681013      -2.72199977      -3.95023014       0.00000000       0.00000000       0.02203461      -0.00202813      -0.05991332       0.06421156
H        3.33262496      -4.56574540      -5.22954468       0.00000000       0.00000000       0.04916623       0.09860641       0.04695047       0.07442817
H        1.21150076      -7.09058423      -3.67081186       0.00000000       0.00000000       0.04453332      -0.06288980      -0.02602825       0.05947788
H        2.12667288      -6.66704291      -5.12038929       0.00000000       0.00000000      -0.03395341      -0.05067391      -0.10002598       0.06476192
H        0.05017870      -6.74674158      -6.06509944       0.00000000       0.00000000      -0.06212164      -0.00693196      -0.00196156       0.06226285
H       -0.03440487      -5.08274026      -5.53041429       0.00000000       0.00000000       0.00375643       0.02965408       0.00122824       0.02886347
H       -1.19588990      -5.97856814      -3.38659034       0.00000000       0.00000000      -0.00210474       0.02676819      -0.07712852       0.01406378
H       -1.09797610      -7.56932493      -4.11968491       0.00000000       0.00000000       0.02212433      -0.04439429       0.04907549       0.04681724
H       -3.29751117      -6.86815639      -4.43637824       0.00000000       0.00000000      -0.01615028      -0.05915289      -0.02570108       0.04621145
H       -2.52120379      -6.80870598      -6.01397189       0.00000000       0.00000000       0.00764707      -0.03040313      -0.01837715       0.05313576
H       -2.38831684      -4.34932973      -5.87321308       0.00000000       0.00000000      -0.04592222      -0.00509250       0.02433694       0.02306512
H       -3.08720901      -4.39865283      -4.23106791       0.00000000       0.00000000       0.00594427      -0.02527061      -0.05063351       0.01413210
H       -4.52144296      -5.34218428      -6.75002369       0.00000000       0.00000000       0.00714472       0.00677922       0.03537521       0.05323384
H       -4.76366743      -3.79195079      -5.93911262       0.00000000       0.00000000       0.00952511      -0.07379814      -0.02234068       0.03791340
H       -5.19304259      -5.28945026      -5.11662558       0.00000000       0.00000000       0.04780104      -0.04074557      -0.04692434       0.04387934
H        0.61800250      -5.32546333      -2.06437582       0.00000000       0.00000000      -0.00683235       0.00225815      -0.03198089       0.05325254
H        1.48480687      -3.42348357      -0.82385111       0.00000000       0.00000000       0.08860340       0.06166614      -0.08102287       0.02638746
H       -2.97952616       3.42573310       0.08884573       0.00000000       0.00000000      -0.05837794       0.05004141      -0.05387689       0.01851648
H       -3.29159972       5.84023169       0.40527953       0.00000000       0.00000000      -0.03958044      -0.01624588       0.05406008       0.06572630
C        6.76293027      -5.51099718       2.74101733       0.00000000       0.00000000       0.01388023       0.02356025       0.04595626      -0.10528560
C        6.55393637      -6.18498596       1.38907703       0.00000000       0.00000000       0.00483846       0.03093245       0.06081372      -0.05309474
C        5.44765123      -7.23769755       1.47697486       0.00000000       0.00000000      -0.00625363       0.00144537      -0.08199254      -0.06283527
C        4.93866338      -7.67657103       0.10169688       0.00000000       0.00000000       0.05802518       0.01571670      -0.07361702      -0.06231768
C        3.71049090      -8.59992887       0.19435146       0.00000000       0.00000000      -0.02152062      -0.00308564      -0.02263706      -0.06436217
C        2.61007338      -8.27241538      -0.83168820       0.00000000       0.00000000      -0.07329075       0.10321870       0.00969807      -0.06996721
C        1.65746716      -7.20013485      -0.36998240       0.00000000       0.00000000      -0.02934598      -0.00507247       0.05705963       0.03094828
C        0.28331092      -7.30126017      -0.59336776       0.00000000       0.00000000       0.04496575      -0.04361387       0.07363206      -0.03377719
C       -0.59413399      -6.28407191      -0.23287504       0.00000000       0.00000000      -0.00890193      -0.09347617      -0.00788286      -0.03981325
C       -0.10598514      -5.13855892       0.37662755       0.00000000       0.00000000       0.01251976      -0.06008363      -0.06030513       0.04216993
N       -0.93004333      -4.04873066       0.82194648       0.00000000       0.00000000      -0.01663197      -0.00698689       0.03719344      -0.06447751
C       -1.31157748      -4.16538990       2.23430566       0.00000000       0.00000000      -0.03510278       0.00935069       0.12669274       0.00076749
C       -2.80590480      -4.43982840       2.35588942       0.00000000       0.00000000      -0.00302522       0.01334911       0.01934219      -0.11758623
C       -0.98495476      -2.81556666       0.30519006       0.00000000       0.00000000      -0.00137541      -0.04547597      -0.06859858       0.26532121
O       -1.10185937      -1.82087168       1.05856798       0.00000000       0.00000000       0.02414923      -0.00690399      -0.03056051      -0.39821122
C       -0.97017014      -2.53425663      -1.17764933       0.00000000       0.00000000      -0.01046941      -0.08571328      -0.08363270       0.07849046
C       -1.16605503      -3.46609819      -2.18289513       0.00000000       0.00000000      -0.08460661      -0.08222561      -0.04009240      -0.01823572
C       -0.99504101      -3.05713506      -3.49926334       0.00000000       0.00000000      -0.04266265       0.01368230       0.01536443      -0.00167236
C       -0.68964676      -1.73910852      -3.78848000       0.00000000       0.00000000       0.04899350       0.04041225      -0.03154513      -0.02166065
C       -0.59853784      -0.83019440      -2.73779670       0.00000000       0.00000000      -0.06975504       0.09896178       0.00102356       0.10500097
C       -0.19220484       0.59899895      -2.89747546       0.00000000       0.00000000       0.00834822       0.08529028       0.01957175       0.10765543
C       -0.00197409       1.24415356      -4.12418102       0.00000000       0.00000000      -0.01583384       0.03447672       0.01958755      -0.02130232
C        0.49812956       2.53528582      -4.11667373       0.00000000       0.00000000      -0.03070887       0.07908202       0.04546108       0.00436815
C        0.82886250       3.16735268      -2.92192291       0.00000000       0.00000000      -0.02690367       0.00238162       0.04077967      -0.02828087
C        0.57402899       2.49426556      -1.73096379       0.00000000       0.00000000      -0.02320289      -0.01400599       0.02620200       0.07291569
C        0.80781198       2.91170815      -0.28323393       0.00000000       0.00000000      -0.00589779       0.07762881      -0.07818563       0.25912091
O        0.97140468       1.96124004       0.51771025       0.00000000       0.00000000      -0.08007254       0.03943902      -0.10919497      -0.41767180
N        0.76515024       4.16182412       0.18124099       0.00000000       0.00000000       0.00689820       0.07530446       0.01431561      -0.04551194
C        1.05606871       5.35061265      -0.60891723       0.00000000       0.00000000      -0.02233506      -0.03292674       0.04387100      -0.01288134
C        2.56303971       5.42363036      -0.83749418       0.00000000       0.00000000      -0.00775530       0.03115040      -0.03715877      -0.12191229
C        0.43394467       4.40233571       1.56233096       0.00000000       0.00000000      -0.03377734       0.05677257      -0.01118134       0.05526114
C        1.12847115       5.27118961       2.39952166       0.00000000       0.00000000      -0.00095943       0.02395942      -0.03923011      -0.04008731
C        0.58261004       5.64394646       3.61991030       0.00000000       0.00000000       0.02325480      -0.02480149      -0.01059260      -0.03335503
C       -0.67483986       5.20271504       4.03093143       0.00000000       0.00000000       0.08064990      -0.04646555      -0.04799451       0.02719482
C       -1.33061585       5.68201605       5.29082272       0.00000000       0.00000000       0.04864459       0.00615105      -0.01707612      -0.07702752
C       -1.25016946       4.68040510       6.47059137       0.00000000       0.00000000       0.01252213      -0.01893002       0.03973995      -0.06143621
C       -2.53310259       3.85157412       6.62578216       0.00000000       0.00000000      -0.00324890       0.02885767       0.00698212      -0.06766256
C       -2.57284690       2.82355494       7.77274529       0.00000000       0.00000000      -0.01700103       0.04459960       0.02729053      -0.07205975
C       -1.69837988       1.56894887       7.67386802       0.00000000       0.00000000      -0.03597782       0.05604240       0.02259137      -0.05694676
C       -1.89272643       0.63561458       8.86593681       0.00000000       0.00000000      -0.00987428       0.02911512       0.00193337      -0.11106636
C       -1.33772776       4.31118440       3.19817602       0.00000000       0.00000000       0.03101996       0.03015500      -0.05444158      -0.04484812
C       -0.77804665       3.89482905       2.00764154       0.00000000       0.00000000      -0.01062173       0.03780253      -0.06667683      -0.04689308
N        0.06508600       1.25137026      -1.75652085       0.00000000       0.00000000      -0.04082143      -0.04611044       0.05791967      -0.15819105
N       -0.76797616      -1.24817913      -1.48147905       0.00000000       0.00000000      -0.06826136      -0.05430634      -0.05296663      -0.13815960
C        1.24704893      -5.07087134       0.70728644       0.00000000       0.00000000      -0.06367628      -0.04507396      -0.04232387      -0.04046192
C        2.11422280      -6.06939388       0.30773713       0.00000000       0.00000000      -0.04862764       0.02735576       0.06693186      -0.03673376
H        7.58966323      -4.80623858       2.70963610       0.00000000       0.00000000       0.02701077      -0.01056881      -0.04166399       0.03797521
H        6.97896534      -6.25194811       3.50563605       0.00000000       0.00000000       0.03321721      -0.02196582      -0.02198405       0.05015748
H        5.86629839      -4.97089682       3.04532895       0.00000000       0.00000000      -0.00641444      -0.00384904      -0.01292179       0.01955582
H        7.48613714      -6.64953601       1.06466230       0.00000000       0.00000000      -0.04499795       0.00354407      -0.00704386       0.04424369
H        6.28698599      -5.42532335       0.64412866       0.00000000       0.00000000      -0.00596471      -0.04565961       0.02234960       0.00985207
H        4.62090962      -6.82016671       2.06237656       0.00000000       0.00000000      -0.00636830      -0.04895417      -0.04340534       0.02456551
H        5.82038057      -8.11035687       2.01534430       0.00000000       0.00000000      -0.02916863       0.04285879       0.00896200       0.04810668
H        5.74973255      -8.17903736      -0.43050362       0.00000000       0.00000000      -0.05886266      -0.03083113       0.05018964       0.04498888
H        4.69324080      -6.79104581      -0.49566751       0.00000000       0.00000000       0.04148016      -0.03320933       0.04006391       0.01910823
H        3.27854649      -8.54075497       1.19647920       0.00000000       0.00000000       0.00916046       0.01156979      -0.03699598       0.04489123
H        4.02556891      -9.63457113       0.05139844       0.00000000       0.00000000      -0.01934991       0.06703553      -0.02727580       0.05690283
H        2.05023311      -9.17718069      -1.07538218       0.00000000       0.00000000      -0.04928620       0.03409072       0.10849494       0.06020766
H        3.07229857      -7.93835955      -1.76808735       0.00000000       0.00000000       0.03168437       0.00380523       0.06681462       0.05894938
H       -0.11002366      -8.19859895      -1.05016006       0.00000000       0.00000000      -0.01652529       0.07928786      -0.00884728       0.06751190
H       -1.65306031      -6.39622066      -0.41544989       0.00000000       0.00000000       0.01748817       0.00620091      -0.02390614       0.05700217
H       -1.05938732      -3.22523278       2.73076869       0.00000000       0.00000000      -0.01390138      -0.00595807       0.10744308       0.06980658
H       -0.73520169      -4.97244277       2.68599524       0.00000000       0.00000000      -0.02505910      -0.04769314      -0.02918218       0.07448847
H       -3.38418595      -3.65132550       1.87930220       0.00000000       0.00000000       0.03144993       0.01357903      -0.01074716       0.05057194
H       -3.07650568      -4.47321815       3.40764704       0.00000000       0.00000000      -0.00185435      -0.04311641      -0.01731692       0.07648808
H       -3.07076045      -5.39078868       1.90051537       0.00000000       0.00000000       0.04105775       0.00970083       0.01823628       0.06788176
H       -1.44341497      -4.47012398      -1.91826984       0.00000000       0.00000000      -0.03406685      -0.11276484      -0.12981546       0.09254377
H       -1.08077412      -3.76558908      -4.30198600       0.00000000       0.00000000       0.01522139      -0.04262369       0.01319562       0.12178702
H       -0.51552551      -1.43100468      -4.80260298       0.00000000       0.00000000       0.00587807      -0.01562001      -0.13641525       0.08868238
H       -0.22534064       0.78572303      -5.07217659       0.00000000       0.00000000      -0.06339339      -0.13069468       0.03087270       0.09466837
H        0.63233489       3.06577175      -5.04572918       0.00000000       0.00000000       0.07135657      -0.01558121      -0.05297269       0.10401312
H        1.28199530       4.14157500      -2.95118037       0.00000000       0.00000000       0.03094934       0.01715602      -0.05011762       0.09639378
H        0.70545779       6.21638850      -0.04638803       0.00000000       0.00000000       0.06849691       0.02444929       0.06366051       0.08846191
H        0.48548170       5.32289181      -1.53832606       0.00000000       0.00000000       0.05392124       0.00813290      -0.04574291       0.06815996
H        3.08577046       5.42363251       0.11597172       0.00000000       0.00000000      -0.00094227       0.03196563      -0.03306636       0.06467136
H        2.83245566       6.33306155      -1.36355736       0.00000000       0.00000000      -0.03653451       0.01751088      -0.07974370       0.08564720
H        2.90662298       4.55883021      -1.40195298       0.00000000       0.00000000       0.04224851       0.06505189      -0.03654699       0.04523541
H        2.07948380       5.68545817       2.10272341       0.00000000       0.00000000      -0.02059063      -0.00395768       0.00637806       0.06486435
H        1.12464100       6.33762422       4.24515622       0.00000000       0.00000000       0.03675891      -0.03062042      -0.01884356       0.07622296
H       -2.38096208       5.88432555       5.07090329       0.00000000       0.00000000       0.01226860       0.03316898       0.06436334       0.06145466
H       -0.86148809       6.61911618       5.58520608       0.00000000       0.00000000       0.01039072       0.02002638       0.05323680       0.06615527
H       -1.09947484       5.25403196       7.38525121       0.00000000       0.00000000      -0.03912364      -0.05423411       0.03806325       0.06284806
H       -0.36773160       4.05148022       6.34289564       0.00000000       0.00000000       0.01199516      -0.00868354       0.00393948       0.02758661
H       -2.78636129       3.36834624       5.67974184       0.00000000       0.00000000       0.03555492      -0.01211151       0.04160136       0.01571411
H       -3.33406453       4.56436054       6.83605940       0.00000000       0.00000000      -0.03377494      -0.01530455      -0.02407385       0.05014035
H       -3.60941180       2.48737779       7.84935314       0.00000000       0.00000000       0.00169114       0.04030663       0.09722364       0.04752097
H       -2.32073779       3.33861276       8.69912349       0.00000000       0.00000000      -0.02200256       0.02380832       0.05177768       0.05443889
H       -0.64114430       1.85200635       7.63289697       0.00000000       0.00000000      -0.05042500      -0.03132435       0.03381877       0.02388471
H       -1.96509018       0.99354524       6.78126848       0.00000000       0.00000000      -0.00103529       0.03115116       0.05485031       0.01990112
H       -1.70313507       1.15163744       9.80207695       0.00000000       0.00000000      -0.01443992       0.00376489       0.01241283       0.05368624
H       -1.20473236      -0.20467760       8.79016478       0.00000000       0.00000000      -0.03069197       0.02568439       0.03845321       0.03985929
H       -2.90661485       0.24314870       8.87965486       0.00000000       0.00000000       0.00351449       0.04880007       0.06142276       0.04558546
H       -2.33730756       4.00244279       3.45786783       0.00000000       0.00000000       0.04517207      -0.00692610      -0.04410325       0.05134050
H       -1.30912554       3.21764459       1.35935840       0.00000000       0.00000000      -0.00913154       0.01410686      -0.02572351       0.02849766
H        1.61501788      -4.21680967       1.26535867       0.00000000       0.00000000      -0.01430590      -0.05491332      -0.00027681       0.02340930
H        3.16027212      -5.95617981       0.53853864       0.00000000       0.00000000      -0.10206694      -0.05598686       0.03811481       0.07478354
