95
Properties=species:S:1:pos:R:3:initial_charges:R:1:initial_magmoms:R:1:forces:R:3:charge:R:1 energy=-3415.936885584776 free_energy=-3415.936885584776 dipole="4.523326675298189 5.973719057088977 -0.16603022628674902" pbc="F F F"
Dy       0.74713902       0.52158947      -0.44924281       3.00000000       0.00000000      -0.13360124       0.04551701      -0.00037233       0.60441309
C        0.84134269       7.29960798      -3.25835656       0.00000000       0.00000000       0.01124244       0.04773738      -0.01715279      -0.11591932
C       -0.09769429       6.10332343      -3.30495883       0.00000000       0.00000000       0.01536680       0.09551704      -0.01618367      -0.05285567
C       -0.48531652       5.66556733      -1.90122068       0.00000000       0.00000000       0.02727450       0.01744042       0.03599889      -0.07383261
C       -1.51910272       4.54452422      -1.84812316       0.00000000       0.00000000      -0.09565540      -0.09014074      -0.02405541      -0.06674604
C       -1.26269617       3.38832869      -2.83468882       0.00000000       0.00000000       0.06657532      -0.06810260      -0.09774046      -0.07068023
C        0.17870504       3.06883055      -2.97045980       0.00000000       0.00000000      -0.09992124      -0.06088948       0.06489190       0.10921017
N        1.02916475       3.23696541      -2.00831810       0.00000000       0.00000000       0.00859386      -0.00475116       0.01295346      -0.24183341
N        2.82390395       1.68710614      -1.67768018       0.00000000       0.00000000       0.07462393       0.00357078      -0.01870193      -0.24737071
C        2.32454069       2.81773620      -2.52168130       0.00000000       0.00000000      -0.09285026      -0.05178080       0.05265734       0.23111811
C        3.52783870       3.57346728      -1.98933811       0.00000000       0.00000000      -0.00928372      -0.13783671      -0.12457224       0.04304893
C        4.31841051       4.67432512      -1.99541177       0.00000000       0.00000000       0.09564101       0.04993641       0.07539190      -0.01084937
C        5.44719641       4.58344282      -1.16020577       0.00000000       0.00000000       0.03078340       0.07545087       0.10821457      -0.00401060
C        5.66665113       3.49118104      -0.34051544       0.00000000       0.00000000       0.12312620      -0.12474631      -0.04357439      -0.01978757
C        4.79525900       2.39111754      -0.33392303       0.00000000       0.00000000      -0.06978176       0.07402541       0.03180244       0.04262776
C        4.72703570       1.41605259       0.76419392       0.00000000       0.00000000       0.10367601      -0.06744249       0.07221778       0.10492930
C        5.83620199       0.93190676       1.46787995       0.00000000       0.00000000       0.01716882       0.00822089      -0.01944218      -0.02033356
C        5.63389575       0.32096107       2.69659113       0.00000000       0.00000000      -0.00333299      -0.11109716      -0.04022513       0.01210164
C        4.34738511       0.27225132       3.22967701       0.00000000       0.00000000       0.08265260       0.01499198       0.01299158      -0.01438871
C        3.30047614       0.74019865       2.44711611       0.00000000       0.00000000      -0.01621288      -0.06850533      -0.07007345       0.08869881
C        1.92290967       0.99306985       2.89614547       0.00000000       0.00000000       0.06738395      -0.01274938      -0.03575486       0.17180853
N        1.38897423       2.03481966       2.23980509       0.00000000       0.00000000      -0.01387011       0.03228393       0.01566924      -0.10286059
N        0.14156618       2.30244996       2.41224043       0.00000000       0.00000000      -0.03986555      -0.05508723       0.03222183      -0.03975449
C       -0.62223140       1.72858100       3.31262866       0.00000000       0.00000000       0.06255376      -0.03340709      -0.06860993       0.08823287
C       -2.00579342       2.25325720       3.43973039       0.00000000       0.00000000       0.01128465      -0.05140780       0.08930053      -0.07763453
C       -2.31885024       3.33453724       2.39857790       0.00000000       0.00000000      -0.05403285      -0.03729580      -0.01169645      -0.06823311
C       -1.34851598       4.51275338       2.33692217       0.00000000       0.00000000      -0.00590849       0.02893317      -0.01298143      -0.07507391
C       -0.95028204       5.10218115       3.68233154       0.00000000       0.00000000      -0.01961477       0.01661340       0.04220813      -0.05418382
C       -2.14709868       5.75743952       4.36622684       0.00000000       0.00000000      -0.02033437       0.02673380       0.01515234      -0.11466593
C        0.00222712       0.69067449       4.10019310       0.00000000       0.00000000      -0.07354056       0.00622056       0.07114503       0.13474026
C       -0.64155149       0.05843950       5.26925086       0.00000000       0.00000000      -0.00350111       0.03875591       0.10735678      -0.07615494
C        0.20534081       0.39280830       6.51767948       0.00000000       0.00000000      -0.00432950       0.02986917       0.00101417      -0.06392784
C        0.46428637       1.90570752       6.68937860       0.00000000       0.00000000      -0.00587838      -0.08520706       0.01879181      -0.05931552
C        1.88881673       2.20390267       7.15538455       0.00000000       0.00000000      -0.04546448       0.01913640       0.02864121      -0.06340891
C        2.94721320       1.91534085       6.09796229       0.00000000       0.00000000      -0.02375995       0.01493670       0.04106051      -0.10593397
N        1.23250936       0.33184673       3.80486251       0.00000000       0.00000000       0.02584023      -0.06713701      -0.00376704      -0.16242284
N        3.48381761       1.21487630       1.20332788       0.00000000       0.00000000      -0.03637861       0.07561644      -0.00028570      -0.18252998
N        3.79102104       2.49471118      -1.20692784       0.00000000       0.00000000      -0.00323305      -0.12211087      -0.07107063       0.19422055
N        2.15273469       2.42486895      -3.87000808       0.00000000       0.00000000       0.09067889      -0.09584578      -0.03029386      -0.23274762
C        0.89844657       2.47396390      -4.14176393       0.00000000       0.00000000      -0.12445480       0.02281351      -0.00594341       0.11542995
C        0.23807324       1.86335198      -5.31023826       0.00000000       0.00000000       0.01841254       0.10118698      -0.00891363      -0.07540861
C        1.07909936       0.86188423      -6.10388926       0.00000000       0.00000000       0.08840961       0.02665953      -0.06331775      -0.06569531
C        2.15038517       1.53359467      -6.97778274       0.00000000       0.00000000       0.02994170       0.01242601      -0.04360407      -0.07081579
C        3.54327423       1.62491222      -6.36874902       0.00000000       0.00000000      -0.05771279       0.02072271      -0.00368922      -0.06368596
C        4.26144680       0.30988060      -6.17222269       0.00000000       0.00000000      -0.03534714       0.07222658      -0.01765774      -0.11713889
H        1.19905132       7.55703452      -4.25070729       0.00000000       0.00000000       0.04346598      -0.05095423      -0.01244623       0.06181996
H        1.69129429       7.09919021      -2.60609974       0.00000000       0.00000000       0.00396590       0.00219341      -0.07737235       0.03883085
H        0.32924042       8.17477514      -2.86488964       0.00000000       0.00000000      -0.04485855      -0.02231775       0.02990602       0.07336554
H        0.39224817       5.27660833      -3.84335058       0.00000000       0.00000000      -0.06163244       0.04704522       0.06692472       0.02772847
H       -0.99311719       6.36849677      -3.87041154       0.00000000       0.00000000      -0.01164553      -0.01962752      -0.03388976       0.07111880
H       -0.87712902       6.52501823      -1.35889876       0.00000000       0.00000000      -0.09646025       0.05012701      -0.00573271       0.07642736
H        0.41578333       5.35683825      -1.36721019       0.00000000       0.00000000       0.08698183      -0.10371982       0.01041458       0.05273326
H       -2.50425338       4.94729430      -2.07554213       0.00000000       0.00000000      -0.06358777       0.02963836      -0.02170395       0.08106668
H       -1.55529844       4.13960497      -0.83476429       0.00000000       0.00000000       0.06588645       0.01302206       0.08002111       0.04833876
H       -1.67423670       3.61628231      -3.81963665       0.00000000       0.00000000       0.04994927       0.06236040      -0.02976625       0.09390513
H       -1.81531927       2.50495083      -2.46821046       0.00000000       0.00000000       0.17935011      -0.03305386      -0.03780005       0.08521501
H        4.11224694       5.56376818      -2.56438981       0.00000000       0.00000000       0.00215427      -0.02938609      -0.12905825       0.11957125
H        6.13264300       5.41314301      -1.12558798       0.00000000       0.00000000       0.07646532       0.05168947      -0.00598242       0.12364000
H        6.51938091       3.47567121       0.32166267       0.00000000       0.00000000      -0.02290065       0.04705662      -0.00877259       0.11361200
H        6.82419804       1.01495379       1.04389461       0.00000000       0.00000000       0.03348816       0.09145924       0.07446914       0.10272211
H        6.47187534      -0.07658343       3.25751864       0.00000000       0.00000000      -0.12658749       0.05316382      -0.09214809       0.11502760
H        4.16404841      -0.09927870       4.22364554       0.00000000       0.00000000       0.02623191      -0.02966650       0.00410677       0.10626866
H       -2.12260110       2.65315527       4.44992306       0.00000000       0.00000000      -0.00262115       0.06709732       0.05876931       0.11685911
H       -2.75105352       1.45893882       3.35217083       0.00000000       0.00000000       0.09802574      -0.11703561      -0.01344961       0.09739587
H       -3.31722483       3.70868421       2.62006237       0.00000000       0.00000000      -0.06571415       0.01220698       0.01634963       0.09721650
H       -2.36299044       2.86350764       1.40989748       0.00000000       0.00000000       0.01647853      -0.00589005      -0.05856655       0.04760034
H       -1.80537639       5.29822459       1.73125926       0.00000000       0.00000000      -0.04979301       0.01128205      -0.02364822       0.08167049
H       -0.43809338       4.21150615       1.80619414       0.00000000       0.00000000       0.03400276       0.00084380      -0.00975342       0.07638477
H       -0.17263484       5.84966844       3.52125611       0.00000000       0.00000000      -0.04880159       0.05149987      -0.02734741       0.05515147
H       -0.52218609       4.33960096       4.33496812       0.00000000       0.00000000       0.01192041      -0.01740430       0.02189608       0.02944405
H       -2.61615037       6.46606248       3.68956790       0.00000000       0.00000000      -0.02417621       0.04630818       0.05141458       0.06137328
H       -1.81883533       6.29524747       5.25100320       0.00000000       0.00000000      -0.01705068      -0.00583334       0.01586899       0.07208612
H       -2.88981545       5.02050499       4.66107420       0.00000000       0.00000000       0.00291806       0.03014215       0.02096101       0.04956649
H       -0.63978308      -1.02712731       5.13618326       0.00000000       0.00000000       0.02483705       0.03216828       0.02883657       0.11710920
H       -1.66815534       0.39163399       5.39435941       0.00000000       0.00000000      -0.03933563       0.06104843       0.00305701       0.08311731
H        1.15556713      -0.13682327       6.43665530       0.00000000       0.00000000      -0.05495458       0.03971792      -0.00222451       0.07564698
H       -0.31872904       0.00541547       7.39288809       0.00000000       0.00000000       0.03887205       0.03071163      -0.04599197       0.09154170
H       -0.24291508       2.32382620       7.40764088       0.00000000       0.00000000       0.03904923      -0.02984178      -0.01784222       0.06431775
H        0.30115823       2.43025100       5.73749923       0.00000000       0.00000000       0.01325174      -0.06047635       0.07713751       0.02164194
H        2.10581061       1.62306784       8.05450526       0.00000000       0.00000000      -0.01646421      -0.01097807      -0.00738944       0.07878078
H        1.94995512       3.25433692       7.44329585       0.00000000       0.00000000       0.00865819       0.03790095       0.00561757       0.07095244
H        2.93282910       0.86626654       5.81012710       0.00000000       0.00000000       0.00099566       0.00317989       0.02069544       0.03589892
H        3.93376866       2.14604558       6.48789097       0.00000000       0.00000000       0.00414720       0.00718129       0.02150189       0.06119402
H        2.78767468       2.51964130       5.20320329       0.00000000       0.00000000      -0.01907327       0.02286802       0.03156341       0.01687701
H       -0.09914903       2.64467806      -5.99216854       0.00000000       0.00000000      -0.08206504       0.17460539      -0.04479452       0.11207046
H       -0.66767310       1.37233973      -4.94363105       0.00000000       0.00000000      -0.05968524      -0.00893050       0.02284970       0.08487857
H        0.38506676       0.31182708      -6.74228495       0.00000000       0.00000000       0.07041790       0.00225502       0.00855488       0.08099814
H        1.54273073       0.14538013      -5.42203794       0.00000000       0.00000000       0.00139003       0.04217922      -0.03929839       0.06397189
H        1.82263949       2.54009078      -7.24439543       0.00000000       0.00000000      -0.02289320      -0.02877727      -0.00663107       0.06416044
H        2.23015089       0.97175524      -7.91294204       0.00000000       0.00000000       0.03013352      -0.05896534       0.01083644       0.10678997
H        3.40985552       2.11121833      -5.38304960       0.00000000       0.00000000       0.00806871      -0.04743143      -0.00886068       0.12666213
H        4.16035035       2.31363210      -6.95618597       0.00000000       0.00000000       0.00009741      -0.08427009       0.02622248       0.09139497
H        3.64905462      -0.41681627      -5.63851754       0.00000000       0.00000000       0.05014232       0.02524782      -0.04037654       0.06457480
H        5.19834715       0.45822665      -5.63893192       0.00000000       0.00000000      -0.02573831      -0.02068255      -0.01956211       0.06871576
H        4.51233519      -0.12975167      -7.14158251       0.00000000       0.00000000      -0.02867096       0.00704047       0.03243279       0.11218524
