87
Properties=species:S:1:pos:R:3:initial_charges:R:1:initial_magmoms:R:1:forces:R:3:charge:R:1 energy=-3471.6938733620013 free_energy=-3471.6938733620013 dipole="2.199270276762832 0.39736838027866433 1.798220053918088" pbc="F F F"
Er      -0.22008154      -0.03193192      -0.18791352       2.00000000       0.00000000      -0.12242109      -0.04362542      -0.02893813       0.85221185
C       -2.71423673       3.94989776      -1.43354863       0.00000000       0.00000000      -0.03153704       0.00268241       0.00173525      -0.12100509
C       -1.30999759       4.27142249      -1.92920320       0.00000000       0.00000000      -0.03517529       0.01438083      -0.03736044      -0.01086323
N       -0.29854620       4.22300922      -0.87506328       0.00000000       0.00000000       0.05122793       0.00598062      -0.01579340      -0.03048885
C        0.36213950       5.46154960      -0.51138336       0.00000000       0.00000000      -0.00106793       0.11413050       0.03142627      -0.02242779
C       -0.56679603       6.34776119       0.31253335       0.00000000       0.00000000      -0.00054195       0.02951411       0.01152867      -0.12501171
C       -0.06325403       3.07508323      -0.28547806       0.00000000       0.00000000       0.05724568       0.00004243       0.02199702       0.25689207
O       -0.66614563       2.02478451      -0.59977808       0.00000000       0.00000000       0.02333257       0.00734102      -0.01428891      -0.37224997
C        0.98310698       2.95571013       0.83414381       0.00000000       0.00000000       0.04192746      -0.02420893       0.07340469       0.03904033
O        0.78327671       1.67929328       1.41957186       0.00000000       0.00000000       0.06780971       0.00706571       0.02656309      -0.21844919
C        0.44450405       1.63676302       2.79821671       0.00000000       0.00000000       0.09504865       0.02680094      -0.03457148       0.04271216
C       -0.62711109       0.54475094       2.94366120       0.00000000       0.00000000       0.10867982      -0.01787613      -0.02171567       0.25682855
O       -0.78756238      -0.22410535       1.97609573       0.00000000       0.00000000      -0.04607444      -0.00019125       0.06312227      -0.36979936
N       -1.30393407       0.44347364       4.06941377       0.00000000       0.00000000       0.04519767      -0.00068113       0.05122405      -0.04067678
C       -0.94725297       1.13953590       5.29241098       0.00000000       0.00000000      -0.02747333       0.06809811       0.10179159      -0.02093101
C       -2.00190930       2.15145971       5.72181530       0.00000000       0.00000000      -0.02405288       0.03084563       0.00904027      -0.12598934
C       -2.45077034      -0.46002270       4.13798653       0.00000000       0.00000000      -0.02227524      -0.02855624      -0.00839017      -0.01187249
C       -3.62554848       0.05389097       3.31560751       0.00000000       0.00000000      -0.00294377      -0.00231847      -0.03725273      -0.12467037
H       -3.40198336       4.05095535      -2.26711352       0.00000000       0.00000000      -0.04689076       0.01224722       0.00720357       0.07980442
H       -2.77305680       2.92752142      -1.06798879       0.00000000       0.00000000      -0.00779042      -0.00518753      -0.00264980       0.06419909
H       -3.02792315       4.62268042      -0.64055849       0.00000000       0.00000000       0.02422891       0.04958266      -0.00875464       0.06024287
H       -1.03539715       3.54722988      -2.70007695       0.00000000       0.00000000       0.03839987      -0.03866863      -0.01714815       0.08266447
H       -1.27523679       5.27226948      -2.35234011       0.00000000       0.00000000      -0.04843186       0.04287254      -0.07696055       0.08562036
H        1.27560429       5.23726252       0.03727508       0.00000000       0.00000000       0.01246301       0.06169417       0.00096244       0.05988718
H        0.65243545       5.98295062      -1.42543923       0.00000000       0.00000000      -0.04597883      -0.00472204      -0.06126431       0.09027862
H       -0.89135465       5.84104375       1.21922310       0.00000000       0.00000000       0.03432402       0.01765430      -0.01374067       0.04878347
H       -0.04712187       7.26035654       0.58842634       0.00000000       0.00000000      -0.02481644       0.00367810       0.01024166       0.08134395
H       -1.44854600       6.61648634      -0.26267025       0.00000000       0.00000000       0.02611093       0.03677553       0.02156471       0.07547857
H        1.99866406       2.96246412       0.41408134       0.00000000       0.00000000      -0.01257584       0.06696939      -0.09633282       0.10498879
H        0.90125120       3.75044608       1.57791292       0.00000000       0.00000000      -0.08313130       0.05720282       0.03544653       0.08855796
H        1.34205043       1.34829885       3.36231389       0.00000000       0.00000000       0.03926158       0.02786635       0.07894727       0.08661918
H        0.08433684       2.60736915       3.15211217       0.00000000       0.00000000      -0.07174657      -0.01657565      -0.00858156       0.08465551
H       -0.82989962       0.38507131       6.07539821       0.00000000       0.00000000      -0.02445822      -0.02102755       0.03273437       0.08338169
H        0.01693991       1.62739655       5.16338151       0.00000000       0.00000000      -0.00833165       0.03012948       0.05169419       0.05653883
H       -2.94587042       1.66161042       5.94121131       0.00000000       0.00000000       0.00048717       0.03114734       0.00563854       0.07519046
H       -1.66686812       2.65503021       6.62421449       0.00000000       0.00000000      -0.01917893       0.01714734      -0.02401959       0.07936983
H       -2.16921664       2.89487924       4.94668801       0.00000000       0.00000000       0.01085382       0.01137580       0.01542902       0.05393217
H       -2.15670211      -1.43983659       3.75954201       0.00000000       0.00000000       0.06248487      -0.04456526      -0.03042728       0.07527277
H       -2.72275100      -0.54894342       5.18723133       0.00000000       0.00000000      -0.05591196      -0.06762381       0.02962003       0.08398910
H       -3.35608328       0.09613655       2.26248114       0.00000000       0.00000000      -0.00187222      -0.01900345      -0.04060032       0.06910988
H       -4.46059336      -0.63085520       3.42834529       0.00000000       0.00000000      -0.00790086       0.00457482      -0.01833007       0.07942394
H       -3.94520300       1.04011841       3.64112959       0.00000000       0.00000000       0.03208910      -0.00989766       0.03272355       0.06138263
C        2.14749676      -4.46836578      -3.66954368       0.00000000       0.00000000       0.01390767      -0.01632448      -0.00916345      -0.12469691
C        1.00804199      -3.49314794      -3.94985931       0.00000000       0.00000000       0.02206441      -0.09042745      -0.02740627      -0.02559792
N        1.26954375      -2.16829285      -3.41146073       0.00000000       0.00000000      -0.07288175      -0.00909206      -0.08219287      -0.03332546
C        1.82195594      -1.15420278      -4.30802896       0.00000000       0.00000000       0.03290493       0.04061226      -0.02749081      -0.01207012
C        3.22875542      -0.71606120      -3.92632142       0.00000000       0.00000000       0.03585242       0.00765616       0.01234716      -0.12223149
C        0.97985165      -1.81880179      -2.17450771       0.00000000       0.00000000       0.00244717       0.03745107       0.07591666       0.25994993
O        1.20084344      -0.67627957      -1.72234818       0.00000000       0.00000000      -0.00082336      -0.04966011      -0.04452972      -0.36658245
C        0.31312985      -2.85919541      -1.25164136       0.00000000       0.00000000      -0.04099064      -0.05018287       0.07285041       0.03899773
O        0.08802367      -2.33072368       0.05384167       0.00000000       0.00000000      -0.07495076      -0.03755876       0.01511426      -0.21853907
C        0.95771264      -2.76237584       1.09957010       0.00000000       0.00000000      -0.06914960      -0.03849605      -0.03110556       0.03612485
C        2.06377376      -1.71812492       1.33171556       0.00000000       0.00000000      -0.01667898      -0.07892589       0.07189488       0.25296372
O        1.90630847      -0.60711888       0.80246704       0.00000000       0.00000000       0.02981509       0.10509382       0.03977956      -0.37013162
N        3.09557352      -2.01270542       2.11148242       0.00000000       0.00000000      -0.07423320       0.00759033       0.01894247      -0.05079131
C        3.24082472      -3.25207407       2.85837964       0.00000000       0.00000000       0.03305561      -0.09873621       0.01579618      -0.02103062
C        4.31509041      -4.15829288       2.26582567       0.00000000       0.00000000       0.00650575      -0.02096938      -0.02073691      -0.12505968
C        4.15731419      -1.02350840       2.29302751       0.00000000       0.00000000       0.02403328       0.03814679      -0.01320338      -0.00784499
C        4.94891067      -0.76184993       1.01943386       0.00000000       0.00000000      -0.00482388       0.01159040      -0.04283122      -0.12289780
H        1.89576536      -5.43349454      -4.09915859       0.00000000       0.00000000       0.05476171      -0.00657194      -0.00336727       0.08342211
H        2.31376259      -4.60057107      -2.60292753       0.00000000       0.00000000       0.01914430      -0.01448960      -0.03502833       0.03972617
H        3.07444048      -4.12082308      -4.11687573       0.00000000       0.00000000      -0.02367650      -0.00910066      -0.02878454       0.07289774
H        0.06931906      -3.88578018      -3.55599187       0.00000000       0.00000000      -0.00769366       0.02444337       0.04376125       0.06441136
H        0.88101353      -3.39253557      -5.02745281       0.00000000       0.00000000       0.01724264      -0.00527489      -0.03797665       0.09542206
H        1.16115606      -0.28379256      -4.28906554       0.00000000       0.00000000      -0.06999486       0.00504750       0.06454830       0.08323162
H        1.82230502      -1.57304594      -5.31162658       0.00000000       0.00000000       0.01946488       0.01949078      -0.05825678       0.08448353
H        3.23404278      -0.26505100      -2.93826330       0.00000000       0.00000000       0.00729740       0.00332989       0.01487154       0.06115150
H        3.56313024       0.02484991      -4.64606507       0.00000000       0.00000000       0.05206142      -0.00454995       0.00296457       0.07452643
H        3.92521969      -1.54935782      -3.93874159       0.00000000       0.00000000      -0.01060465      -0.03286389      -0.02131707       0.05992247
H        0.90238772      -3.77835473      -1.20432058       0.00000000       0.00000000       0.02457292      -0.05129730       0.02084302       0.09599249
H       -0.68890418      -3.09713985      -1.63676547       0.00000000       0.00000000       0.00657840      -0.06215242      -0.12092471       0.11275628
H        1.34959978      -3.76091301       0.89203010       0.00000000       0.00000000       0.03603084      -0.03608355      -0.04059680       0.09116644
H        0.31857600      -2.78809538       1.99115065       0.00000000       0.00000000       0.02265890      -0.08409527       0.05079963       0.11514509
H        2.28350734      -3.76667485       2.90480283       0.00000000       0.00000000      -0.01547929      -0.05806408      -0.02556340       0.05798576
H        3.51780458      -3.00122336       3.88595896       0.00000000       0.00000000       0.00814032       0.07341031      -0.00721128       0.08096281
H        4.08329788      -4.42038677       1.23692524       0.00000000       0.00000000      -0.00520513      -0.01185112      -0.00375885       0.05085197
H        4.38198122      -5.07153594       2.85048661       0.00000000       0.00000000      -0.01126457       0.01246649      -0.02303733       0.07957236
H        5.28731604      -3.67384807       2.28819653       0.00000000       0.00000000      -0.01499851      -0.01562411      -0.00433197       0.07195785
H        4.81719140      -1.39516171       3.07467795       0.00000000       0.00000000       0.02180035       0.01664291       0.02019210       0.08104157
H        3.71159806      -0.08483408       2.62906282       0.00000000       0.00000000      -0.09314378       0.02977158       0.00114641       0.06281892
H        5.42232373      -1.66602803       0.64817091       0.00000000       0.00000000      -0.00924652      -0.02462094       0.03448986       0.06166447
H        5.72321013      -0.03034376       1.23181643       0.00000000       0.00000000       0.01171833      -0.01019426      -0.02796709       0.07185680
H        4.29566195      -0.36426002       0.24830384       0.00000000       0.00000000      -0.00798722       0.01552471      -0.04152596       0.06155224
N       -2.35793557      -0.59472212      -1.43836786       0.00000000       0.00000000       0.05601812      -0.16698095      -0.03343515       0.78112650
O       -3.35556866      -0.91454987      -1.99247166       0.00000000       0.00000000       0.04185537       0.08670816       0.03070413      -0.36374159
O       -1.34365731      -0.22471907      -2.05904770       0.00000000       0.00000000       0.06087110       0.01869464      -0.01772450      -0.44478589
O       -2.23936151      -0.65931386      -0.19816211       0.00000000       0.00000000      -0.03557041       0.09744596       0.10558713      -0.43832132
