145
Properties=species:S:1:pos:R:3:initial_charges:R:1:initial_magmoms:R:1:forces:R:3:charge:R:1 energy=-5754.470851231016 free_energy=-5754.470851231016 dipole="-0.029101903193827158 0.06396644891626647 0.44708897634545197" pbc="F F F"
Er      -0.01320011       0.00762577       0.03431818       3.00000000       0.00000000       0.01590479       0.02363387       0.05809385       0.77357814
C        6.04576930      -0.23444150      -0.96191989       0.00000000       0.00000000       0.03215585      -0.01935758       0.03018809      -0.12497239
C        5.10091618      -0.35121899      -2.15780736       0.00000000       0.00000000       0.09028366      -0.07519143       0.01427349      -0.01914905
N        3.86158896       0.38706271      -1.95299280       0.00000000       0.00000000       0.01751313      -0.09279663      -0.03274174      -0.03154598
C        2.84165974      -0.08878972      -1.22573800       0.00000000       0.00000000      -0.07157443       0.00327929       0.04889125       0.25535164
O        1.80200920       0.59598940      -1.06745217       0.00000000       0.00000000       0.06966905       0.04204867      -0.00399100      -0.40317172
C        2.77417554      -1.44471851      -0.49881024       0.00000000       0.00000000       0.01902352      -0.09386490       0.08706686       0.07748265
C        3.72087035      -2.45489568      -0.31722796       0.00000000       0.00000000       0.02260300      -0.08845388       0.10263125      -0.02898647
C        3.37349729      -3.56451948       0.45231377       0.00000000       0.00000000       0.00234906       0.00677337       0.04434053       0.00243088
C        2.11386275      -3.68167739       1.01828173       0.00000000       0.00000000       0.03389064       0.03129843       0.01727370      -0.02079943
C        1.20656271      -2.63693436       0.81687630       0.00000000       0.00000000      -0.00794946      -0.06884336       0.11864639       0.10762190
C       -0.18833752      -2.66537486       1.39302026       0.00000000       0.00000000       0.04049646      -0.07593704      -0.02726093       0.10622742
C       -0.76564741      -3.85816226       1.83681621       0.00000000       0.00000000      -0.01358655      -0.00789766       0.00583391      -0.02282783
C       -2.09587558      -3.84062782       2.22194229       0.00000000       0.00000000       0.02229525      -0.03699566      -0.09472638       0.00230574
C       -2.84035917      -2.66748063       2.14974099       0.00000000       0.00000000       0.02679994      -0.07257394       0.02832978      -0.03052055
C       -2.19158090      -1.48398154       1.79486982       0.00000000       0.00000000       0.01986181      -0.06134387       0.02856401       0.07588537
C       -2.74991758      -0.06245345       1.60979654       0.00000000       0.00000000       0.00639048       0.02519114       0.03687759       0.25218538
O       -2.08511322       0.60798523       0.78186263       0.00000000       0.00000000      -0.09250359      -0.08971299      -0.05632486      -0.40553503
N       -3.80792719       0.44333314       2.26165352       0.00000000       0.00000000      -0.03226283      -0.02334109       0.09588411      -0.02918833
C       -4.62007583      -0.40635381       3.12817525       0.00000000       0.00000000      -0.07901764      -0.11162155       0.05006722      -0.02247596
C       -5.79596582      -1.01835127       2.35982059       0.00000000       0.00000000      -0.02808269      -0.07930443       0.01614833      -0.12390680
C       -4.27326589       1.81071963       2.16800701       0.00000000       0.00000000      -0.00474138      -0.03300509       0.04659992       0.05623115
C       -3.52491633       2.83040100       1.57319586       0.00000000       0.00000000       0.04939725       0.00671263      -0.02603738      -0.06112611
C       -3.97802930       4.14231360       1.55766584       0.00000000       0.00000000      -0.00639678      -0.01769388      -0.00417227       0.02137028
C       -3.21413384       5.26389716       0.92731417       0.00000000       0.00000000       0.03900828      -0.03418211      -0.00764461      -0.11898844
C       -5.18862201       4.45783770       2.15187512       0.00000000       0.00000000      -0.03369612       0.04253184      -0.00778679      -0.04299259
C       -5.95937228       3.48010951       2.74811743       0.00000000       0.00000000      -0.02425683      -0.01887602      -0.01518810       0.03399091
C       -7.25958062       3.83158721       3.39290471       0.00000000       0.00000000      -0.00972418      -0.02979681       0.00661877      -0.12595897
C       -5.49896744       2.16798485       2.74134986       0.00000000       0.00000000       0.01368082      -0.07060708      -0.01802458      -0.06240835
N       -0.89422215      -1.52799054       1.43628406       0.00000000       0.00000000       0.06104726      -0.05935756       0.00840528      -0.14726800
N        1.56724158      -1.58318390       0.08130536       0.00000000       0.00000000       0.08829506      -0.04639773       0.07950928      -0.13845063
C        3.83502624       1.69616268      -2.56270902       0.00000000       0.00000000       0.02147401       0.01046005      -0.02849326       0.05569745
C        2.64566039       2.29574090      -2.97353178       0.00000000       0.00000000      -0.10635824       0.04059217      -0.00288197      -0.05576716
C        2.63810710       3.56827339      -3.52456799       0.00000000       0.00000000      -0.03099354       0.03473356      -0.00226577       0.01965308
C        1.37834746       4.27047125      -3.92457897       0.00000000       0.00000000      -0.03273242      -0.03142145      -0.01105762      -0.11893005
C        3.83487757       4.24038337      -3.70721969       0.00000000       0.00000000      -0.00879735       0.03346120      -0.02277683      -0.04489181
C        5.04047196       3.65012842      -3.37637215       0.00000000       0.00000000       0.02073263       0.07675959       0.01905363       0.03368884
C        6.31235138       4.39460335      -3.62960028       0.00000000       0.00000000       0.02911985      -0.03389605       0.02357382      -0.12558088
C        5.02805065       2.38195273      -2.80120803       0.00000000       0.00000000       0.04124264       0.03186444       0.06090125      -0.06023034
H        6.91863059      -0.85860198      -1.13187856       0.00000000       0.00000000       0.00247949      -0.02189319       0.03313704       0.07869502
H        5.55920609      -0.53717104      -0.03776930       0.00000000       0.00000000       0.01837667      -0.04363358      -0.00424694       0.04626944
H        6.39128074       0.78499109      -0.81250029       0.00000000       0.00000000      -0.02666115       0.01230969      -0.10210921       0.06860318
H        4.86650105      -1.39105728      -2.38466954       0.00000000       0.00000000      -0.06343357      -0.05354381       0.05275750       0.06325191
H        5.57477011       0.04915378      -3.05433377       0.00000000       0.00000000       0.03805421      -0.02270263       0.00624675       0.09487439
H        4.71811068      -2.43697262      -0.71949064       0.00000000       0.00000000      -0.05112616       0.05932875      -0.01629813       0.09901872
H        4.10148531      -4.34555987       0.62572951       0.00000000       0.00000000      -0.01193157       0.06565849      -0.07980813       0.09944998
H        1.86397774      -4.55924095       1.59503013       0.00000000       0.00000000       0.06058691       0.09236031       0.00125188       0.08781657
H       -0.21182239      -4.78271058       1.84674459       0.00000000       0.00000000      -0.06305626      -0.00232496       0.00775087       0.08741581
H       -2.57382165      -4.75381800       2.54503397       0.00000000       0.00000000       0.00218238       0.02214957      -0.02657450       0.09964215
H       -3.89714111      -2.73708287       2.33957973       0.00000000       0.00000000       0.03038324       0.03736518      -0.00367158       0.09942653
H       -4.98735217       0.17870418       3.97184806       0.00000000       0.00000000       0.02727645       0.08565087      -0.06470895       0.09251185
H       -3.99274065      -1.17292903       3.57838429       0.00000000       0.00000000       0.07814073      -0.06653451      -0.08508138       0.06281127
H       -6.49029218      -0.27286026       1.97938967       0.00000000       0.00000000       0.11848319       0.10521119       0.10475381       0.07292672
H       -6.35428454      -1.67035155       3.02442804       0.00000000       0.00000000      -0.00593932      -0.07773615       0.01709026       0.07705192
H       -5.46451821      -1.58893793       1.49488369       0.00000000       0.00000000       0.07077412      -0.03742062       0.03949076       0.04521429
H       -2.57757987       2.61880341       1.11404548       0.00000000       0.00000000       0.12370141      -0.04147531      -0.02406683       0.04527198
H       -2.28082705       4.93312102       0.48533424       0.00000000       0.00000000       0.06867947      -0.07284647      -0.01910252       0.02512700
H       -3.00127109       6.02285101       1.67751389       0.00000000       0.00000000       0.04098630       0.02349207      -0.00781592       0.06794072
H       -3.82364175       5.73387779       0.15773515       0.00000000       0.00000000       0.01473631       0.00022947      -0.01955831       0.06868560
H       -5.53393479       5.47675200       2.14256334       0.00000000       0.00000000      -0.01807454       0.11476821      -0.00276669       0.06776173
H       -7.46030538       4.89461580       3.29880996       0.00000000       0.00000000       0.00176806      -0.01277049       0.00192218       0.06876350
H       -7.24321613       3.57961055       4.45091846       0.00000000       0.00000000       0.00174468      -0.02998128       0.02984611       0.07103089
H       -8.08290461       3.28744014       2.93624793       0.00000000       0.00000000      -0.00983754      -0.04887878      -0.01879453       0.07081910
H       -6.16275764       1.46360751       3.20635365       0.00000000       0.00000000       0.00104983      -0.07264882      -0.01376543       0.06639785
H        1.71037245       1.77413436      -2.88745450       0.00000000       0.00000000      -0.13859202      -0.08887614       0.03532901       0.04082975
H        0.49865453       3.65542162      -3.76473035       0.00000000       0.00000000      -0.02847374      -0.07476356       0.00636410       0.02764100
H        1.42348319       4.54826707      -4.97558428       0.00000000       0.00000000      -0.00067223      -0.02245527      -0.02143679       0.07646273
H        1.28525285       5.19295026      -3.35257785       0.00000000       0.00000000      -0.03459430      -0.00791044      -0.01729680       0.05747338
H        3.82316291       5.23148014      -4.13010482       0.00000000       0.00000000      -0.00057609       0.04414536      -0.03397536       0.06697287
H        6.10286182       5.37977539      -4.04103876       0.00000000       0.00000000       0.00880706      -0.07548562       0.02508979       0.06799662
H        6.94270014       3.86207679      -4.33880991       0.00000000       0.00000000      -0.00245967      -0.06075098       0.01448570       0.07495913
H        6.88219311       4.52474003      -2.71216099       0.00000000       0.00000000       0.01582246      -0.05468430       0.03181477       0.06783549
H        5.99059947       1.97293946      -2.55447763       0.00000000       0.00000000       0.03826860      -0.04622101       0.12333341       0.06420923
C       -3.89397425      -2.21913867      -3.99847820       0.00000000       0.00000000      -0.02681134       0.01985443      -0.01781459      -0.12334430
C       -2.42780613      -2.43713144      -4.37524923       0.00000000       0.00000000      -0.08812843       0.02011692      -0.08756821      -0.01941984
N       -1.57750438      -2.51446598      -3.19335396       0.00000000       0.00000000      -0.00955190       0.02107189      -0.12010773      -0.03439898
C       -1.26537613      -1.45454188      -2.43934655       0.00000000       0.00000000       0.00620397       0.01490876       0.07145974       0.25514646
O       -0.69500659      -1.62410375      -1.33340155       0.00000000       0.00000000      -0.11889339      -0.00770572      -0.05316077      -0.41239103
C       -1.53254123       0.02238350      -2.76993283       0.00000000       0.00000000      -0.04945785       0.05543802      -0.02713941       0.07583453
C       -2.26858943       0.61399175      -3.79879402       0.00000000       0.00000000      -0.02212954       0.09998408       0.01334009      -0.02756815
C       -2.38158588       2.00226418      -3.82269435       0.00000000       0.00000000      -0.00837346       0.02125306       0.04312811       0.00211529
C       -1.79336432       2.78580865      -2.84240950       0.00000000       0.00000000      -0.00675342      -0.03135425       0.00840250      -0.02236981
C       -1.06740481       2.14336067      -1.83067342       0.00000000       0.00000000      -0.02068075       0.11722774       0.02380941       0.10794230
C       -0.37875358       2.90465121      -0.72320057       0.00000000       0.00000000       0.03071154       0.10083424      -0.08809294       0.10676149
C       -0.19626314       4.28992471      -0.77623582       0.00000000       0.00000000       0.03492735       0.07129885       0.01924120      -0.02211176
C        0.53865229       4.89507128       0.23398725       0.00000000       0.00000000       0.02753579      -0.02177973      -0.05508506       0.00151418
C        1.07178420       4.14819402       1.28182686       0.00000000       0.00000000      -0.02655532       0.05188651      -0.07103592      -0.02768501
C        0.79499253       2.77905660       1.32831970       0.00000000       0.00000000      -0.00148023       0.07163510      -0.04170352       0.07740101
C        1.24905553       1.67407701       2.30149588       0.00000000       0.00000000      -0.05789332       0.06516240      -0.01307741       0.25391394
O        1.09848870       0.52943880       1.81344820       0.00000000       0.00000000       0.09120815      -0.04166562      -0.00749276      -0.39983246
N        1.74055735       1.85005827       3.53592237       0.00000000       0.00000000      -0.10760516       0.08277192      -0.02161863      -0.02757080
C        1.79540215       3.18028388       4.12730261       0.00000000       0.00000000       0.02752000       0.16321324       0.02718840      -0.02125489
C        3.17169083       3.83085867       3.97925541       0.00000000       0.00000000       0.02137434       0.07379038      -0.01104955      -0.12508361
C        2.18922563       0.78240409       4.39663491       0.00000000       0.00000000      -0.02411423       0.02838015       0.04592111       0.05671637
C        2.04437437      -0.57006210       4.07828158       0.00000000       0.00000000       0.00246188      -0.10562931      -0.02881218      -0.06358938
C        2.46819148      -1.56835243       4.94181353       0.00000000       0.00000000       0.02000936      -0.04427495       0.01358592       0.02084824
C        2.32297701      -3.02258177       4.62080687       0.00000000       0.00000000      -0.03038745      -0.00762524      -0.03020401      -0.11890152
C        3.04461266      -1.23008211       6.15336691       0.00000000       0.00000000       0.02239482      -0.04299160       0.02730754      -0.04268809
C        3.20282500       0.09546113       6.50810249       0.00000000       0.00000000       0.05093477      -0.01764571       0.04681643       0.03402668
C        3.82210593       0.44104584       7.82196743       0.00000000       0.00000000       0.00982021       0.04259709       0.02262079      -0.12617265
C        2.77705884       1.08533666       5.62941657       0.00000000       0.00000000       0.02802437       0.02339374      -0.00364286      -0.06220275
N        0.08960137       2.22464717       0.32667399       0.00000000       0.00000000      -0.03016692       0.08034983      -0.07895553      -0.13818352
N       -0.95533807       0.81071769      -1.84161772       0.00000000       0.00000000      -0.07868993       0.07443530      -0.04835368      -0.14726473
C       -1.14406159      -3.85121608      -2.85125777       0.00000000       0.00000000      -0.01970916       0.00746873      -0.01603729       0.05525389
C        0.12898921      -4.09550067      -2.33850214       0.00000000       0.00000000       0.07235920       0.01232733       0.02595532      -0.05304539
C        0.56487670      -5.39473877      -2.11438974       0.00000000       0.00000000       0.01716759      -0.00651781      -0.00404594       0.02079396
C        1.93064511      -5.73427210      -1.60491176       0.00000000       0.00000000       0.02935454       0.04000129      -0.02395211      -0.11991111
C       -0.27980158      -6.45521597      -2.40369313       0.00000000       0.00000000       0.00754601      -0.03242940       0.00357850      -0.04556211
C       -1.53988136      -6.24895910      -2.93165711       0.00000000       0.00000000      -0.03779552      -0.03304090       0.02883362       0.03366398
C       -2.39244705      -7.42296749      -3.28785964       0.00000000       0.00000000      -0.04303111       0.01737661      -0.00403140      -0.12578071
C       -1.96403127      -4.93988166      -3.14228285       0.00000000       0.00000000      -0.07488638       0.02691547       0.01931973      -0.05979348
H       -4.48580687      -2.10162109      -4.90215395       0.00000000       0.00000000      -0.00573795       0.03206031       0.00498553       0.08033616
H       -4.01520538      -1.33808167      -3.37182915       0.00000000       0.00000000      -0.02922217       0.00935954      -0.04255751       0.04301187
H       -4.30223238      -3.06145298      -3.44454708       0.00000000       0.00000000       0.10082198      -0.04032106      -0.04786711       0.06571303
H       -2.06410983      -1.65672963      -5.04442131       0.00000000       0.00000000       0.04632730       0.07613813       0.05863656       0.06665867
H       -2.31852301      -3.37054519      -4.92719403       0.00000000       0.00000000      -0.01013615      -0.02265396       0.01169845       0.09564477
H       -2.78363969       0.06929403      -4.57078262       0.00000000       0.00000000       0.08489873      -0.00396870       0.06268170       0.10057444
H       -2.95544826       2.47572713      -4.60705760       0.00000000       0.00000000       0.04127103      -0.05028752       0.01465689       0.10133719
H       -1.92003241       3.85764800      -2.87591268       0.00000000       0.00000000      -0.01508751      -0.08612607       0.05401525       0.09119720
H       -0.59200833       4.88141384      -1.58684526       0.00000000       0.00000000       0.06621366       0.01530936       0.05300333       0.09007147
H        0.71598622       5.96198694       0.19997326       0.00000000       0.00000000      -0.00594033      -0.08859601       0.00911623       0.09879817
H        1.69319965       4.66608241       1.99424831       0.00000000       0.00000000      -0.03457492      -0.10031847      -0.03837596       0.09910273
H        1.53399548       3.09926747       5.18282845       0.00000000       0.00000000      -0.00275119      -0.01995296       0.00709880       0.09191607
H        1.01355206       3.79405246       3.68404292       0.00000000       0.00000000       0.00125928       0.03025992      -0.09307816       0.06129961
H        3.95609394       3.27450174       4.48662187       0.00000000       0.00000000      -0.13053264      -0.05568072       0.04908373       0.07302718
H        3.13085407       4.82304371       4.41970917       0.00000000       0.00000000       0.05281519       0.05268518      -0.04532076       0.07748214
H        3.48002313       3.90991016       2.93894884       0.00000000       0.00000000      -0.09324038       0.02771981      -0.01988487       0.04847647
H        1.59743347      -0.88377111       3.15546330       0.00000000       0.00000000      -0.07017730      -0.02103038      -0.10780825       0.05497383
H        1.84247273      -3.18527015       3.66151224       0.00000000       0.00000000      -0.04222264       0.04611776      -0.06064499       0.02485156
H        1.73476330      -3.50689021       5.39768839       0.00000000       0.00000000      -0.01851490      -0.03856151      -0.01071902       0.06907952
H        3.30279527      -3.49743573       4.61297579       0.00000000       0.00000000      -0.01040505      -0.00625016      -0.02361571       0.06728152
H        3.37160180      -2.00803421       6.82208740       0.00000000       0.00000000       0.01829654      -0.05983235       0.05016204       0.06776724
H        4.08988304      -0.46059747       8.36621018       0.00000000       0.00000000      -0.00868945       0.03801031      -0.00911541       0.06857995
H        3.13258294       1.01704510       8.43467874       0.00000000       0.00000000      -0.02511701       0.04489189       0.00435983       0.07111512
H        4.72233972       1.03621865       7.68760468       0.00000000       0.00000000       0.01022156       0.04580640      -0.03416372       0.07098347
H        2.94343740       2.08794956       5.97394025       0.00000000       0.00000000       0.01302286       0.08134404      -0.02930406       0.06664189
H        0.80003470      -3.27645786      -2.14417954       0.00000000       0.00000000       0.07865193       0.13326407       0.00637766       0.02955055
H        2.56840376      -4.86253180      -1.51802807       0.00000000       0.00000000       0.00907739       0.08723648      -0.01085747       0.03184082
H        2.40842181      -6.43948755      -2.28172091       0.00000000       0.00000000      -0.00705798      -0.00397292      -0.03427566       0.07868220
H        1.85628889      -6.22731180      -0.63626390       0.00000000       0.00000000       0.01811980       0.04192032       0.00115272       0.05713494
H        0.06443226      -7.46202430      -2.23411629       0.00000000       0.00000000       0.04169329      -0.05266264      -0.00109912       0.06835692
H       -1.89124808      -8.35258828      -3.03074735       0.00000000       0.00000000      -0.01659352       0.04115952      -0.00010775       0.06879545
H       -2.59665674      -7.43816902      -4.35643432       0.00000000       0.00000000      -0.02439863       0.04705904      -0.02291786       0.07526618
H       -3.34708166      -7.39554592      -2.76842929       0.00000000       0.00000000      -0.04858072       0.05838785       0.00526150       0.06797741
H       -2.95140683      -4.81338578      -3.54826494       0.00000000       0.00000000      -0.10760303       0.06645096       0.01591209       0.06148170
