183
Properties=species:S:1:pos:R:3:initial_charges:R:1:initial_magmoms:R:1:forces:R:3:charge:R:1 energy=-6227.037369478313 free_energy=-6227.037369478313 dipole="1.1081761421515124 -0.6563739186719935 2.61570427835703" pbc="F F F"
Er      -0.23908950       0.01818954      -0.23449235       2.00000000       0.00000000       0.02824544      -0.01346511      -0.07352326       0.85763293
C        3.28500046      -3.05996520       5.42144862       0.00000000       0.00000000       0.00376492       0.01420681       0.00986228      -0.10992481
C        1.87438189      -2.53864475       5.17332970       0.00000000       0.00000000       0.02497363      -0.01903749      -0.04238438      -0.05445472
C        1.27511164      -1.90578027       6.43236345       0.00000000       0.00000000       0.01601627       0.01155276      -0.04729445      -0.06918121
C        1.63540248      -0.41938346       6.54886233       0.00000000       0.00000000       0.04606134       0.02558152       0.01167836      -0.07328942
C        0.54530808       0.50800223       5.98008591       0.00000000       0.00000000       0.02176339      -0.06495531       0.06984107      -0.07841265
C        1.05534026       1.67870013       5.12914339       0.00000000       0.00000000      -0.00834828      -0.05571491       0.04590355      -0.02866230
N        1.48318719       1.41035816       3.75396138       0.00000000       0.00000000       0.00900132      -0.01434472      -0.00987431      -0.05164607
C        2.74135184       2.04378915       3.32741585       0.00000000       0.00000000       0.04732903      -0.00722205      -0.01800731      -0.01169211
C        3.84175852       1.09789416       2.84220797       0.00000000       0.00000000       0.00079974      -0.02079539      -0.01396750      -0.06783179
C        4.37175434       0.15232002       3.91836456       0.00000000       0.00000000      -0.00732776       0.00308679      -0.00505026      -0.06521816
C        5.64402485      -0.59081348       3.50397480       0.00000000       0.00000000       0.00097397      -0.01404095      -0.03792074      -0.06611966
C        5.44629091      -1.47658270       2.27653697       0.00000000       0.00000000       0.01247505      -0.00861348      -0.04105272      -0.04831466
C        6.67596521      -2.32028640       1.96265810       0.00000000       0.00000000      -0.00230300       0.00942543       0.01780136      -0.11123553
C        0.69939799       0.91088985       2.80373186       0.00000000       0.00000000       0.02296624      -0.03370551      -0.12491114       0.25509751
O        1.07188832       0.77769960       1.62152347       0.00000000       0.00000000      -0.09454732       0.05833756      -0.01536602      -0.37127422
C       -0.72982553       0.45251845       3.13218414       0.00000000       0.00000000       0.01395658       0.00376703       0.01423795       0.04264265
O       -1.46926597       0.26154819       1.93120547       0.00000000       0.00000000      -0.01192535       0.01820341       0.07227491      -0.22162230
C       -2.57184722       1.13788480       1.72614824       0.00000000       0.00000000       0.00037218       0.02707349      -0.00678004       0.04121398
C       -2.25369047       2.08699502       0.56188832       0.00000000       0.00000000      -0.08112300       0.08384102       0.03032322       0.26323647
O       -1.10355427       2.03132267       0.06925787       0.00000000       0.00000000       0.10284848       0.04146160      -0.10300916      -0.38736234
N       -3.17320909       2.92930625       0.13301052       0.00000000       0.00000000       0.05489728      -0.04040415       0.01827925      -0.03140913
C       -2.85875192       3.80073646      -0.99027173       0.00000000       0.00000000       0.00993724       0.05215016      -0.06290537      -0.01697398
C       -3.10384278       3.12684305      -2.33908022       0.00000000       0.00000000      -0.00261892      -0.01839294      -0.01705725      -0.06024112
C       -2.68384574       4.04347167      -3.48695246       0.00000000       0.00000000      -0.00046090      -0.01314151       0.00404943      -0.06697976
C       -1.16611547       4.18464389      -3.59460081       0.00000000       0.00000000       0.00940858       0.00173972      -0.02244569      -0.06005805
C       -0.73616290       4.86591286      -4.89321528       0.00000000       0.00000000      -0.00079191       0.04054102      -0.02556335      -0.05687854
C       -1.14946667       6.33223615      -4.95387218       0.00000000       0.00000000       0.00437690       0.01691584      -0.00321825      -0.10917967
C       -4.53931686       2.99832832       0.61248025       0.00000000       0.00000000      -0.09155910       0.04170616       0.05163349      -0.02566873
C       -4.89526806       4.29705973       1.34987836       0.00000000       0.00000000      -0.02865731       0.03441608       0.04227639      -0.07497656
C       -3.99784338       4.61665307       2.54613973       0.00000000       0.00000000       0.02998725       0.00431015       0.01196307      -0.06586243
C       -2.68482318       5.29460147       2.15395953       0.00000000       0.00000000       0.04077126       0.02824706       0.01512783      -0.06598535
C       -1.84920321       5.72212994       3.36038045       0.00000000       0.00000000       0.01964258      -0.02608907       0.04119480      -0.06045403
C       -1.21214457       4.53737962       4.08264859       0.00000000       0.00000000       0.00672706       0.00956137      -0.00285960      -0.10065923
H        3.71903678      -3.48324757       4.51650324       0.00000000       0.00000000      -0.00671733       0.02869182       0.02149900       0.02761058
H        3.25396619      -3.83807804       6.17984877       0.00000000       0.00000000       0.03588755      -0.01424404      -0.02246386       0.04857500
H        3.93607074      -2.26875617       5.78234464       0.00000000       0.00000000       0.02313519      -0.01248767      -0.00105017       0.04702358
H        1.25617914      -3.37307618       4.85058826       0.00000000       0.00000000       0.00958328      -0.04084906       0.05061522       0.03300557
H        1.86955608      -1.80291230       4.35937033       0.00000000       0.00000000      -0.00596259      -0.00222049       0.01014220       0.00198862
H        1.64659779      -2.44991338       7.29997686       0.00000000       0.00000000       0.02033493       0.02651268       0.00744499       0.05536972
H        0.19086400      -2.02755183       6.42681739       0.00000000       0.00000000       0.02289365       0.06263668       0.05058336       0.03835486
H        2.57133428      -0.24940536       6.02290210       0.00000000       0.00000000       0.05141858       0.02801475      -0.00384481       0.05230749
H        1.81951141      -0.17573079       7.59405826       0.00000000       0.00000000      -0.07673590       0.06156151       0.00729134       0.05295092
H        0.00575099       0.96168028       6.81279141       0.00000000       0.00000000      -0.00523156      -0.00742688       0.00962035       0.06426496
H       -0.17836016      -0.09027393       5.43398003       0.00000000       0.00000000       0.05321090       0.02094996       0.03595697       0.03871558
H        1.92627701       2.08890080       5.63921441       0.00000000       0.00000000      -0.06939663       0.04799892       0.08268351       0.08924879
H        0.28457571       2.45695272       5.10987129       0.00000000       0.00000000       0.00973644      -0.00022180      -0.03293679       0.06166234
H        3.11587171       2.61804657       4.17289867       0.00000000       0.00000000       0.03388355       0.05464392      -0.02920253       0.07404486
H        2.51563082       2.73560536       2.50903374       0.00000000       0.00000000      -0.07745001      -0.04645591       0.01242368       0.07053717
H        4.66336158       1.73103635       2.50007341       0.00000000       0.00000000      -0.03292817      -0.00337304      -0.04063284       0.06005583
H        3.46271283       0.53685469       1.98842540       0.00000000       0.00000000      -0.00553621      -0.00923308      -0.00015554       0.05166425
H        3.60100742      -0.57777034       4.15960569       0.00000000       0.00000000       0.00204895      -0.01146427      -0.01013454       0.03768509
H        4.59528445       0.72339102       4.82169884       0.00000000       0.00000000      -0.00399283       0.03634642       0.00209719       0.04089189
H        5.97337948      -1.21357236       4.33731220       0.00000000       0.00000000      -0.01381419       0.00342662       0.01380449       0.04866154
H        6.43969668       0.12682297       3.30107400       0.00000000       0.00000000       0.00102239       0.03010872      -0.00670321       0.04574263
H        5.23671473      -0.83733255       1.41550235       0.00000000       0.00000000      -0.00519113      -0.00161018      -0.00954685       0.01635710
H        4.58396728      -2.13208075       2.43847152       0.00000000       0.00000000       0.02470603       0.02035038      -0.01024659       0.01332346
H        7.53178810      -1.67992283       1.76613040       0.00000000       0.00000000       0.00572089      -0.01303842       0.01699205       0.05019059
H        6.50681451      -2.94313530       1.08539233       0.00000000       0.00000000       0.00159767       0.02022450       0.02885920       0.03136993
H        6.91922944      -2.96933345       2.79960561       0.00000000       0.00000000       0.00754876       0.00540141       0.00154045       0.04772253
H       -1.22285524       1.17340630       3.79205585       0.00000000       0.00000000       0.01855726      -0.06492935       0.02897645       0.08532741
H       -0.69370696      -0.53532791       3.60318769       0.00000000       0.00000000       0.01985481      -0.04681272       0.11251824       0.09855099
H       -2.80392205       1.70518031       2.63335334       0.00000000       0.00000000      -0.00485089      -0.01192749      -0.01870039       0.08909349
H       -3.41683178       0.49986072       1.45299727       0.00000000       0.00000000      -0.08901457      -0.04328921      -0.01861051       0.11751783
H       -1.81336021       4.09724021      -0.91296505       0.00000000       0.00000000       0.07672683      -0.04469881       0.00357803       0.08236468
H       -3.48106582       4.68870217      -0.90530898       0.00000000       0.00000000      -0.01482573       0.05750357      -0.01390484       0.08225720
H       -4.16005784       2.87273777      -2.43993049       0.00000000       0.00000000      -0.02049009       0.00900405       0.01097256       0.04992786
H       -2.53085599       2.19857797      -2.39537836       0.00000000       0.00000000       0.04561080      -0.01719920       0.02331200       0.03776988
H       -3.14079627       5.02321420      -3.34361067       0.00000000       0.00000000      -0.00601981      -0.00845324      -0.04199897       0.04923756
H       -3.06544008       3.62755897      -4.42109245       0.00000000       0.00000000       0.01446438       0.00018864       0.01982130       0.05762722
H       -0.71616164       3.18902952      -3.54574918       0.00000000       0.00000000       0.00941528      -0.03782327      -0.01477922       0.02770475
H       -0.77711377       4.76270747      -2.75392829       0.00000000       0.00000000      -0.00573834       0.01050867       0.00188932       0.02975134
H       -1.16966189       4.33328764      -5.74164393       0.00000000       0.00000000       0.02044455      -0.00775863      -0.00405749       0.03884050
H        0.35069397       4.80029375      -4.98002592       0.00000000       0.00000000      -0.00402344       0.00606991       0.00406274       0.03380342
H       -2.23045068       6.43600717      -4.99869400       0.00000000       0.00000000       0.01641601      -0.01131099      -0.00054070       0.03951240
H       -0.73112514       6.80407039      -5.83890815       0.00000000       0.00000000      -0.00559553      -0.01107005      -0.00216392       0.04583487
H       -0.78586340       6.86919752      -4.07989634       0.00000000       0.00000000       0.00274085      -0.00423905      -0.00798552       0.03571257
H       -4.74153352       2.15594580       1.27023046       0.00000000       0.00000000      -0.01526091      -0.01286485      -0.01404666       0.06023811
H       -5.18910640       2.91145526      -0.26138168       0.00000000       0.00000000      -0.05142692      -0.03018762      -0.01924928       0.08668026
H       -5.92021143       4.16839806       1.69968505       0.00000000       0.00000000      -0.02200971       0.00350568       0.00286480       0.06888773
H       -4.90139412       5.15173710       0.67217455       0.00000000       0.00000000       0.03948805      -0.05400293      -0.02513616       0.06175061
H       -3.80751265       3.69882195       3.10456432       0.00000000       0.00000000       0.00795274       0.00175060       0.04123590       0.02260901
H       -4.53522452       5.29484972       3.21185012       0.00000000       0.00000000      -0.01277903      -0.01847407      -0.02922049       0.05996912
H       -2.91977365       6.18299138       1.56704267       0.00000000       0.00000000      -0.02354856       0.03219589      -0.00780880       0.04503145
H       -2.07617542       4.63880688       1.53065630       0.00000000       0.00000000       0.00232772      -0.02145320      -0.00335207       0.02238429
H       -2.47437390       6.28124700       4.05799524       0.00000000       0.00000000       0.03005750      -0.00195688      -0.00132015       0.04926381
H       -1.05520258       6.38936028       3.01736195       0.00000000       0.00000000      -0.03400380      -0.03120936       0.01703702       0.04477606
H       -1.96993769       3.91309538       4.55552933       0.00000000       0.00000000       0.02224835       0.02261056      -0.02682088       0.02517750
H       -0.53957286       4.89657559       4.85867156       0.00000000       0.00000000      -0.01805589      -0.01312941      -0.00974023       0.04315197
H       -0.63753750       3.93496199       3.37549942       0.00000000       0.00000000      -0.01880916       0.01442323       0.01724074       0.01427196
C       -4.10991692      -2.77911890      -0.76151480       0.00000000       0.00000000       0.01005272       0.02489520       0.00761858      -0.10117522
C       -4.90299625      -4.07531802      -0.63899137       0.00000000       0.00000000      -0.01614677       0.03624300      -0.04505019      -0.06064828
C       -4.41020130      -5.04258387       0.43770173       0.00000000       0.00000000      -0.02565434       0.00283846      -0.03525777      -0.06663469
C       -3.18270177      -5.87035609       0.04980184       0.00000000       0.00000000       0.00646312      -0.01719543      -0.00942421      -0.06493915
C       -1.84454077      -5.12787072       0.05296820       0.00000000       0.00000000      -0.00134079      -0.01338245      -0.02826215      -0.06274015
C       -1.66243196      -4.39393091       1.38047253       0.00000000       0.00000000      -0.01574477      -0.03431735      -0.03241790      -0.02196790
N       -0.27530336      -4.02865179       1.63911977       0.00000000       0.00000000       0.03789704       0.05722484      -0.05253852      -0.03710958
C        0.55370387      -5.04342020       2.26424102       0.00000000       0.00000000      -0.01720726      -0.09177467       0.09077571      -0.02277357
C        0.18105316      -5.57882465       3.68271305       0.00000000       0.00000000      -0.01600919      -0.01957042       0.04176601      -0.07456609
C       -1.12406982      -5.24653169       4.43028729       0.00000000       0.00000000      -0.00369893       0.03977635      -0.02278491      -0.06748177
C       -1.55946522      -3.77965507       4.53287625       0.00000000       0.00000000      -0.02770616       0.04724764       0.02398600      -0.06537811
C       -2.33315437      -3.54073271       5.83227057       0.00000000       0.00000000      -0.02537443       0.02288980       0.02163358      -0.06148131
C       -2.96375160      -2.15255588       5.89524415       0.00000000       0.00000000       0.01818498      -0.03143022       0.00525962      -0.10561084
C        0.19499079      -2.95229748       1.02968925       0.00000000       0.00000000      -0.04141561      -0.05754293       0.03534509       0.25180461
O       -0.54075335      -2.15818394       0.40158396       0.00000000       0.00000000      -0.09231183       0.08534295       0.00509469      -0.38265176
C        1.69334570      -2.61948663       1.05999827       0.00000000       0.00000000      -0.01748906      -0.03186744       0.04317970       0.04822397
O        1.84370975      -1.44840420       0.27746514       0.00000000       0.00000000       0.06857796      -0.07034922      -0.03442682      -0.22405414
C        2.99290134      -1.38256190      -0.56334070       0.00000000       0.00000000       0.01253924       0.02852400      -0.00438071       0.04811214
C        2.58971656      -0.43080442      -1.70066336       0.00000000       0.00000000      -0.10727503       0.07068123       0.05759877       0.26308200
O        1.60967968       0.30754253      -1.47246112       0.00000000       0.00000000      -0.06429482       0.05582246      -0.01073803      -0.35287340
N        3.21546202      -0.46273840      -2.86443869       0.00000000       0.00000000      -0.02630469      -0.02970990      -0.04056394      -0.02906260
C        2.59453487       0.18653240      -4.01358307       0.00000000       0.00000000      -0.04564755       0.02868680      -0.02398538      -0.02188809
C        2.08997478      -0.82642559      -5.04629459       0.00000000       0.00000000       0.01939828       0.00053606      -0.00496215      -0.07178255
C        0.91554170      -1.67267555      -4.54818574       0.00000000       0.00000000      -0.00591753       0.02882332      -0.01181233      -0.07495656
C        1.33536045      -2.91489143      -3.76176400       0.00000000       0.00000000       0.00489400       0.00379481      -0.01588553      -0.06058012
C        0.15533005      -3.61181558      -3.08296516       0.00000000       0.00000000      -0.02179451      -0.01289979      -0.01079254      -0.04298490
C       -0.76813644      -4.28386983      -4.09219283       0.00000000       0.00000000      -0.02702219      -0.00201458      -0.00365596      -0.11099903
C        4.56400004      -0.95339242      -3.06620656       0.00000000       0.00000000       0.05755130       0.02037743       0.02297497      -0.02225469
C        5.55771133       0.21697886      -3.12917503       0.00000000       0.00000000       0.01128626       0.05302891       0.01674507      -0.07679936
C        5.29628083       1.27655409      -2.05971842       0.00000000       0.00000000       0.02736658       0.04011534       0.02533984      -0.05966925
C        6.47200241       2.25381081      -1.93990907       0.00000000       0.00000000       0.07284765       0.01087365       0.04952753      -0.06578558
C        7.41239334       1.91600614      -0.78239998       0.00000000       0.00000000       0.04033318      -0.03554819       0.03884486      -0.05582170
C        8.10891911       0.56644152      -0.93074984       0.00000000       0.00000000       0.00766365       0.00482439       0.00247187      -0.10604567
H       -4.61544910      -2.09650301      -1.43982414       0.00000000       0.00000000      -0.01881314      -0.02068539      -0.00179854       0.04983003
H       -3.11407586      -2.95076966      -1.16016756       0.00000000       0.00000000       0.01563705      -0.00302562       0.00706353       0.02824256
H       -4.01270163      -2.28596213       0.20475172       0.00000000       0.00000000      -0.01648855       0.00870968       0.01613382       0.02319115
H       -4.90135794      -4.58667718      -1.60165766       0.00000000       0.00000000      -0.03876113       0.00085886      -0.03427788       0.04447757
H       -5.93667907      -3.81527096      -0.40688628       0.00000000       0.00000000      -0.03300869       0.00030889      -0.01070349       0.04144874
H       -5.21366781      -5.75200800       0.63935112       0.00000000       0.00000000      -0.04705727      -0.02479626      -0.03436621       0.04751467
H       -4.23669865      -4.49628539       1.36595999       0.00000000       0.00000000      -0.00126190      -0.02409826      -0.00050608       0.02871582
H       -3.34582210      -6.29539026      -0.94109469       0.00000000       0.00000000      -0.00172860      -0.00554455      -0.00862908       0.05480027
H       -3.10423245      -6.70594114       0.74933480       0.00000000       0.00000000       0.00389147      -0.01087000       0.01253833       0.03970311
H       -1.77541126      -4.42692788      -0.77602958       0.00000000       0.00000000      -0.02032155       0.00449904      -0.01089500       0.05090878
H       -1.04767432      -5.86362295      -0.07540393       0.00000000       0.00000000       0.01532237      -0.01910465       0.01009676       0.03684507
H       -1.99185577      -5.05332675       2.17624077       0.00000000       0.00000000       0.02527202      -0.00110702       0.00810224       0.09481055
H       -2.25297630      -3.47692911       1.37490082       0.00000000       0.00000000       0.02900335      -0.00868674      -0.02326197       0.08316793
H        1.56966026      -4.65939381       2.33710872       0.00000000       0.00000000      -0.01606825      -0.04424345      -0.05347330       0.05258586
H        0.57265689      -5.90186490       1.58550808       0.00000000       0.00000000      -0.02943457       0.00085551      -0.02430219       0.07611663
H        1.00856387      -5.31589007       4.34301127       0.00000000       0.00000000      -0.04073087       0.05527148      -0.00629052       0.05640223
H        0.19582047      -6.66728648       3.61542834       0.00000000       0.00000000       0.04958554      -0.01741898      -0.01467554       0.06601787
H       -0.95587496      -5.61404202       5.44802118       0.00000000       0.00000000      -0.00480435       0.02568886      -0.07230272       0.06055811
H       -1.95203733      -5.84089863       4.03979115       0.00000000       0.00000000      -0.00065368       0.01515622      -0.03768360       0.04445041
H       -2.20848675      -3.50247804       3.70274993       0.00000000       0.00000000      -0.00461815      -0.01957256      -0.00980141       0.02956677
H       -0.69529683      -3.11616545       4.49311765       0.00000000       0.00000000       0.01704287      -0.02126289       0.03383839       0.02200233
H       -1.66544652      -3.67553301       6.68558832       0.00000000       0.00000000      -0.01059465      -0.00435531      -0.00249056       0.04029290
H       -3.12312678      -4.28909650       5.91399335       0.00000000       0.00000000       0.00203997       0.01205088      -0.01515704       0.04663127
H       -2.20013309      -1.37317370       5.88210785       0.00000000       0.00000000      -0.05387967      -0.04046846      -0.02195101       0.01855114
H       -3.53481946      -2.04873119       6.81521483       0.00000000       0.00000000       0.02439246       0.01686187      -0.05865108       0.05275270
H       -3.63926271      -2.00065969       5.05327751       0.00000000       0.00000000       0.05191766       0.01448041       0.05697434       0.03324735
H        2.26985606      -3.45180976       0.64111312       0.00000000       0.00000000       0.02592900       0.00915429      -0.01074245       0.07871997
H        2.00623523      -2.43032510       2.09591909       0.00000000       0.00000000       0.13487136       0.01853864       0.00316792       0.08347634
H        3.24316398      -2.37700340      -0.94734995       0.00000000       0.00000000       0.02733762      -0.02950761      -0.03237617       0.07174194
H        3.84550292      -0.97232397      -0.00785166       0.00000000       0.00000000       0.03606134      -0.04828812       0.04359307       0.08987751
H        3.30999017       0.86407448      -4.47851795       0.00000000       0.00000000       0.05368907      -0.00678524      -0.00168419       0.07703580
H        1.74998010       0.76731968      -3.64222008       0.00000000       0.00000000      -0.03801568       0.05597499      -0.00205985       0.09171132
H        2.90284426      -1.47480175      -5.37607866       0.00000000       0.00000000      -0.00863603       0.00323594      -0.03043303       0.05295310
H        1.76445212      -0.24393560      -5.90902122       0.00000000       0.00000000       0.00913030      -0.01830985      -0.00631949       0.06740002
H        0.32661399      -1.99099895      -5.40805268       0.00000000       0.00000000       0.01464809      -0.00270194      -0.00018926       0.05868636
H        0.27895053      -1.04149028      -3.92691166       0.00000000       0.00000000      -0.03760233      -0.03830438       0.03330567       0.06108399
H        2.06468960      -2.64314326      -2.99857147       0.00000000       0.00000000       0.02399987       0.02580908       0.02622038       0.00721911
H        1.81723733      -3.62414537      -4.43741474       0.00000000       0.00000000       0.02475147      -0.00880818      -0.02185903       0.04475865
H       -0.40287427      -2.88063319      -2.48095404       0.00000000       0.00000000       0.03477184       0.02651101       0.01295085       0.01992515
H        0.54298875      -4.37458371      -2.40025205       0.00000000       0.00000000       0.00519986      -0.00462627       0.00268293       0.01849118
H       -1.27011948      -3.55171946      -4.71741516       0.00000000       0.00000000       0.00010145       0.02479006       0.02351656       0.04990112
H       -1.53010593      -4.87656380      -3.59225442       0.00000000       0.00000000       0.00376995       0.00731394       0.03105172       0.04014673
H       -0.18931125      -4.94450848      -4.73422457       0.00000000       0.00000000      -0.04449827      -0.01220133       0.01198848       0.04809663
H        4.61167346      -1.50033345      -4.00778260       0.00000000       0.00000000      -0.06776396      -0.09082976       0.00375481       0.08407723
H        4.84335091      -1.62785911      -2.25730433       0.00000000       0.00000000      -0.02779535       0.01319135       0.01095587       0.05198315
H        5.51168224       0.69968654      -4.10582898       0.00000000       0.00000000      -0.00672832      -0.04708410      -0.02541472       0.05653044
H        6.56443002      -0.18251588      -3.01735979       0.00000000       0.00000000      -0.04343879      -0.04689166      -0.00011430       0.07509919
H        5.12250068       0.80259463      -1.09051949       0.00000000       0.00000000       0.02516747      -0.01582306      -0.00425057       0.02232545
H        4.38931377       1.82805262      -2.31365529       0.00000000       0.00000000      -0.00666899      -0.00361032       0.00318897       0.03055882
H        6.09584165       3.26719743      -1.79279475       0.00000000       0.00000000      -0.01119044      -0.01539661       0.03444805       0.04073391
H        7.03920658       2.25280151      -2.87117895       0.00000000       0.00000000       0.00234544       0.02982306      -0.01030877       0.04820357
H        6.84644103       1.92405326       0.15381236       0.00000000       0.00000000       0.02046384       0.04001150      -0.00448814       0.02430643
H        8.17159958       2.69734966      -0.71591501       0.00000000       0.00000000      -0.01951974      -0.01934751      -0.00387667       0.04491607
H        7.40376999      -0.25852642      -0.84362526       0.00000000       0.00000000       0.01153552       0.01829865       0.00383543       0.02595295
H        8.86179248       0.44567626      -0.15537460       0.00000000       0.00000000      -0.01464441       0.01263921       0.00147112       0.04242739
H        8.60884118       0.49907530      -1.89418105       0.00000000       0.00000000       0.01849049       0.01350340       0.01913714       0.04175037
N       -2.05782127      -0.30985432      -1.93524639       0.00000000       0.00000000       0.00105112       0.03691724       0.02393944       0.78709977
O       -2.87592352      -0.52775706      -2.76506616       0.00000000       0.00000000       0.03746623       0.02543544       0.00858517      -0.36899565
O       -2.34520447      -0.24024706      -0.72768011       0.00000000       0.00000000       0.05427468      -0.10983855       0.07833454      -0.44927491
O       -0.86014702      -0.11863889      -2.22661126       0.00000000       0.00000000      -0.10839181      -0.07265519      -0.01872971      -0.43486335
