233
Properties=species:S:1:pos:R:3:initial_charges:R:1:initial_magmoms:R:1:forces:R:3:charge:R:1 energy=-7457.144981465666 free_energy=-7457.144981465666 dipole="-0.7400403676833367 0.682999846073268 0.7564486012512606" pbc="F F F"
Er       0.01769827       0.02487007      -0.03936592       3.00000000       0.00000000       0.12262344       0.00912371       0.04127144       0.83890832
C        2.28182150       3.10586455      -0.74388718       0.00000000       0.00000000      -0.01659566       0.04813097       0.00524081      -0.11321009
C        3.34962814       2.13715883      -1.24894904       0.00000000       0.00000000      -0.04626159       0.08669480       0.00170660      -0.05819236
C        3.87189799       2.58978390      -2.61014352       0.00000000       0.00000000      -0.06933061       0.02785954      -0.05471265      -0.07168946
C        2.77576583       2.71648852      -3.67770491       0.00000000       0.00000000       0.01294534      -0.04725172      -0.02219108      -0.06925907
C        2.18388642       1.35844852      -4.08170446       0.00000000       0.00000000       0.01392962       0.05115028       0.01556530      -0.02799847
C        3.02106775       0.68753617      -5.18792072       0.00000000       0.00000000      -0.06326694      -0.00101498       0.02093162      -0.06558218
C        4.44126745       0.30234030      -4.78155903       0.00000000       0.00000000       0.00066564      -0.02327408      -0.03205391      -0.10950581
C        0.74533407       1.46265733      -4.62979938       0.00000000       0.00000000       0.04322850       0.02506201      -0.02921757      -0.02080996
N       -0.27154221       2.13561233      -3.80947187       0.00000000       0.00000000       0.01435454      -0.01598439      -0.07302819      -0.03494648
C       -1.16099430       3.09286803      -4.48157099       0.00000000       0.00000000       0.04768342      -0.03352706      -0.02023351      -0.03665455
C       -1.05253176       4.57878968      -4.04785119       0.00000000       0.00000000       0.06660639      -0.03548064      -0.01908720      -0.02921457
C       -0.58414552       5.46504203      -5.21555607       0.00000000       0.00000000      -0.03969665       0.02075511       0.02472778      -0.06927628
C        0.82230257       5.17202844      -5.71657469       0.00000000       0.00000000       0.00933292       0.02444646       0.03313639      -0.11414268
C       -2.39544194       5.12366462      -3.52108321       0.00000000       0.00000000       0.02886501      -0.02220601       0.02086391      -0.07771833
C       -2.24193096       6.23672270      -2.48089875       0.00000000       0.00000000      -0.02287612       0.03381464       0.01513335      -0.06097420
C       -3.58104479       6.60524219      -1.83609159       0.00000000       0.00000000      -0.03967228       0.00862927      -0.03082895      -0.05581079
C       -3.50055592       7.86444938      -0.97952411       0.00000000       0.00000000       0.00698007      -0.01900294      -0.01141163      -0.11301207
C       -0.55092500       1.64067234      -2.62057892       0.00000000       0.00000000      -0.02446461       0.05348580      -0.01150522       0.25846311
O        0.03599461       0.64352952      -2.12636338       0.00000000       0.00000000      -0.04360185       0.12037085       0.02355088      -0.38011776
C       -1.66666030       2.30929930      -1.81467737       0.00000000       0.00000000       0.03188210      -0.06047527       0.03290884       0.03942557
O       -1.65798032       1.79389345      -0.48440581       0.00000000       0.00000000       0.02926417       0.09371952       0.09827102      -0.22391107
C       -2.93821705       1.51622527       0.06845619       0.00000000       0.00000000      -0.00036405      -0.05606234      -0.00366968       0.04026634
C       -3.15781778      -0.00234066       0.00506417       0.00000000       0.00000000      -0.00851835       0.03157049       0.01582554       0.24978584
O       -2.18052578      -0.70388025      -0.35642240       0.00000000       0.00000000      -0.08909315       0.08118297       0.05554904      -0.39355006
N       -4.32118065      -0.50282983       0.36688261       0.00000000       0.00000000      -0.07990280      -0.04844563      -0.00662886      -0.03606299
C       -5.42445467       0.32508777       0.85212553       0.00000000       0.00000000       0.08433925      -0.07404309       0.04645957      -0.03243249
C       -6.23957954       1.14686515      -0.17030987       0.00000000       0.00000000       0.09377696      -0.02146914       0.08804412      -0.02635800
C       -7.22391071       2.01328840       0.63322780       0.00000000       0.00000000      -0.01426929      -0.07295059       0.01668689      -0.06747513
C       -7.81340123       3.14375011      -0.19675586       0.00000000       0.00000000      -0.03335204       0.02752161       0.00126804      -0.11372992
C       -6.99582054       0.28672889      -1.18358433       0.00000000       0.00000000      -0.01340257       0.01203587       0.06038160      -0.07596834
C       -6.13839955      -0.40889830      -2.23751068       0.00000000       0.00000000      -0.00971374      -0.01310407      -0.01431883      -0.07052588
C       -5.28788282       0.52833927      -3.09264893       0.00000000       0.00000000      -0.01519543       0.00526661      -0.00033761      -0.04961855
C       -4.51420576      -0.25860920      -4.14284811       0.00000000       0.00000000      -0.00762175       0.02065640      -0.00187809      -0.10884195
C       -4.48395818      -1.95757775       0.39066286       0.00000000       0.00000000       0.00375828      -0.00041703      -0.02067671      -0.01994449
C       -3.80241223      -2.65685283       1.58322708       0.00000000       0.00000000      -0.01531971       0.05777778      -0.01225043      -0.02619650
C       -4.21101553      -2.02947449       2.92654049       0.00000000       0.00000000      -0.01192995      -0.00160615      -0.05586758      -0.07147546
C       -3.43110537      -2.59812189       4.11047126       0.00000000       0.00000000      -0.03378041       0.03636794      -0.02751515      -0.11529381
C       -4.16481295      -4.15097238       1.57323985       0.00000000       0.00000000      -0.01876993       0.04034461       0.01086228      -0.07658372
C       -3.93371887      -4.89628276       0.25917832       0.00000000       0.00000000      -0.00576908      -0.03058218      -0.01253444      -0.07043239
C       -2.51166750      -4.77631336      -0.28386590       0.00000000       0.00000000      -0.01963730      -0.02911884      -0.03826556      -0.06472780
C       -1.45726740      -5.31480207       0.68042179       0.00000000       0.00000000      -0.02594323       0.01951301      -0.04081742      -0.11819329
H        2.37543703       3.27491910       0.32167737       0.00000000       0.00000000       0.00650866      -0.08358956      -0.03828441       0.04369267
H        2.41295202       4.07113402      -1.22488343       0.00000000       0.00000000      -0.05416177      -0.04184270       0.00697440       0.06934416
H        1.27520789       2.73850936      -0.96536219       0.00000000       0.00000000      -0.03588617       0.00029060       0.04741904       0.03848090
H        4.18684421       2.11551255      -0.54755169       0.00000000       0.00000000       0.02626774      -0.00625015      -0.05460018       0.03221455
H        2.93602631       1.12558775      -1.31325934       0.00000000       0.00000000       0.03266915      -0.01299128       0.06757979       0.04409059
H        4.35109955       3.56312323      -2.48624089       0.00000000       0.00000000      -0.01005544       0.00951195      -0.02508860       0.04706838
H        4.63474271       1.89208228      -2.94114198       0.00000000       0.00000000       0.01456195       0.09930289       0.01499200       0.05760495
H        1.97809078       3.36930602      -3.31374641       0.00000000       0.00000000       0.05600769      -0.07693507       0.03550928       0.03286815
H        3.20557796       3.20692114      -4.55492292       0.00000000       0.00000000      -0.02758603      -0.09889808       0.01443902       0.05544950
H        2.15911750       0.70042664      -3.20771480       0.00000000       0.00000000       0.04952074       0.01378485      -0.03196000       0.06112003
H        2.49328917      -0.21211799      -5.50672813       0.00000000       0.00000000       0.00177513      -0.03113024      -0.05495812       0.03641661
H        3.08420503       1.35253856      -6.05183260       0.00000000       0.00000000      -0.06226677      -0.01606301       0.03295475       0.05028639
H        4.46456376      -0.15220259      -3.79344617       0.00000000       0.00000000      -0.00713892      -0.01445711       0.00605615       0.03002505
H        4.84211954      -0.41639564      -5.48864704       0.00000000       0.00000000       0.00328046      -0.04653456      -0.08948448       0.05446157
H        5.10449376       1.16150004      -4.79327823       0.00000000       0.00000000      -0.01054289      -0.00105829      -0.01504066       0.05418430
H        0.79507957       1.99829964      -5.57386554       0.00000000       0.00000000      -0.02119150      -0.02907543      -0.08421838       0.08325862
H        0.37878736       0.44639423      -4.80605535       0.00000000       0.00000000       0.05174606      -0.00947754      -0.09434912       0.07042674
H       -0.92325533       3.03214188      -5.54056803       0.00000000       0.00000000      -0.04952519       0.00991976      -0.06825672       0.10000287
H       -2.19123541       2.73651732      -4.37051356       0.00000000       0.00000000       0.05756011       0.08406090      -0.00196268       0.05761647
H       -0.29471322       4.65465983      -3.26165677       0.00000000       0.00000000       0.02172284      -0.03246622       0.05735603       0.03924833
H       -1.29598276       5.38510529      -6.04000955       0.00000000       0.00000000       0.03139157      -0.05598155       0.02135548       0.04935911
H       -0.60683094       6.49918840      -4.87311609       0.00000000       0.00000000      -0.02661964       0.01917166       0.02384610       0.06203626
H        0.89834187       4.19173514      -6.17909278       0.00000000       0.00000000       0.02060733       0.01986640      -0.02749712       0.03163556
H        1.10118658       5.91694824      -6.45466124       0.00000000       0.00000000      -0.00822608      -0.02732868      -0.07378645       0.06315409
H        1.54110085       5.23394403      -4.90557279       0.00000000       0.00000000       0.02496200      -0.01366640       0.06478787       0.04114562
H       -2.96124061       5.51489586      -4.36484223       0.00000000       0.00000000      -0.05322642       0.02661625      -0.03273072       0.06152984
H       -2.99899090       4.32171176      -3.09349238       0.00000000       0.00000000      -0.03261461      -0.01736162       0.05553254       0.01661926
H       -1.53630002       5.93625958      -1.69819628       0.00000000       0.00000000      -0.00664972      -0.02053055      -0.03675561       0.01447235
H       -1.83449191       7.12056800      -2.96977992       0.00000000       0.00000000       0.03607538       0.03493055       0.04943364       0.05368327
H       -4.31616850       6.77042883      -2.62374456       0.00000000       0.00000000      -0.01445513      -0.00659686      -0.04612375       0.04498688
H       -3.94100280       5.77299917      -1.22105564       0.00000000       0.00000000       0.04090580       0.00458888      -0.03792790       0.01496453
H       -3.16283915       8.71003066      -1.57241177       0.00000000       0.00000000       0.00258901      -0.01842211      -0.01176509       0.05038980
H       -4.48170222       8.10574524      -0.57854095       0.00000000       0.00000000       0.02150840      -0.01013783      -0.00639297       0.04996865
H       -2.81492143       7.73362003      -0.14633063       0.00000000       0.00000000       0.01530137      -0.01679513      -0.00448601       0.03594777
H       -1.50007415       3.38987453      -1.76158918       0.00000000       0.00000000      -0.05088350       0.02973128      -0.06249416       0.11098103
H       -2.62181840       2.10173374      -2.31956742       0.00000000       0.00000000       0.07688954       0.01914774       0.06947767       0.08896903
H       -2.92946091       1.83303627       1.12250484       0.00000000       0.00000000       0.07415851       0.02162355      -0.09187204       0.09796611
H       -3.72377981       2.07501450      -0.44926725       0.00000000       0.00000000       0.08176652      -0.04586847       0.07797033       0.09451274
H       -6.11388266      -0.35367230       1.35533012       0.00000000       0.00000000      -0.03261550       0.08576893       0.02487557       0.09303649
H       -5.01139248       1.00721607       1.60386322       0.00000000       0.00000000      -0.12946008       0.02859579      -0.01205560       0.05055072
H       -5.59337325       1.83146897      -0.72156880       0.00000000       0.00000000       0.03963266       0.00045888       0.00203283       0.03162916
H       -8.03119071       1.37884950       0.99449437       0.00000000       0.00000000      -0.05523792      -0.00374785       0.08771129       0.05502208
H       -6.71924625       2.43749275       1.50616618       0.00000000       0.00000000       0.00574340      -0.00578216      -0.08033691       0.03466007
H       -8.48826460       2.76471533      -0.95568146       0.00000000       0.00000000      -0.02127366       0.00911645      -0.06060600       0.05376739
H       -8.38337389       3.80658120       0.44259921       0.00000000       0.00000000      -0.04579090       0.07513336       0.04872559       0.06257001
H       -7.03308473       3.72298230      -0.68362249       0.00000000       0.00000000       0.02132485       0.04091482       0.00441310       0.03641771
H       -7.57768790      -0.46001261      -0.64332865       0.00000000       0.00000000      -0.02626387      -0.07699459      -0.00455764       0.04735373
H       -7.70735235       0.92890486      -1.69890391       0.00000000       0.00000000      -0.00416009       0.03025479      -0.03714995       0.06830358
H       -5.49397512      -1.14844620      -1.76692885       0.00000000       0.00000000       0.05525825      -0.01510664      -0.06710226       0.02547939
H       -6.81429305      -0.94838921      -2.90044242       0.00000000       0.00000000      -0.01465328      -0.02946789      -0.03969735       0.05846086
H       -5.92929575       1.26171181      -3.58430891       0.00000000       0.00000000      -0.00644830      -0.01883637       0.02562918       0.04839028
H       -4.57662505       1.07564769      -2.46218493       0.00000000       0.00000000      -0.02344041      -0.03111779      -0.02986240      -0.00943085
H       -5.20498728      -0.81481455      -4.76916471       0.00000000       0.00000000       0.02388856      -0.01521691      -0.02033530       0.05920863
H       -3.93842844       0.40484285      -4.78409151       0.00000000       0.00000000       0.02316153      -0.00498040      -0.00578308       0.03146674
H       -3.83630542      -0.96608292      -3.66669225       0.00000000       0.00000000       0.02504316       0.00500417      -0.02718692       0.02509447
H       -5.54967472      -2.18028435       0.39035532       0.00000000       0.00000000      -0.00465419       0.00384747       0.05192199       0.08526770
H       -4.04649107      -2.35394560      -0.52659922       0.00000000       0.00000000       0.00331376       0.02910179      -0.02923037       0.08149067
H       -2.71472345      -2.55319505       1.45853651       0.00000000       0.00000000      -0.04874303       0.03898300      -0.00140686       0.03626244
H       -4.07742166      -0.94274508       2.88743895       0.00000000       0.00000000       0.06584044      -0.06533040       0.00540745       0.01798656
H       -5.27228197      -2.21774614       3.09935199       0.00000000       0.00000000       0.02058331       0.02227780      -0.01848872       0.05806518
H       -2.35226561      -2.55975342       3.94660439       0.00000000       0.00000000      -0.03126191      -0.00787266       0.01497834       0.01876064
H       -3.66418745      -2.03973469       5.01238953       0.00000000       0.00000000       0.01344909       0.01866721       0.01249260       0.05607367
H       -3.71242389      -3.63177303       4.28747738       0.00000000       0.00000000       0.03639404       0.02546804       0.03479430       0.06341548
H       -3.58899304      -4.65011910       2.35102618       0.00000000       0.00000000       0.00432301       0.00758571      -0.00114039       0.06112321
H       -5.21640371      -4.25293233       1.83787245       0.00000000       0.00000000      -0.06387072      -0.00306968       0.00985616       0.05468519
H       -4.15469985      -5.94794715       0.43793056       0.00000000       0.00000000       0.01227724      -0.05181959       0.01287833       0.06263286
H       -4.63077758      -4.56003423      -0.50924407       0.00000000       0.00000000      -0.04032601       0.04170505       0.03101996       0.03869282
H       -2.45811844      -5.34847149      -1.21066891       0.00000000       0.00000000      -0.00757244      -0.02114904      -0.00629326       0.04879670
H       -2.32887094      -3.72433981      -0.53460505       0.00000000       0.00000000      -0.01472719      -0.07210002      -0.02025863       0.01768058
H       -1.74476285      -6.31192363       1.00494562       0.00000000       0.00000000       0.01644518       0.02534974       0.02214754       0.06357666
H       -0.49026414      -5.40264650       0.18744330       0.00000000       0.00000000       0.01167848       0.01411773       0.01770366       0.02988571
H       -1.35067615      -4.68586357       1.56262809       0.00000000       0.00000000      -0.01110816      -0.01703437      -0.04197686       0.03569333
C       -1.15090664       0.54641477       6.44454061       0.00000000       0.00000000       0.06032719      -0.01621653      -0.00252517      -0.10154410
C        0.17746203       0.41690975       7.18792144       0.00000000       0.00000000       0.02662992      -0.02304866       0.00235783      -0.05954720
C        0.89029038       1.74471330       7.46917488       0.00000000       0.00000000       0.00271052       0.01021251       0.03591875      -0.06916949
C        1.79695997       2.28980741       6.36092380       0.00000000       0.00000000       0.00910959       0.06428302      -0.03554337      -0.06851345
C        1.10082960       2.88169142       5.12446970       0.00000000       0.00000000      -0.03346528       0.00985457      -0.05530515      -0.02600669
C        0.07723073       3.98823986       5.45877587       0.00000000       0.00000000       0.05949208      -0.01216692      -0.01714551      -0.07023449
C       -1.24393702       3.84463111       4.69839023       0.00000000       0.00000000       0.06441091       0.03575285       0.00629498      -0.11294547
C        2.17587746       3.35752090       4.10285519       0.00000000       0.00000000      -0.07393185      -0.03954684      -0.08814446      -0.03253473
N        1.62371099       3.30583240       2.74717688       0.00000000       0.00000000      -0.06413840       0.01160637      -0.07112272      -0.04629248
C        0.94106649       4.53677665       2.31692555       0.00000000       0.00000000      -0.06025786      -0.05139783      -0.05090228      -0.02960972
C        1.62198334       5.61641031       1.41476486       0.00000000       0.00000000      -0.09892523       0.01645443       0.03325444      -0.02825205
C        0.98935881       6.96420867       1.82086368       0.00000000       0.00000000      -0.00523751      -0.04333932      -0.00606241      -0.07119273
C       -0.52240161       7.00936712       1.63285037       0.00000000       0.00000000      -0.00820818       0.01315703       0.02882226      -0.11132521
C        3.15257264       5.73352091       1.45174702       0.00000000       0.00000000      -0.03890733       0.05321473      -0.02953016      -0.06582029
C        3.82143949       6.21850091       0.13723985       0.00000000       0.00000000       0.00463358       0.02799364      -0.04557452      -0.06816235
C        3.14875683       7.28292315      -0.75875072       0.00000000       0.00000000       0.04618706      -0.01494935       0.03012544      -0.06271229
C        2.18220705       6.74557171      -1.81812714       0.00000000       0.00000000       0.04528510       0.02236002       0.06925000      -0.10110766
C        1.33914318       2.13534616       2.18391526       0.00000000       0.00000000      -0.03556394      -0.05748131      -0.00437570       0.25290995
O        0.49505992       1.96920232       1.26762016       0.00000000       0.00000000       0.02437584      -0.05688813       0.07296441      -0.38852776
C        2.11877488       0.87851021       2.63587078       0.00000000       0.00000000      -0.02574820       0.04819671       0.02582104       0.04084454
O        1.59909953      -0.23491598       1.90168192       0.00000000       0.00000000       0.06253255       0.03895046      -0.05873339      -0.23287866
C        2.43245157      -1.39134556       1.78780141       0.00000000       0.00000000      -0.06050202       0.05143496      -0.10083218       0.03809669
C        2.52029336      -1.74897481       0.29304587       0.00000000       0.00000000       0.00717519      -0.05680254       0.03246072       0.25605235
O        2.03694095      -0.92055403      -0.51670691       0.00000000       0.00000000       0.00945911       0.06172560       0.10447299      -0.37858468
N        3.17242683      -2.83547951      -0.08675994       0.00000000       0.00000000       0.07518200      -0.05985583      -0.05629266      -0.04014464
C        3.72660785      -2.87126069      -1.45245520       0.00000000       0.00000000      -0.05263371       0.00129201      -0.01045879      -0.02553097
C        2.91426078      -3.55991493      -2.58817887       0.00000000       0.00000000       0.01373547      -0.03403206       0.10422215      -0.02709204
C        3.91922813      -4.41659500      -3.39523207       0.00000000       0.00000000      -0.02208900       0.02330855       0.06173709      -0.06421350
C        3.37001812      -5.28564993      -4.52646277       0.00000000       0.00000000       0.02130527       0.03897948       0.01804900      -0.11282309
C        2.20996234      -2.46515337      -3.41340181       0.00000000       0.00000000       0.03941586      -0.04862777       0.07311757      -0.07660877
C        1.19900928      -2.86793335      -4.49565658       0.00000000       0.00000000      -0.05843807       0.01542226       0.03149105      -0.07701115
C       -0.25242763      -3.01973692      -4.03392625       0.00000000       0.00000000      -0.06055534      -0.02965155       0.00770302      -0.05908927
C       -0.53123711      -4.39253570      -3.42881662       0.00000000       0.00000000      -0.01794227       0.02493439       0.03394657      -0.11471281
C        3.67941477      -3.81317537       0.87833606       0.00000000       0.00000000      -0.02017901       0.00967527      -0.02325976      -0.03991997
C        2.64910276      -4.78398493       1.52643936       0.00000000       0.00000000       0.01400503       0.00358300      -0.05400634      -0.02495635
C        2.79987195      -6.21931954       0.99617259       0.00000000       0.00000000      -0.00098817       0.00512501       0.04205775      -0.07278259
C        2.54567456      -6.42019862      -0.48987888       0.00000000       0.00000000       0.01563759       0.00285472       0.04529134      -0.11168315
C        2.91759072      -4.79363791       3.04293099       0.00000000       0.00000000       0.02953408       0.01294838      -0.00006381      -0.06989157
C        2.19090983      -5.84021356       3.89162757       0.00000000       0.00000000      -0.02615630      -0.00834916       0.03638810      -0.06875255
C        0.66853945      -5.82576002       3.78323507       0.00000000       0.00000000      -0.01968112      -0.00138134       0.00500853      -0.06266113
C        0.05593782      -4.52082201       4.27821108       0.00000000       0.00000000      -0.01732603      -0.01413109      -0.00544647      -0.10250728
H       -1.71706473      -0.37997627       6.52099670       0.00000000       0.00000000       0.04569454      -0.00025510      -0.03353122       0.03753889
H       -0.99095387       0.76747068       5.38884113       0.00000000       0.00000000      -0.05898854       0.02230865      -0.01124148       0.00113783
H       -1.75365373       1.34015967       6.88070651       0.00000000       0.00000000       0.03737909      -0.04517107      -0.00637290       0.04971518
H        0.84552094      -0.25504461       6.64298906       0.00000000       0.00000000       0.01020238       0.00144235      -0.03049146       0.02379629
H       -0.02488473      -0.05893496       8.14779582       0.00000000       0.00000000      -0.02953325       0.04281924       0.01443983       0.05401843
H        1.52765115       1.60392270       8.34142527       0.00000000       0.00000000       0.05052132      -0.06013930       0.01476512       0.05786694
H        0.15125375       2.48963110       7.75399105       0.00000000       0.00000000      -0.06622994       0.01221899       0.03972911       0.05356922
H        2.45177433       1.47817704       6.03101091       0.00000000       0.00000000       0.04980142       0.01327884       0.01682648       0.02704136
H        2.43183833       3.06249163       6.79309949       0.00000000       0.00000000       0.00687312       0.05012027       0.04322299       0.05431294
H        0.55026341       2.07210635       4.63569519       0.00000000       0.00000000      -0.05820888      -0.05144467       0.01650089       0.02320287
H        0.50649585       4.96831820       5.24656070       0.00000000       0.00000000       0.03560946      -0.00608811       0.09126946       0.04474409
H       -0.14134662       3.97990695       6.52491301       0.00000000       0.00000000       0.01215246       0.01521725      -0.03476747       0.06973968
H       -1.06987086       3.64988972       3.64261936       0.00000000       0.00000000      -0.08672301      -0.03990556      -0.00141552       0.01854747
H       -1.81376007       4.76622534       4.78317770       0.00000000       0.00000000      -0.03406437      -0.03311066       0.03172712       0.05411086
H       -1.85168074       3.03705718       5.09858389       0.00000000       0.00000000       0.05518684       0.02307500       0.05778203       0.03956244
H        3.07682764       2.74507391       4.16832493       0.00000000       0.00000000      -0.04670973      -0.04817084      -0.00280404       0.05920096
H        2.47326982       4.38711118       4.30375138       0.00000000       0.00000000      -0.00250889      -0.05846906       0.01104711       0.09654407
H        0.66092205       5.04764828       3.23508366       0.00000000       0.00000000      -0.03480932      -0.03165878      -0.08139327       0.09540372
H        0.03809460       4.21352351       1.79251951       0.00000000       0.00000000       0.00223883       0.06099746      -0.00716191       0.06654432
H        1.32608110       5.41795327       0.38463292       0.00000000       0.00000000       0.01197660      -0.09870352       0.04487554       0.05348996
H        1.41785880       7.75230489       1.20703332       0.00000000       0.00000000       0.03151093      -0.05411815       0.00069204       0.06727024
H        1.24735893       7.20541170       2.85585199       0.00000000       0.00000000      -0.04358414      -0.08885599      -0.02691708       0.03924136
H       -0.78703854       6.64746792       0.64148223       0.00000000       0.00000000      -0.02717528       0.00962835       0.00075119       0.03059173
H       -0.87180241       8.03335697       1.72349281       0.00000000       0.00000000      -0.00503560       0.02556062       0.00255589       0.05779462
H       -1.04873736       6.41777272       2.37638783       0.00000000       0.00000000      -0.03375042      -0.04617772      -0.00522228       0.02941446
H        3.60237646       4.76693029       1.70044529       0.00000000       0.00000000      -0.02700025       0.03947212      -0.02995028       0.02287393
H        3.42407024       6.41995182       2.25453610       0.00000000       0.00000000       0.00499689       0.03390941       0.00197522       0.04728791
H        4.03527360       5.35696429      -0.49738692       0.00000000       0.00000000      -0.04432651      -0.05119460       0.03072849       0.03580475
H        4.79459947       6.61934517       0.42913572       0.00000000       0.00000000      -0.04227229      -0.01221811       0.03532244       0.04939014
H        3.94876903       7.80001173      -1.29365468       0.00000000       0.00000000       0.02534769      -0.08827537       0.00672179       0.04987173
H        2.64789560       8.04973602      -0.17056297       0.00000000       0.00000000       0.04932153      -0.04499485       0.04722516       0.04514889
H        2.66018912       5.96384605      -2.40725693       0.00000000       0.00000000       0.00705407       0.01782952      -0.00356045       0.02595257
H        1.89671723       7.54367227      -2.50018738       0.00000000       0.00000000       0.06220326       0.02499996       0.04686950       0.04678677
H        1.26466286       6.35465941      -1.38402560       0.00000000       0.00000000       0.00245755      -0.01692400       0.01103359       0.02094005
H        1.99982875       0.68890614       3.70860839       0.00000000       0.00000000       0.04414283       0.00059017       0.01958445       0.08977137
H        3.17725181       1.05756266       2.41261086       0.00000000       0.00000000       0.04271906      -0.11234603      -0.02888512       0.08542195
H        2.01891459      -2.20163421       2.39864285       0.00000000       0.00000000      -0.04277246       0.02644025      -0.04577631       0.10196636
H        3.45654345      -1.18851674       2.11436594       0.00000000       0.00000000       0.03617573       0.08494250       0.12298531       0.09050873
H        4.69770606      -3.36324843      -1.36078913       0.00000000       0.00000000      -0.07015847       0.07027153      -0.05213512       0.08116690
H        3.90236107      -1.82803102      -1.72678651       0.00000000       0.00000000       0.01330744      -0.01745588      -0.09025966       0.07277603
H        2.18129378      -4.22449473      -2.12837575       0.00000000       0.00000000      -0.03426003      -0.01853999      -0.06860047       0.05132811
H        4.40614598      -5.09504789      -2.68995052       0.00000000       0.00000000       0.02626577       0.05817822       0.01359699       0.03825628
H        4.69526792      -3.76213953      -3.79991193       0.00000000       0.00000000      -0.05908867      -0.00328289       0.00228919       0.04515306
H        2.44065093      -5.77998438      -4.25167897       0.00000000       0.00000000       0.02664455       0.05467882       0.04894721       0.04379786
H        4.09343808      -6.06415664      -4.75444419       0.00000000       0.00000000       0.02852164       0.01710284       0.00137359       0.05898734
H        3.22959249      -4.70841257      -5.43477066       0.00000000       0.00000000      -0.04289029      -0.03246331      -0.01818774       0.04910311
H        3.00572445      -1.89870370      -3.89738820       0.00000000       0.00000000      -0.02985529      -0.00883405      -0.01966022       0.05773291
H        1.69895109      -1.78850146      -2.71577727       0.00000000       0.00000000       0.06100728       0.09099587      -0.00672993       0.04013524
H        1.49268460      -3.79621015      -4.97213934       0.00000000       0.00000000       0.01105904       0.04588747      -0.02544338       0.07508587
H        1.22058611      -2.09209322      -5.26292223       0.00000000       0.00000000       0.02075905       0.01291916      -0.00914165       0.03578901
H       -0.90393459      -2.89937810      -4.90222820       0.00000000       0.00000000       0.02950680      -0.02720063      -0.01194685       0.04691305
H       -0.51814950      -2.21057067      -3.33460840       0.00000000       0.00000000       0.02554422      -0.03062671       0.01158746       0.00886873
H       -0.27974949      -5.17458307      -4.14281270       0.00000000       0.00000000      -0.00050430       0.08122980       0.02157976       0.05887539
H       -1.58506965      -4.50840894      -3.18403826       0.00000000       0.00000000       0.03527054       0.05994833       0.01506403       0.03825767
H        0.06479677      -4.55346201      -2.53403951       0.00000000       0.00000000      -0.02488123      -0.08299297       0.04665194       0.02420155
H        4.21201326      -3.26385220       1.66260053       0.00000000       0.00000000      -0.01998969      -0.09502948      -0.01237052       0.05662406
H        4.41131891      -4.42586200       0.36031303       0.00000000       0.00000000       0.09599735      -0.01179419      -0.03865326       0.09855337
H        1.63514451      -4.42593205       1.31715953       0.00000000       0.00000000       0.01335355       0.01160420       0.00371278       0.03276710
H        2.09478643      -6.85665920       1.52665256       0.00000000       0.00000000      -0.01194824       0.04596889       0.05215890       0.06436925
H        3.80158738      -6.57106565       1.24969116       0.00000000       0.00000000      -0.00295393      -0.01288902      -0.06295599       0.05124721
H        1.56278120      -6.04603503      -0.77255641       0.00000000       0.00000000       0.02507988       0.01688826      -0.00907356       0.02278004
H        2.56701482      -7.48432600      -0.70765834       0.00000000       0.00000000       0.01232262       0.01226460      -0.03942627       0.06041463
H        3.30549333      -5.94179374      -1.09637525       0.00000000       0.00000000      -0.01670338       0.00731257      -0.02713792       0.04332245
H        2.69218394      -3.80909967       3.45723338       0.00000000       0.00000000       0.03372421       0.03806560       0.02806772       0.02014880
H        3.98648783      -4.96386733       3.16903039       0.00000000       0.00000000       0.06210667      -0.01166160       0.10453122       0.04859196
H        2.46103446      -5.64145249       4.92932811       0.00000000       0.00000000       0.01367330      -0.01661719       0.06146072       0.05336101
H        2.55848520      -6.83934946       3.66441378       0.00000000       0.00000000       0.00597817       0.01445889      -0.07062654       0.05334345
H        0.27980629      -6.64198330       4.39365751       0.00000000       0.00000000       0.01135240       0.01895091       0.00015845       0.05211345
H        0.35662334      -6.01448936       2.75507934       0.00000000       0.00000000       0.01555921       0.00546522       0.00864098       0.03443495
H        0.40690459      -4.30331329       5.28381653       0.00000000       0.00000000      -0.01275086       0.02813158      -0.00702889       0.04610767
H       -1.02628656      -4.61202715       4.31091650       0.00000000       0.00000000      -0.02451591       0.02892077       0.00745161       0.03546061
H        0.31841543      -3.68443317       3.62805427       0.00000000       0.00000000      -0.02424185      -0.00150534       0.00003747       0.00498918
O       -1.09972430      -0.41824502       2.28911121       0.00000000       0.00000000       0.00601935       0.08237697      -0.15242125      -0.51271187
H       -1.62505789      -1.13388336       2.68051472       0.00000000       0.00000000      -0.04438693      -0.06616289      -0.02648273       0.34949631
H       -1.01937916       0.24540949       2.98656896       0.00000000       0.00000000       0.00937397       0.01666390       0.05572899       0.33573051
O       -0.10500641      -2.43731436      -0.49892198       0.00000000       0.00000000       0.11165178       0.03689916      -0.10378657      -0.52044812
H        0.10095092      -2.49006759      -1.45350015       0.00000000       0.00000000       0.03058063      -0.08141441       0.08147066       0.36094086
H       -0.70427420      -3.19120714      -0.34646244       0.00000000       0.00000000       0.00894586       0.05992647       0.09486567       0.35358393
