243
Properties=species:S:1:pos:R:3:initial_charges:R:1:initial_magmoms:R:1:forces:R:3:charge:R:1 energy=-7949.998980749005 free_energy=-7949.998980749005 dipole="2.118369520793238 -0.06579961259519451 1.8561327837363304" pbc="F F F"
Er      -0.25891812      -0.11526427      -0.02092075       2.00000000       0.00000000       0.00870768       0.04173585      -0.04018404       0.84740461
C       -0.50906927       6.03380606      -5.89864608       0.00000000       0.00000000       0.00054855      -0.00250992       0.00238123      -0.10627072
C       -0.09147608       6.08298291      -4.43504826       0.00000000       0.00000000       0.01955771      -0.00319946       0.00456042      -0.05221960
C       -1.13512130       6.81887257      -3.60022222       0.00000000       0.00000000       0.00032088       0.00255745      -0.02282667      -0.06318719
C       -0.73466880       6.97285076      -2.13496941       0.00000000       0.00000000      -0.02264814       0.01388585       0.00784032      -0.06245926
C       -1.84011753       7.68311131      -1.35263966       0.00000000       0.00000000      -0.02576879       0.01285235       0.06597740      -0.06557896
C       -1.61291074       7.78139359       0.15923600       0.00000000       0.00000000       0.00379505      -0.01045733       0.03488625      -0.06915530
C       -2.00732441       6.54840149       0.98782114       0.00000000       0.00000000       0.01436637      -0.00240657       0.04774321      -0.07275509
C       -0.95196923       5.42686326       1.00992582       0.00000000       0.00000000       0.01976981      -0.01630685       0.00230210      -0.01504556
N       -1.32963088       4.16770921       0.36826530       0.00000000       0.00000000       0.00493572      -0.12289074       0.04689297      -0.05301767
C       -2.28032905       4.13972210      -0.74721751       0.00000000       0.00000000       0.00484916       0.02915839      -0.04346200      -0.01477471
C       -3.61221404       3.46922647      -0.39600794       0.00000000       0.00000000       0.04295944      -0.00695668      -0.00779361      -0.06305600
C       -4.67551023       3.68062029      -1.48055141       0.00000000       0.00000000      -0.00674429       0.00676289       0.01575042      -0.06456572
C       -4.65986356       2.64413728      -2.60544532       0.00000000       0.00000000      -0.01162208      -0.00203030       0.00683426      -0.06537088
C       -3.51803414       2.79796998      -3.60764805       0.00000000       0.00000000       0.00164505      -0.01742625      -0.00727458      -0.05594244
C       -3.77424825       1.93992859      -4.84521909       0.00000000       0.00000000       0.01410705      -0.01260637      -0.02503895      -0.06563579
C       -2.63102341       1.98002669      -5.86015959       0.00000000       0.00000000       0.00939184       0.00094089      -0.02358868      -0.05489686
C       -1.43505898       1.12985378      -5.44470087       0.00000000       0.00000000      -0.00842700       0.01463123      -0.00389990      -0.10556221
C       -0.77524050       3.00284910       0.66996253       0.00000000       0.00000000      -0.08217277       0.04349153      -0.02426336       0.24664801
O       -1.12486371       1.94916825       0.09595909       0.00000000       0.00000000       0.00615762       0.03738264       0.01071917      -0.39065357
C        0.40182495       2.86046523       1.64961667       0.00000000       0.00000000       0.01771387       0.00670129       0.00956927       0.09038519
C        1.66582902       3.40532090       0.96797270       0.00000000       0.00000000      -0.04355049      -0.04133129       0.01255446      -0.12082443
O        0.60890444       1.45496257       1.84494001       0.00000000       0.00000000       0.01495366      -0.01358185      -0.01228040      -0.23742453
C        0.33386430       0.86116672       3.11438523       0.00000000       0.00000000       0.02432251      -0.00122179       0.00943670       0.08902241
C        1.39978597      -0.22185651       3.31590431       0.00000000       0.00000000       0.00613290       0.01671181      -0.00969603      -0.12603075
C       -0.97426338       0.05694088       3.06075566       0.00000000       0.00000000       0.02576909       0.04589553      -0.01041831       0.25137803
O       -1.34967238      -0.33570726       1.93762303       0.00000000       0.00000000      -0.00016672       0.02762558      -0.00991140      -0.36582831
N       -1.54717290      -0.33360126       4.18749887       0.00000000       0.00000000      -0.00712539      -0.01825974       0.00961727      -0.04745434
C       -1.15813766       0.13736192       5.50507502       0.00000000       0.00000000       0.01434823      -0.00084464      -0.03332383      -0.02278251
C       -1.81256545       1.47586723       5.86057174       0.00000000       0.00000000       0.01871827      -0.01676296       0.00614651      -0.06636364
C       -1.20823889       2.04777252       7.14375407       0.00000000       0.00000000      -0.01676002       0.00866492      -0.01358635      -0.06466850
C       -1.51725352       1.21621138       8.38942426       0.00000000       0.00000000      -0.00323924       0.00660616      -0.02928229      -0.06215795
C       -1.21529172       1.98106064       9.67881298       0.00000000       0.00000000      -0.00252451      -0.01396574      -0.01140752      -0.06248148
C        0.23941796       2.41329069       9.87605239       0.00000000       0.00000000       0.00567869       0.00336694       0.01342013      -0.06360418
C        1.24047914       1.26827609      10.07819053       0.00000000       0.00000000      -0.01245721       0.01191907       0.03220275      -0.05835509
C        1.89002239       0.75573691       8.79530035       0.00000000       0.00000000      -0.01908638       0.01427757       0.04284188      -0.10082043
C       -2.64225990      -1.29741176       4.11309466       0.00000000       0.00000000      -0.01666259       0.04231992      -0.00111510      -0.01403941
C       -2.15554504      -2.67092248       3.65295244       0.00000000       0.00000000      -0.01689612       0.03722272       0.01657272      -0.07451130
C       -1.18825587      -3.35653465       4.61794657       0.00000000       0.00000000      -0.01331639      -0.00571396      -0.00257405      -0.06219680
C       -0.93670925      -4.79111868       4.14780230       0.00000000       0.00000000      -0.01877017      -0.01025027      -0.01581928      -0.06184732
C        0.14206235      -5.56298329       4.91896106       0.00000000       0.00000000      -0.00087730      -0.00544946       0.00318768      -0.06564544
C        1.50835243      -5.59986865       4.23024036       0.00000000       0.00000000       0.00590606       0.00828410      -0.00257516      -0.06145198
C        2.26055177      -4.26839836       4.19959814       0.00000000       0.00000000      -0.01787213      -0.01471075      -0.01050888      -0.05096356
C        2.61555430      -3.76846493       5.59611120       0.00000000       0.00000000      -0.01047328       0.00408620      -0.03090091      -0.10808076
H        0.22830632       5.51048427      -6.50037515       0.00000000       0.00000000       0.02842728      -0.01901783       0.00187895       0.03817268
H       -0.61739586       7.04171217      -6.28915642       0.00000000       0.00000000       0.00258077       0.00924489      -0.03305590       0.04349380
H       -1.46387289       5.52490699      -6.00427371       0.00000000       0.00000000      -0.01988796      -0.01888981      -0.01244738       0.03658725
H        0.86990127       6.59311204      -4.34754035       0.00000000       0.00000000       0.01017062       0.00623806      -0.00215805       0.03084713
H        0.03550332       5.06557252      -4.05341235       0.00000000       0.00000000      -0.00722984       0.00108639       0.00283942       0.01817340
H       -2.08089508       6.27360220      -3.66252211       0.00000000       0.00000000      -0.00274533       0.01570262       0.01523617       0.02956459
H       -1.29855259       7.80823098      -4.03066917       0.00000000       0.00000000      -0.00808792      -0.00080942       0.00712464       0.04305593
H        0.18159136       7.56348775      -2.06513599       0.00000000       0.00000000       0.00278689      -0.00961685      -0.02424042       0.03373802
H       -0.52039423       5.98607740      -1.72135094       0.00000000       0.00000000      -0.00339367      -0.00942705       0.00317538       0.01744675
H       -2.80685682       7.20691427      -1.53923127       0.00000000       0.00000000       0.02741844      -0.00524467      -0.01892975       0.03322944
H       -1.91765520       8.69704897      -1.74859208       0.00000000       0.00000000      -0.00015317       0.00248257       0.00761963       0.05024447
H       -2.20944519       8.61735385       0.52816513       0.00000000       0.00000000      -0.02283956      -0.03070458      -0.00036201       0.05496238
H       -0.56798588       8.02904370       0.35721911       0.00000000       0.00000000      -0.00008344       0.01057383      -0.00994060       0.04174570
H       -2.97075743       6.17085720       0.65518114       0.00000000       0.00000000      -0.03734291       0.00329206      -0.00866723       0.06806815
H       -2.15158726       6.88517940       2.01545804       0.00000000       0.00000000       0.02684088      -0.00786203       0.01163728       0.05564359
H       -0.70484935       5.19655563       2.05011307       0.00000000       0.00000000       0.00507419       0.02653791      -0.06295121       0.04901630
H       -0.04355553       5.80803221       0.52981964       0.00000000       0.00000000      -0.04220059      -0.01054620      -0.00829580       0.06979525
H       -1.79736502       3.60511276      -1.56933378       0.00000000       0.00000000      -0.03746668      -0.06379177       0.02807696       0.07489470
H       -2.46192093       5.15914281      -1.06983422       0.00000000       0.00000000       0.01205052       0.01032899       0.02764970       0.09397505
H       -3.97133860       3.88485471       0.54980344       0.00000000       0.00000000       0.01881155       0.01063532      -0.03495492       0.03690779
H       -3.46283953       2.39719551      -0.25531946       0.00000000       0.00000000       0.02128752       0.00944437       0.07209820       0.05420034
H       -4.57191999       4.67900294      -1.91034139       0.00000000       0.00000000      -0.03224719       0.01280526       0.01185857       0.04024160
H       -5.65329863       3.63246492      -0.99995228       0.00000000       0.00000000      -0.02516160       0.00263032       0.00649146       0.04787949
H       -5.60096973       2.72691209      -3.15378429       0.00000000       0.00000000       0.00335744       0.05356888       0.01205974       0.04531729
H       -4.63383154       1.64096451      -2.17515377       0.00000000       0.00000000       0.02128796      -0.02081743       0.00311196       0.03475899
H       -2.57275662       2.49776552      -3.15315670       0.00000000       0.00000000      -0.00127398      -0.02058036      -0.00632553       0.02326192
H       -3.43374456       3.84562086      -3.90784619       0.00000000       0.00000000       0.01002263      -0.00512358       0.00221323       0.02829228
H       -4.68866431       2.29308975      -5.32714567       0.00000000       0.00000000       0.01415793      -0.00459471       0.00270118       0.03449994
H       -3.93721491       0.90668361      -4.53261331       0.00000000       0.00000000       0.01095698       0.00598563      -0.00384789       0.04899836
H       -2.31301186       3.01358340      -6.01512836       0.00000000       0.00000000      -0.00464205      -0.00316586      -0.00574986       0.03142765
H       -3.00346653       1.60382516      -6.81463464       0.00000000       0.00000000       0.00591875       0.00666943      -0.00659239       0.03676672
H       -0.96902990       1.51795332      -4.54092416       0.00000000       0.00000000      -0.00463929      -0.00189484      -0.00204664       0.02746251
H       -0.68993589       1.11438475      -6.23792199       0.00000000       0.00000000      -0.00006557       0.01368273       0.01095152       0.02762629
H       -1.76505367       0.11187214      -5.25098347       0.00000000       0.00000000       0.03012271       0.01258113      -0.02147227       0.04130701
H        0.21374348       3.36293803       2.60415340       0.00000000       0.00000000       0.03787387      -0.01367332       0.03463244       0.06351909
H        1.79329051       2.90222589       0.00770688       0.00000000       0.00000000       0.00243059      -0.01124012       0.03115316       0.07037672
H        2.54259634       3.21109888       1.58245720       0.00000000       0.00000000      -0.05476568      -0.03149425      -0.00690413       0.07859896
H        1.59957271       4.47621533       0.80273927       0.00000000       0.00000000      -0.00728440      -0.05040514       0.00925650       0.07425137
H        0.36266174       1.62050824       3.89906765       0.00000000       0.00000000      -0.00566633       0.03179019       0.01056409       0.07132183
H        1.28015587      -0.96804315       2.52290588       0.00000000       0.00000000       0.04449512       0.02387291       0.01359805       0.09230081
H        1.29786222      -0.71114604       4.28151237       0.00000000       0.00000000       0.00538098       0.01432208      -0.03941439       0.07010098
H        2.38515005       0.22470938       3.24235679       0.00000000       0.00000000      -0.03462371      -0.00916243       0.00965620       0.10360945
H       -0.07315242       0.23438401       5.56458930       0.00000000       0.00000000      -0.00430402       0.02645172       0.03828795       0.05706635
H       -1.45578944      -0.62373651       6.22623922       0.00000000       0.00000000      -0.00328572       0.03803509       0.00696549       0.08533726
H       -2.88918576       1.34417603       5.97421021       0.00000000       0.00000000       0.00800741      -0.02607885       0.05002985       0.05591594
H       -1.66372842       2.18391405       5.03927544       0.00000000       0.00000000       0.02911655      -0.03342491       0.00955917       0.02423032
H       -1.60123958       3.05485958       7.29160174       0.00000000       0.00000000      -0.00828924      -0.00118883       0.00859182       0.05215502
H       -0.12593144       2.12424893       7.01702886       0.00000000       0.00000000      -0.03018923       0.04805766       0.02693526       0.03913486
H       -0.95184202       0.28382975       8.37865714       0.00000000       0.00000000       0.00032819       0.02680082      -0.00584895       0.03433532
H       -2.57854874       0.95421749       8.39117701       0.00000000       0.00000000       0.01021335       0.03770568      -0.00689783       0.03469633
H       -1.50857124       1.35766440      10.52438971       0.00000000       0.00000000      -0.00703609      -0.01193144       0.02544209       0.04359373
H       -1.84173833       2.87564556       9.70138611       0.00000000       0.00000000      -0.00652958       0.00530892       0.00838085       0.03629279
H        0.25798936       3.04122395      10.76921021       0.00000000       0.00000000      -0.00104508      -0.01842392      -0.00244819       0.04062810
H        0.56254413       3.04163922       9.04443893       0.00000000       0.00000000       0.00083270      -0.00291406      -0.01104177       0.03130711
H        0.74682136       0.44356974      10.59567049       0.00000000       0.00000000       0.02026780       0.00445472      -0.00697862       0.03898521
H        2.03792571       1.62816409      10.73127640       0.00000000       0.00000000       0.00116689      -0.01490422      -0.01552404       0.03824013
H        1.18928624       0.19723976       8.17929454       0.00000000       0.00000000      -0.00675894       0.02107235      -0.01182012       0.02104173
H        2.71706447       0.09385667       9.04189296       0.00000000       0.00000000       0.00059359      -0.00603777      -0.01783567       0.03504032
H        2.28102982       1.58908424       8.21521102       0.00000000       0.00000000       0.01342388      -0.01488959       0.00833767       0.02972844
H       -3.39035127      -0.92538979       3.40973131       0.00000000       0.00000000       0.00870444      -0.00297082      -0.04856593       0.07766054
H       -3.08952102      -1.36734757       5.10329686       0.00000000       0.00000000      -0.06370688       0.00782893      -0.01508484       0.07641415
H       -1.67278663      -2.56165112       2.67969283       0.00000000       0.00000000      -0.02731854      -0.01488110      -0.00333976       0.06080748
H       -3.03945432      -3.29656916       3.52418209       0.00000000       0.00000000       0.00191860      -0.01749258       0.01953738       0.05989818
H       -1.61330165      -3.38213810       5.62352200       0.00000000       0.00000000      -0.00728981      -0.00050812      -0.00403635       0.03990939
H       -0.25409495      -2.79509107       4.66208080       0.00000000       0.00000000       0.01992809      -0.03241124      -0.00154387       0.02950306
H       -0.67503317      -4.77286780       3.08740957       0.00000000       0.00000000       0.02674938      -0.00490598       0.00563774       0.02720964
H       -1.88229811      -5.32924520       4.23428468       0.00000000       0.00000000      -0.00718825      -0.01002908      -0.02054912       0.03801204
H       -0.18850627      -6.59684377       5.02337335       0.00000000       0.00000000      -0.00128352      -0.01613342       0.02035457       0.04347971
H        0.24558796      -5.15885464       5.92499141       0.00000000       0.00000000      -0.02185980       0.00427940       0.00967173       0.04630460
H        1.37538157      -5.95766295       3.20496629       0.00000000       0.00000000      -0.00092055       0.01367721       0.01391712       0.02470685
H        2.13212762      -6.33240067       4.74702789       0.00000000       0.00000000      -0.01029085       0.02205679       0.00830198       0.04330546
H        1.66635439      -3.52052031       3.66594352       0.00000000       0.00000000       0.01616080      -0.00067638       0.01779667       0.01517948
H        3.18475145      -4.41516311       3.63309679       0.00000000       0.00000000      -0.02038204       0.01363103       0.02185535       0.02613756
H        1.72823475      -3.47564891       6.15175526       0.00000000       0.00000000      -0.00254908       0.00419154      -0.00770513       0.03309958
H        3.28280016      -2.91206211       5.54053477       0.00000000       0.00000000       0.01014373       0.00188359       0.00866416       0.03012862
H        3.11759414      -4.55381076       6.15448092       0.00000000       0.00000000       0.01805630       0.01096789      -0.00297090       0.04804164
C        6.71491968       4.81776104       2.81449505       0.00000000       0.00000000      -0.00457569      -0.00263649      -0.00100443      -0.10667031
C        6.54590031       4.03433745       1.51983695       0.00000000       0.00000000      -0.00467973       0.01414797      -0.01869123      -0.05250944
C        7.39000205       2.76440300       1.53797750       0.00000000       0.00000000       0.00264877       0.01655108       0.00949426      -0.06282932
C        7.32398762       1.98087993       0.22946220       0.00000000       0.00000000      -0.00248933      -0.00579454       0.00455222      -0.06196462
C        8.11935002       0.68052895       0.34573156       0.00000000       0.00000000       0.00639992      -0.04567745      -0.03095248      -0.06595709
C        7.88715240      -0.31137900      -0.79814676       0.00000000       0.00000000      -0.02018865      -0.05489781      -0.02228214      -0.06991425
C        6.72403956      -1.29478644      -0.58387330       0.00000000       0.00000000      -0.00854937      -0.06744672      -0.03773957      -0.07579912
C        5.36344184      -0.84155569      -1.14642564       0.00000000       0.00000000      -0.01391908      -0.01288985      -0.00594772      -0.01644669
N        4.29235930      -0.60893352      -0.17181745       0.00000000       0.00000000      -0.04610249       0.03421990       0.00858277      -0.05553407
C        4.62610358      -0.23432720       1.20229935       0.00000000       0.00000000       0.01625685       0.07647097       0.00745058      -0.01907736
C        4.65940357      -1.41308025       2.18503586       0.00000000       0.00000000      -0.00070571       0.03209225      -0.05187645      -0.06935111
C        5.47542970      -1.10881593       3.45126053       0.00000000       0.00000000       0.04163087      -0.05912357      -0.03692427      -0.06686527
C        4.71135171      -0.42463046       4.58603615       0.00000000       0.00000000       0.04559258      -0.00295100      -0.01985424      -0.06950887
C        4.57404778       1.09142138       4.46080930       0.00000000       0.00000000       0.00401017       0.03038259       0.01168213      -0.06026489
C        3.81467848       1.65159428       5.66394437       0.00000000       0.00000000       0.00062768       0.01803971       0.00231273      -0.06338399
C        3.67242067       3.17484109       5.65618896       0.00000000       0.00000000       0.00953605       0.01274113       0.02011929      -0.05820068
C        2.56076109       3.67820733       4.74293469       0.00000000       0.00000000       0.01165659      -0.01526620       0.00537887      -0.10031406
C        3.01546016      -0.53477527      -0.52650426       0.00000000       0.00000000       0.07523678       0.00073712      -0.07989826       0.24511574
O        2.11345047      -0.23601816       0.28689999       0.00000000       0.00000000      -0.05729964       0.00215868      -0.03024703      -0.38804681
C        2.56487913      -0.72107623      -1.98653933       0.00000000       0.00000000       0.00125423      -0.00258352       0.00378563       0.09059090
C        2.65004981       0.64003196      -2.68851219       0.00000000       0.00000000      -0.00994772      -0.00583919       0.04178953      -0.12327069
O        1.18510353      -1.07190965      -1.92965662       0.00000000       0.00000000       0.04789216      -0.02614620       0.03590067      -0.24474452
C        0.77042184      -2.37241802      -2.35188569       0.00000000       0.00000000       0.03757907      -0.05578443       0.02720041       0.09070635
C       -0.05680648      -2.19466738      -3.63629918       0.00000000       0.00000000      -0.07745129      -0.01879919      -0.03146901      -0.13528307
C        0.04508339      -2.97780230      -1.11927667       0.00000000       0.00000000      -0.02025110       0.04953734      -0.00987372       0.25216533
O        0.06000155      -2.30130492      -0.05967408       0.00000000       0.00000000      -0.05232334       0.00168892      -0.10506220      -0.39787274
N       -0.52036873      -4.16995845      -1.15885466       0.00000000       0.00000000       0.05316307      -0.02853474      -0.03540301      -0.03606203
C       -0.40311922      -5.09836840      -2.26678918       0.00000000       0.00000000      -0.00289508       0.00719959       0.00094087      -0.03031273
C        0.92787900      -5.87145169      -2.22940011       0.00000000       0.00000000      -0.00506040       0.00354710      -0.01085782      -0.06827098
C        1.38921745      -6.25701830      -3.63666561       0.00000000       0.00000000      -0.01776226      -0.01306190       0.02146572      -0.06407470
C        0.46204437      -7.27567118      -4.29873911       0.00000000       0.00000000      -0.00486745       0.01028449       0.01507616      -0.06378967
C        0.95957833      -7.73906119      -5.66894565       0.00000000       0.00000000      -0.00320866      -0.00096159       0.02855877      -0.06324129
C        1.06879610      -6.66986133      -6.75865361       0.00000000       0.00000000       0.00971719      -0.00230176      -0.00193357      -0.06286785
C       -0.25744513      -6.04912226      -7.21521642       0.00000000       0.00000000       0.01307661      -0.02712057      -0.02428913      -0.05893881
C       -0.67190886      -4.79595069      -6.44817278       0.00000000       0.00000000       0.00769488      -0.04210779      -0.02828711      -0.10035423
C       -1.17362700      -4.64990396       0.05517343       0.00000000       0.00000000       0.02356802       0.01776768      -0.00175050      -0.00982555
C       -2.50193275      -3.94091575       0.31821739       0.00000000       0.00000000       0.02160631      -0.03919021       0.02158542      -0.07327063
C       -3.59514104      -4.27478933      -0.69550565       0.00000000       0.00000000       0.03205026      -0.00208223       0.01917297      -0.06318394
C       -4.94674628      -3.80943059      -0.15175891       0.00000000       0.00000000      -0.00714498       0.01602720       0.02856728      -0.06178224
C       -6.10747202      -3.94179846      -1.14662683       0.00000000       0.00000000      -0.01224517      -0.00386280      -0.00053749      -0.06237966
C       -6.52239899      -2.61078867      -1.77663189       0.00000000       0.00000000       0.00788830       0.00883475      -0.00361026      -0.06163805
C       -5.43246983      -1.92738223      -2.60212344       0.00000000       0.00000000      -0.00656504       0.00455726       0.00981896      -0.05483793
C       -5.05326008      -2.70141556      -3.85922413       0.00000000       0.00000000      -0.00919687       0.01854485       0.01830723      -0.10421527
H        6.10773516       5.71837565       2.81026278       0.00000000       0.00000000      -0.01965852       0.01660069      -0.01053556       0.03828669
H        7.75435040       5.10634072       2.94063181       0.00000000       0.00000000       0.00647767       0.02630313       0.01715266       0.04678305
H        6.42711452       4.20933751       3.66884505       0.00000000       0.00000000      -0.01685057      -0.00234911       0.02315156       0.03166584
H        6.84825247       4.65673788       0.67664219       0.00000000       0.00000000      -0.00171650       0.01916441      -0.01144401       0.03670296
H        5.49227205       3.77257091       1.37751209       0.00000000       0.00000000       0.00468267       0.00345927       0.00038791       0.01221286
H        7.05040959       2.12869184       2.36171524       0.00000000       0.00000000       0.00793431      -0.00542693      -0.01543577       0.02431325
H        8.42872797       3.02978563       1.73998946       0.00000000       0.00000000      -0.00311314      -0.00231611      -0.00216736       0.04514832
H        7.74169280       2.58078512      -0.58178587       0.00000000       0.00000000      -0.01148585       0.01467722       0.03646364       0.03897775
H        6.27909975       1.78536725      -0.02518997       0.00000000       0.00000000      -0.01087215      -0.00823856       0.00617514       0.01585381
H        7.90188715       0.18636812       1.29707116       0.00000000       0.00000000      -0.00870054       0.02259789      -0.01555219       0.03189452
H        9.17732586       0.94156285       0.37317002       0.00000000       0.00000000       0.01695570       0.00636613      -0.01617338       0.05017991
H        8.79226509      -0.90794349      -0.91070148       0.00000000       0.00000000       0.00940824      -0.00777379       0.01351849       0.05565366
H        7.74817016       0.23177293      -1.73400128       0.00000000       0.00000000       0.02122094       0.00097771      -0.00607240       0.04423628
H        6.64826914      -1.52930627       0.47273785       0.00000000       0.00000000       0.03573937      -0.00483480       0.02617121       0.07128734
H        6.98705441      -2.23081095      -1.08004885       0.00000000       0.00000000      -0.01755367       0.04592367      -0.03714561       0.05518417
H        5.01437221      -1.60780827      -1.84146721       0.00000000       0.00000000       0.00198131       0.02740478       0.02063710       0.05266293
H        5.50752363       0.07618024      -1.72745711       0.00000000       0.00000000       0.02391266       0.00897795       0.04777518       0.06646220
H        3.87952326       0.50328975       1.50759244       0.00000000       0.00000000       0.02490463      -0.04848264       0.01854898       0.06836584
H        5.60191005       0.24502866       1.18313807       0.00000000       0.00000000      -0.02580369      -0.00602568       0.01320064       0.09619349
H        5.11118370      -2.26886136       1.68224420       0.00000000       0.00000000       0.03751354      -0.01444120      -0.01669875       0.04648158
H        3.64930729      -1.71719131       2.45880001       0.00000000       0.00000000      -0.01714114       0.04474210      -0.01682597       0.04867049
H        6.35382085      -0.51165779       3.19578625       0.00000000       0.00000000      -0.02896123      -0.01149911      -0.00612977       0.04286555
H        5.84460227      -2.05953898       3.83603976       0.00000000       0.00000000      -0.00907322      -0.05141702       0.01101123       0.05127650
H        5.24083325      -0.62604320       5.51906014       0.00000000       0.00000000       0.03787745       0.00942928      -0.00493310       0.04837328
H        3.72743129      -0.88537591       4.67939342       0.00000000       0.00000000      -0.00890710       0.01008876       0.00620891       0.03240935
H        4.07249145       1.37124539       3.53164109       0.00000000       0.00000000      -0.00388775      -0.01521818       0.02111422       0.01757390
H        5.57060645       1.53506771       4.42997599       0.00000000       0.00000000       0.01053589       0.01252069       0.02296725       0.04050238
H        4.35220085       1.35552116       6.56645153       0.00000000       0.00000000      -0.00014009       0.01166358      -0.01097453       0.04478142
H        2.82137541       1.19599371       5.71495711       0.00000000       0.00000000       0.02199008      -0.00565485       0.00050714       0.02301986
H        4.61924317       3.62133701       5.34990515       0.00000000       0.00000000      -0.00083413       0.02408567       0.02934621       0.04258403
H        3.46280987       3.51376246       6.67159684       0.00000000       0.00000000       0.00972820       0.01320845       0.01105924       0.04162869
H        2.75533093       3.39848546       3.71077982       0.00000000       0.00000000      -0.01003934      -0.01651831       0.00784717       0.02382941
H        2.49383551       4.76218393       4.79468281       0.00000000       0.00000000       0.01036408      -0.01448753      -0.00515535       0.04202283
H        1.59996266       3.26413796       5.05054502       0.00000000       0.00000000       0.01917970       0.00991594       0.00133590       0.01709349
H        3.12971432      -1.48457954      -2.52984131       0.00000000       0.00000000       0.02590459       0.00487667       0.03984479       0.06275550
H        1.90676596       1.29473580      -2.22559919       0.00000000       0.00000000       0.01546112       0.03266832      -0.03407800       0.08586253
H        2.41250833       0.54533679      -3.74513209       0.00000000       0.00000000      -0.00827335      -0.04248467       0.03112484       0.08897730
H        3.63703431       1.08293346      -2.59264560       0.00000000       0.00000000      -0.01160937      -0.00721218       0.01083865       0.06754694
H        1.65013173      -2.99278483      -2.56380995       0.00000000       0.00000000       0.03426914      -0.03428812       0.02136074       0.06751685
H       -1.12798108      -2.15212605      -3.44593459       0.00000000       0.00000000       0.06373218      -0.06545357      -0.03546957       0.07690430
H        0.14712336      -2.97304423      -4.36663307       0.00000000       0.00000000      -0.04157077      -0.00898697       0.05592942       0.07606045
H        0.23423939      -1.24929305      -4.09802495       0.00000000       0.00000000      -0.06087023      -0.03230228       0.07250311       0.09419014
H       -0.49673484      -4.55562257      -3.20285177       0.00000000       0.00000000       0.04604455       0.01831720      -0.04323256       0.07817241
H       -1.23846510      -5.79559405      -2.20717931       0.00000000       0.00000000      -0.01276565       0.03211322      -0.00717241       0.08564324
H        0.81272753      -6.76663333      -1.61720052       0.00000000       0.00000000       0.02773622      -0.02696505      -0.03414318       0.05720256
H        1.69711857      -5.25757995      -1.75092050       0.00000000       0.00000000      -0.05566069       0.03559619      -0.03840392       0.02655905
H        2.39452538      -6.67950891      -3.57855266       0.00000000       0.00000000      -0.03196238      -0.01960580       0.01196369       0.04938779
H        1.44581468      -5.35369675      -4.24751773       0.00000000       0.00000000       0.01089902      -0.03279831      -0.01635635       0.03426589
H       -0.54310166      -6.86570663      -4.39608917       0.00000000       0.00000000       0.01649156       0.01006781      -0.00797977       0.03693720
H        0.39375301      -8.15373858      -3.65084812       0.00000000       0.00000000       0.00317975       0.02294841      -0.02121943       0.03771255
H        0.28549586      -8.52005976      -6.02427584       0.00000000       0.00000000       0.01142298      -0.02059090      -0.00592001       0.04500072
H        1.94642913      -8.18947027      -5.54161890       0.00000000       0.00000000       0.00353571      -0.02530850       0.00093597       0.03666952
H        1.52576766      -7.15923993      -7.62133293       0.00000000       0.00000000      -0.01014494       0.00602528       0.00711542       0.04133576
H        1.75540193      -5.88039883      -6.44855065       0.00000000       0.00000000       0.01116551       0.01626223       0.02087941       0.02785901
H       -1.04889072      -6.79760414      -7.14979412       0.00000000       0.00000000       0.00086024       0.02272132      -0.01266973       0.04169963
H       -0.15366594      -5.77527076      -8.26684323       0.00000000       0.00000000      -0.02666204       0.00785786       0.01185468       0.03987689
H       -1.00658283      -5.03437496      -5.44164216       0.00000000       0.00000000       0.02597795       0.00487624       0.00607356       0.02299161
H       -1.49322230      -4.30189328      -6.96115917       0.00000000       0.00000000      -0.00461403       0.00647671       0.00227494       0.04087636
H        0.16348640      -4.09799655      -6.39523463       0.00000000       0.00000000      -0.02872222       0.00502373      -0.01776015       0.02117902
H       -0.49383278      -4.48631459       0.89702044       0.00000000       0.00000000       0.00071350       0.04944366      -0.00775492       0.06609169
H       -1.34190074      -5.72008891      -0.05377050       0.00000000       0.00000000       0.02493248      -0.02447866       0.00518346       0.07612045
H       -2.34744316      -2.85588278       0.34161284       0.00000000       0.00000000      -0.01216896      -0.05764582       0.02633132       0.07041335
H       -2.83812640      -4.25890620       1.30605937       0.00000000       0.00000000      -0.00972353       0.00035755       0.00194573       0.05897185
H       -3.63359518      -5.35451024      -0.86087540       0.00000000       0.00000000      -0.00093301       0.00694340      -0.00274480       0.03508230
H       -3.37671307      -3.79236887      -1.64829518       0.00000000       0.00000000      -0.03914683       0.01259423       0.00915674       0.04229564
H       -4.85606618      -2.76853355       0.16608980       0.00000000       0.00000000      -0.02059019       0.00272416      -0.01254393       0.03911229
H       -5.16514043      -4.40076353       0.74084398       0.00000000       0.00000000      -0.00511556       0.00845679      -0.00865722       0.03018307
H       -6.97724910      -4.34124344      -0.62327019       0.00000000       0.00000000      -0.01778175      -0.00701620      -0.00734369       0.03800104
H       -5.85065959      -4.65920772      -1.92601810       0.00000000       0.00000000       0.01661489      -0.00133560      -0.00103855       0.04034315
H       -6.82889838      -1.93429755      -0.97448043       0.00000000       0.00000000      -0.00721122       0.00938544      -0.01334815       0.02823760
H       -7.39593312      -2.78165262      -2.40933337       0.00000000       0.00000000       0.02790584      -0.00542134      -0.01250430       0.03963740
H       -4.54877720      -1.76941544      -1.98132685       0.00000000       0.00000000      -0.00005029      -0.00201832      -0.02582907       0.03287113
H       -5.79408196      -0.94115439      -2.90268859       0.00000000       0.00000000       0.00104966      -0.01433675       0.00445743       0.03173343
H       -4.68008697      -3.69454124      -3.61957808       0.00000000       0.00000000       0.00157304       0.00885505      -0.00583782       0.02715468
H       -4.28021596      -2.16548622      -4.40493182       0.00000000       0.00000000      -0.00154952       0.01063536      -0.01335000       0.03310798
H       -5.92007349      -2.81366917      -4.50530909       0.00000000       0.00000000       0.00961864       0.00057821      -0.01781182       0.04042786
N       -1.81207691      -0.17103821      -1.91177592       0.00000000       0.00000000      -0.10646300       0.01793412      -0.03079203       0.79486456
O       -2.49658932      -0.37263197      -2.86425133       0.00000000       0.00000000       0.11038921       0.02632600       0.08403166      -0.38573820
O       -0.78221472       0.51806142      -1.97724265       0.00000000       0.00000000      -0.05199721       0.05070589      -0.10069161      -0.43517928
O       -2.08791595      -0.67913022      -0.81246016       0.00000000       0.00000000       0.01625246      -0.04662874       0.03525096      -0.43818350
