189
Properties=species:S:1:pos:R:3:initial_charges:R:1:initial_magmoms:R:1:forces:R:3:charge:R:1 energy=-6400.207306048635 free_energy=-6400.207306048635 dipole="0.8078450948696407 2.5561924148561213 0.5265154778234217" pbc="F F F"
Er       0.02347263      -0.08492602       0.31503619       2.00000000       0.00000000       0.02106673      -0.03196890       0.06947512       0.85728156
C       -0.76760439       2.44447098       5.83489163       0.00000000       0.00000000      -0.02710889       0.02740458       0.01420963      -0.10824121
C       -1.04449671       3.33928518       4.63073700       0.00000000       0.00000000      -0.00605136       0.02804912      -0.01164543      -0.05400003
C       -0.49534987       4.76187834       4.81278263       0.00000000       0.00000000       0.01418866       0.01555592       0.05560369      -0.06867802
C       -0.08510209       5.44033996       3.49893130       0.00000000       0.00000000      -0.01022418       0.00610649       0.06487890      -0.06092409
C        1.39110742       5.23108789       3.15342607       0.00000000       0.00000000      -0.05543632       0.04785761       0.03872481      -0.06253604
C        1.73569548       3.75315889       3.01072261       0.00000000       0.00000000       0.01475503       0.01287245       0.00266098      -0.06530635
C        3.12883609       3.49454452       2.44702282       0.00000000       0.00000000       0.07155289      -0.03512175      -0.02994612      -0.06791916
C        3.51309199       2.02534868       2.69303230       0.00000000       0.00000000      -0.04262082       0.01969444       0.04106544      -0.01891282
N        4.02102777       1.29895676       1.53631231       0.00000000       0.00000000       0.03874138       0.06543229       0.09304633      -0.05920747
C        5.43796576       1.43523993       1.27539703       0.00000000       0.00000000      -0.03574458      -0.03082616      -0.00741130      -0.06897045
C        3.14676261       0.64107938       0.77353615       0.00000000       0.00000000       0.14199172      -0.05435410      -0.03272431       0.26765836
O        1.94587604       0.94908032       0.76959527       0.00000000       0.00000000      -0.15501657       0.03853160       0.00088148      -0.34914191
C        3.64358754      -0.58493411       0.00415584       0.00000000       0.00000000      -0.01487895      -0.03405185      -0.07358322      -0.06926371
C        3.65702174      -0.38348274      -1.53629054       0.00000000       0.00000000       0.05568107      -0.00012413       0.00376397      -0.06781135
C        2.34540957      -0.50094148      -2.32594173       0.00000000       0.00000000       0.04054401      -0.02499503       0.06239869       0.06711686
O        1.38219393       0.50409764      -2.03633556       0.00000000       0.00000000      -0.06159984      -0.01156218       0.04852617      -0.26396128
C        1.66275116       1.75437492      -2.69844093       0.00000000       0.00000000      -0.01477656       0.00665380       0.00079484       0.06741257
C        0.37391534       2.32476145      -3.28821647       0.00000000       0.00000000       0.01641453      -0.03466019      -0.00470092      -0.07376499
C        0.55764098       3.59505101      -4.12271708       0.00000000       0.00000000       0.01054320      -0.03601462      -0.00024854      -0.06498175
C       -0.78326311       4.15164265      -4.61768532       0.00000000       0.00000000       0.02305707      -0.01334835      -0.00613501      -0.06865829
C       -1.67040053       4.71499094      -3.50845993       0.00000000       0.00000000       0.00465544      -0.01168677       0.00543303      -0.05227320
C       -2.99790356       5.23386331      -4.04684420       0.00000000       0.00000000      -0.00561121       0.00549873      -0.02351794      -0.11021982
C        2.72751801      -1.74829396       0.42083886       0.00000000       0.00000000       0.03798465      -0.07221553       0.04167303       0.26542422
O        1.53761776      -1.76093318       0.01525074       0.00000000       0.00000000       0.03763406       0.04603267       0.05544643      -0.41712024
N        3.19302965      -2.74613742       1.16478718       0.00000000       0.00000000      -0.02725291       0.12935161      -0.10613269      -0.03458763
C        2.34297093      -3.91582595       1.34594546       0.00000000       0.00000000       0.11722377       0.09803076       0.02328839      -0.07683862
C        4.38805951      -2.73674210       1.99702869       0.00000000       0.00000000      -0.03772859       0.00863802       0.01574741      -0.01978963
C        5.48450227      -3.69392579       1.52020298       0.00000000       0.00000000      -0.01202662      -0.00094997       0.01049609      -0.07509333
C        6.18249519      -3.24342303       0.23961901       0.00000000       0.00000000       0.00461557       0.02004625      -0.00835530      -0.06777787
C        7.19880954      -2.13162291       0.49197275       0.00000000       0.00000000       0.04634259       0.03458543      -0.00519819      -0.06326342
C        8.05129153      -1.79625800      -0.73094898       0.00000000       0.00000000       0.02577571      -0.00451901      -0.01060746      -0.06770088
C        7.24467427      -1.21650629      -1.89016240       0.00000000       0.00000000      -0.00754700      -0.01522863       0.02357742      -0.05645768
C        8.11610929      -0.82058747      -3.08171573       0.00000000       0.00000000      -0.00233953      -0.00511638      -0.00325201      -0.05802498
C        8.97860097       0.40413685      -2.80825345       0.00000000       0.00000000       0.01738742       0.01984594      -0.00005285      -0.10729695
H       -0.92276894       1.40071989       5.57966356       0.00000000       0.00000000       0.00313487      -0.01211595       0.00481513       0.03828175
H       -1.42069987       2.68943281       6.66839310       0.00000000       0.00000000       0.04761952       0.07732762       0.02170116       0.04240095
H        0.26299030       2.55519825       6.16233100       0.00000000       0.00000000       0.00385159      -0.00480280       0.01848540       0.03949855
H       -2.12260691       3.39740807       4.46578253       0.00000000       0.00000000      -0.02058127      -0.01079618      -0.03897807       0.01394319
H       -0.60688000       2.87706482       3.74304800       0.00000000       0.00000000      -0.02005131      -0.00132239       0.03188170       0.02208062
H        0.36614634       4.73736229       5.48284723       0.00000000       0.00000000      -0.01543948       0.01731691      -0.03840262       0.04795055
H       -1.25405259       5.37057660       5.30464098       0.00000000       0.00000000      -0.02247771      -0.01054892       0.03738472       0.04104984
H       -0.27112159       6.51266354       3.57846782       0.00000000       0.00000000       0.02262903       0.01095649       0.00168540       0.04041830
H       -0.70879652       5.05432251       2.69048986       0.00000000       0.00000000      -0.00189444      -0.00996921      -0.01446606       0.01850355
H        2.00338698       5.66256661       3.94736305       0.00000000       0.00000000       0.00021881       0.00140604      -0.00233126       0.04829798
H        1.63317276       5.77769583       2.23922989       0.00000000       0.00000000       0.00451352      -0.03199177      -0.04316506       0.02542297
H        1.00470807       3.24633321       2.37480056       0.00000000       0.00000000       0.00222680      -0.02020447      -0.05516758       0.03616711
H        1.68189054       3.30331045       3.99969932       0.00000000       0.00000000       0.00399673      -0.04101968       0.05376054       0.05513429
H        3.84328965       4.16128474       2.92896260       0.00000000       0.00000000       0.04276427       0.00109914      -0.00271395       0.05594946
H        3.14293307       3.70674357       1.37664810       0.00000000       0.00000000       0.01516818       0.00598567      -0.01040296       0.04104006
H        2.62627884       1.48008277       3.03102308       0.00000000       0.00000000      -0.00811630      -0.00991570      -0.03414845       0.08374721
H        4.27369751       1.95460260       3.47445053       0.00000000       0.00000000      -0.00466134      -0.00870107      -0.06374514       0.07491738
H        5.70755515       2.47845455       1.43347275       0.00000000       0.00000000       0.02514932       0.03608220       0.00519501       0.09441243
H        5.67886541       1.18052388       0.24779300       0.00000000       0.00000000       0.01047746      -0.03338833      -0.03626614       0.07246997
H        6.03903070       0.82885411       1.95163230       0.00000000       0.00000000       0.02464729      -0.07490773       0.09375477       0.07660081
H        4.67375474      -0.79569203       0.29483331       0.00000000       0.00000000      -0.09272036      -0.02626653      -0.03837183       0.08816656
H        4.33374847      -1.13198644      -1.95306803       0.00000000       0.00000000      -0.01299449       0.00147921      -0.02135306       0.07631435
H        4.09218956       0.60017057      -1.73651783       0.00000000       0.00000000      -0.00339699      -0.03530450       0.00285395       0.06329364
H        1.85578224      -1.45874752      -2.13508356       0.00000000       0.00000000      -0.00737112      -0.02778172      -0.00378551       0.08936244
H        2.61217335      -0.46385019      -3.39041487       0.00000000       0.00000000      -0.04154808      -0.00017903      -0.02111205       0.06130100
H        2.38555135       1.58199360      -3.50347744       0.00000000       0.00000000      -0.01861263       0.03440968       0.00379007       0.05393568
H        2.10313681       2.45380624      -1.97679297       0.00000000       0.00000000      -0.01915431       0.00683565      -0.01676230       0.04559434
H       -0.29442762       2.53938932      -2.45762967       0.00000000       0.00000000       0.02025335      -0.00860405      -0.01316215       0.05299825
H       -0.07897276       1.55355753      -3.91533496       0.00000000       0.00000000      -0.01704196       0.00245478       0.01004070       0.05470467
H        1.17503100       3.37098274      -4.99450275       0.00000000       0.00000000       0.02265991      -0.01483755       0.04494615       0.04945490
H        1.07931280       4.35741983      -3.53846167       0.00000000       0.00000000      -0.00707601      -0.01830334      -0.00679613       0.03329591
H       -1.32222019       3.36462762      -5.14846039       0.00000000       0.00000000      -0.00433353      -0.00921490       0.01442502       0.04313001
H       -0.58524332       4.94862314      -5.33531778       0.00000000       0.00000000       0.01776222       0.00100852      -0.00295379       0.05540617
H       -1.14279419       5.53251774      -3.01334640       0.00000000       0.00000000       0.00048339       0.01534594       0.00962255       0.03125537
H       -1.87417698       3.93912466      -2.76658298       0.00000000       0.00000000       0.00619433      -0.02538372       0.03981949       0.00705465
H       -2.83150138       6.03864276      -4.75648935       0.00000000       0.00000000      -0.00227209       0.00991719      -0.01572711       0.05282492
H       -3.62192207       5.61622997      -3.24081408       0.00000000       0.00000000       0.01797704      -0.00141770      -0.01604087       0.03262671
H       -3.54252644       4.44146275      -4.55485721       0.00000000       0.00000000       0.00417739       0.00277687       0.00177214       0.04082312
H        1.82322320      -4.13490236       0.41925854       0.00000000       0.00000000      -0.05823327      -0.00819014      -0.08618576       0.08673401
H        1.60773900      -3.75832561       2.13375832       0.00000000       0.00000000      -0.04141870       0.02808866       0.07018440       0.10654927
H        2.96350977      -4.75920707       1.62349643       0.00000000       0.00000000       0.04587393      -0.07745520      -0.02518708       0.09095236
H        4.06507092      -3.04348676       2.99693979       0.00000000       0.00000000      -0.00803028       0.00490109      -0.00647233       0.08451517
H        4.77764629      -1.72408313       2.07822900       0.00000000       0.00000000       0.00953355       0.01265083       0.01596056       0.05761271
H        5.06024635      -4.68462269       1.36677355       0.00000000       0.00000000      -0.02419467      -0.03691965       0.00088088       0.05923942
H        6.22059878      -3.77636168       2.32013504       0.00000000       0.00000000       0.00164666      -0.02459360       0.01312867       0.06807191
H        5.42779278      -2.93204314      -0.48306977       0.00000000       0.00000000      -0.01406950       0.02003608      -0.05879733       0.02622683
H        6.71055769      -4.09265784      -0.19252104       0.00000000       0.00000000       0.02735707      -0.04064991       0.02544791       0.05943282
H        7.86382442      -2.45153261       1.29641604       0.00000000       0.00000000       0.01214783      -0.00805068      -0.01105448       0.04627714
H        6.69948319      -1.22046459       0.83085965       0.00000000       0.00000000      -0.00870047      -0.00015154       0.02162390       0.01144997
H        8.56500463      -2.69701028      -1.06786937       0.00000000       0.00000000      -0.00213819      -0.01239694      -0.01234936       0.04747752
H        8.81336577      -1.07684664      -0.43054371       0.00000000       0.00000000      -0.00237413      -0.00067371       0.01122714       0.04712859
H        6.69504145      -0.33516204      -1.54406617       0.00000000       0.00000000       0.00471717       0.01336242      -0.00347056       0.01051299
H        6.51876622      -1.96085314      -2.22499419       0.00000000       0.00000000       0.00454922      -0.00416754      -0.02508836       0.02098140
H        7.46698428      -0.61237277      -3.93465531       0.00000000       0.00000000      -0.01366028       0.01200526      -0.02211396       0.03076451
H        8.75263489      -1.66301530      -3.35253574       0.00000000       0.00000000       0.01807034      -0.00627323      -0.01025987       0.04440589
H        8.36341549       1.24475031      -2.49217587       0.00000000       0.00000000      -0.00097340       0.01433250      -0.00385282       0.02760241
H        9.51258144       0.69323437      -3.70837821       0.00000000       0.00000000       0.01105384       0.00181817      -0.01484147       0.04697303
H        9.71376683       0.20459395      -2.03426269       0.00000000       0.00000000       0.00821439      -0.00098784       0.00370595       0.04174750
C        1.66166383      -1.08934457       5.71396850       0.00000000       0.00000000       0.01946611       0.00660172       0.01170532      -0.10263880
C        0.19093761      -1.47463677       5.61047962       0.00000000       0.00000000       0.01138858       0.01645268       0.02086570      -0.05383957
C       -0.51740819      -1.40610827       6.95883990       0.00000000       0.00000000      -0.01796050      -0.02141166       0.03540195      -0.06422644
C       -1.95109708      -1.94472102       6.94294120       0.00000000       0.00000000      -0.00835381      -0.02482947       0.02071346      -0.06610918
C       -2.94264819      -1.10332672       6.12729133       0.00000000       0.00000000       0.00399374      -0.00161206       0.02493815      -0.06709350
C       -3.14128315      -1.61128374       4.69692169       0.00000000       0.00000000       0.01202141      -0.00519003       0.01854889      -0.06608452
C       -3.92283616      -0.63434705       3.81148221       0.00000000       0.00000000      -0.02137683      -0.04184509      -0.00364574      -0.06386517
C       -3.27909828       0.75580154       3.79661563       0.00000000       0.00000000      -0.01086274      -0.02893179      -0.01045477      -0.01574359
N       -3.53714973       1.51074923       2.57438130       0.00000000       0.00000000      -0.01440218       0.02377313       0.02696696      -0.04550954
C       -4.76036738       2.28738683       2.53920234       0.00000000       0.00000000       0.04692543      -0.03317873      -0.04196571      -0.07210262
C       -2.60013516       1.49808943       1.63469986       0.00000000       0.00000000      -0.01485550       0.03106400       0.00041349       0.26633102
O       -1.58330044       0.79014116       1.74801708       0.00000000       0.00000000      -0.00500546      -0.04668000      -0.00185435      -0.38609341
C       -2.76642114       2.41594579       0.41140427       0.00000000       0.00000000       0.03250551       0.00820745      -0.04757234      -0.07025029
C       -3.49155566       1.66920210      -0.74430417       0.00000000       0.00000000       0.01364196       0.05226684       0.05886943      -0.07136224
C       -2.64633945       0.77934893      -1.66923855       0.00000000       0.00000000      -0.03948963       0.01170824       0.01518169       0.06203485
O       -2.06591665      -0.36917610      -1.06198282       0.00000000       0.00000000       0.05728491      -0.01053261      -0.01028362      -0.24697004
C       -3.02286219      -1.43244133      -0.84666950       0.00000000       0.00000000      -0.02580431       0.01028675       0.02749455       0.06356097
C       -2.42553705      -2.79938285      -1.16744043       0.00000000       0.00000000      -0.00843699       0.00680601      -0.02774950      -0.07397850
C       -3.42754484      -3.91176508      -0.83303969       0.00000000       0.00000000       0.01167263      -0.01594018      -0.00498084      -0.06426541
C       -2.82335055      -5.32220283      -0.89676098       0.00000000       0.00000000      -0.01186449       0.00937756       0.01740480      -0.06605741
C       -2.27551250      -5.84985069       0.43493477       0.00000000       0.00000000      -0.02697545       0.01039781      -0.04983031      -0.05923552
C       -0.88305029      -5.34829932       0.79461518       0.00000000       0.00000000      -0.00777188       0.00596785      -0.01927276      -0.10984532
C       -1.34954808       2.85697865       0.03682529       0.00000000       0.00000000      -0.16167242      -0.06111040      -0.02807606       0.26399440
O       -0.50347918       1.97703600      -0.22514442       0.00000000       0.00000000       0.08513735      -0.07248185      -0.08231326      -0.38655447
N       -1.01139368       4.13900384       0.01559894       0.00000000       0.00000000      -0.02510142       0.16409025      -0.01290721      -0.04644998
C        0.37833580       4.45462053      -0.27359443       0.00000000       0.00000000      -0.03268567      -0.00992303       0.01789556      -0.07003201
C       -1.98105636       5.22813726       0.14945849       0.00000000       0.00000000       0.00034861      -0.03425083       0.00152273      -0.01423939
C       -1.38249494       6.62663847       0.02063413       0.00000000       0.00000000       0.05772948       0.00773224      -0.01956051      -0.07002037
C       -2.47557299       7.67668711      -0.16364965       0.00000000       0.00000000      -0.02982216       0.02600314      -0.01577958      -0.06893403
C       -3.35171637       7.87849553       1.07035876       0.00000000       0.00000000      -0.04693657       0.01083831       0.01737011      -0.06203338
C       -4.60262392       8.70204526       0.76257517       0.00000000       0.00000000      -0.02303313       0.00511347      -0.00322273      -0.06582407
C       -5.58162684       7.96052994      -0.15029501       0.00000000       0.00000000       0.01026246      -0.00121732       0.00301468      -0.05754986
C       -6.95850834       8.62114132      -0.22489775       0.00000000       0.00000000       0.00212850       0.00520408      -0.00604344      -0.05719576
C       -7.77949801       8.44209406       1.04617577       0.00000000       0.00000000      -0.00735149       0.00518389       0.00536014      -0.10522098
H        2.12936475      -1.12317728       4.73048031       0.00000000       0.00000000      -0.01570981       0.01198421       0.01092438       0.02055918
H        2.18844350      -1.77465914       6.37384455       0.00000000       0.00000000       0.00254509       0.01543706      -0.00741677       0.03982579
H        1.76691828      -0.08210237       6.11278777       0.00000000       0.00000000       0.00394251      -0.00636817       0.00185315       0.03143224
H        0.11647804      -2.48967787       5.21960586       0.00000000       0.00000000      -0.01172993      -0.00649615      -0.00504542       0.04810936
H       -0.29063954      -0.80281029       4.89644706       0.00000000       0.00000000      -0.00385059       0.02722523       0.00395944       0.01594182
H       -0.51752565      -0.37564362       7.32362359       0.00000000       0.00000000      -0.01803394      -0.00991668      -0.00488521       0.03206424
H        0.05507193      -2.00103517       7.67336549       0.00000000       0.00000000       0.00060855      -0.00147879       0.01192603       0.04093349
H       -2.29575529      -1.97700427       7.97798029       0.00000000       0.00000000       0.00330813      -0.02712171      -0.01279338       0.04356544
H       -1.94506913      -2.96826234       6.56536636       0.00000000       0.00000000      -0.01103913      -0.01077383       0.01529733       0.04228879
H       -2.58842728      -0.07343701       6.11979191       0.00000000       0.00000000      -0.00380493       0.01664615       0.01341104       0.03318615
H       -3.91193271      -1.10819781       6.62870043       0.00000000       0.00000000      -0.01858061       0.00766413      -0.01229804       0.03839672
H       -3.69166799      -2.55345099       4.73856262       0.00000000       0.00000000       0.03507212       0.00649745      -0.03176331       0.05056857
H       -2.17626437      -1.82209302       4.23490049       0.00000000       0.00000000      -0.00319648       0.04392510       0.02109875       0.04350762
H       -4.95171812      -0.57305326       4.16485234       0.00000000       0.00000000      -0.05689175       0.03517087      -0.01396659       0.04973301
H       -3.93584339      -1.02637684       2.79146246       0.00000000       0.00000000      -0.00431694      -0.00573991       0.00446720       0.03874963
H       -2.19873725       0.63989093       3.86995293       0.00000000       0.00000000       0.08185411      -0.01457885      -0.01394653       0.08684145
H       -3.62904218       1.36141979       4.63247605       0.00000000       0.00000000      -0.00711374      -0.03657187       0.02314500       0.07328520
H       -5.40603978       1.93884224       3.33959104       0.00000000       0.00000000      -0.02320634      -0.01161689       0.03166724       0.10115902
H       -5.30033291       2.16138939       1.60361920       0.00000000       0.00000000       0.02449610       0.00049339      -0.06612205       0.07357113
H       -4.56133750       3.34900705       2.70101192       0.00000000       0.00000000      -0.00190646       0.01453374       0.00906363       0.07127807
H       -3.38813434       3.26674219       0.68699540       0.00000000       0.00000000       0.04980440      -0.01673322       0.00954713       0.07635672
H       -3.96289652       2.41787194      -1.38561871       0.00000000       0.00000000       0.01091909      -0.00560225       0.00706644       0.07297271
H       -4.28556132       1.06185580      -0.30511153       0.00000000       0.00000000      -0.02109133       0.00040022      -0.01985297       0.06986770
H       -1.81541981       1.34454918      -2.09524801       0.00000000       0.00000000      -0.05039994      -0.03249564      -0.02690929       0.08996622
H       -3.30685521       0.46129322      -2.48787354       0.00000000       0.00000000       0.04992126       0.00078830      -0.04257805       0.06817518
H       -3.89220503      -1.26574928      -1.49393794       0.00000000       0.00000000       0.00693767      -0.01268843       0.04532033       0.05777925
H       -3.34396541      -1.40458636       0.20073331       0.00000000       0.00000000      -0.01460313      -0.03996764       0.05104305       0.06395525
H       -1.50390250      -2.93864364      -0.59950223       0.00000000       0.00000000      -0.01596317       0.06307508      -0.00505080       0.08500966
H       -2.18547140      -2.84358183      -2.23122374       0.00000000       0.00000000       0.04968894       0.00617416      -0.02561367       0.05328738
H       -4.25459820      -3.85234332      -1.54575707       0.00000000       0.00000000       0.02186428       0.02980879       0.04543906       0.04047338
H       -3.84322770      -3.74685640       0.16407079       0.00000000       0.00000000       0.05227603       0.00665888      -0.03398648       0.04427003
H       -2.03579464      -5.34329848      -1.65106055       0.00000000       0.00000000       0.00798210      -0.03937101      -0.02030820       0.04086244
H       -3.60533415      -6.00987403      -1.22375708       0.00000000       0.00000000       0.00841840       0.02829273       0.00700959       0.04807528
H       -2.23275152      -6.93866857       0.37337683       0.00000000       0.00000000      -0.01852453      -0.00570152       0.01328545       0.04387398
H       -2.96982199      -5.59347540       1.23658168       0.00000000       0.00000000      -0.01661231      -0.01970894      -0.00300069       0.03953089
H       -0.17270496      -5.63594221       0.02308854       0.00000000       0.00000000       0.02421961       0.01190346      -0.03786247       0.02652276
H       -0.56474724      -5.79256864       1.73337818       0.00000000       0.00000000       0.01980084      -0.01822181       0.02252349       0.04224482
H       -0.86258892      -4.27002265       0.91398303       0.00000000       0.00000000      -0.03592863       0.03360306       0.01805244       0.03865410
H        0.97652009       3.56370807      -0.09120998       0.00000000       0.00000000      -0.01241461      -0.03136300       0.00801115       0.09600536
H        0.71816038       5.25468318       0.37387199       0.00000000       0.00000000      -0.01404628       0.03179006       0.05128172       0.09168331
H        0.49810627       4.75663781      -1.31231735       0.00000000       0.00000000      -0.01535900      -0.00028861      -0.05607563       0.07887093
H       -2.47157840       5.14660929       1.12253605       0.00000000       0.00000000       0.01719905       0.01096296       0.03729925       0.05929825
H       -2.74142841       5.11085729      -0.63010528       0.00000000       0.00000000       0.01223128       0.01656677      -0.01357931       0.06593063
H       -0.73655049       6.66669982      -0.85322694       0.00000000       0.00000000       0.02852486       0.03284510      -0.05347594       0.05419979
H       -0.79273277       6.87711139       0.90169218       0.00000000       0.00000000       0.00620725      -0.01577470       0.03779918       0.05525347
H       -3.09068575       7.39034274      -1.01542909       0.00000000       0.00000000      -0.05377832      -0.02685726      -0.02092879       0.04438106
H       -2.00181852       8.62449638      -0.41683790       0.00000000       0.00000000       0.00446929       0.04765485       0.01671203       0.05546838
H       -2.76903792       8.37833038       1.84685334       0.00000000       0.00000000       0.00200646       0.00330042      -0.01965526       0.03851950
H       -3.67162923       6.91451367       1.47151481       0.00000000       0.00000000      -0.00737634      -0.01669962       0.00221096       0.02003685
H       -4.31248915       9.64475888       0.29706397       0.00000000       0.00000000      -0.01722442       0.00499764      -0.00323484       0.04203848
H       -5.09951829       8.93764754       1.70359322       0.00000000       0.00000000       0.00298862      -0.01228074       0.00387405       0.04688687
H       -5.70380307       6.93290336       0.20620690       0.00000000       0.00000000      -0.00158137       0.00222971       0.01643403       0.01967261
H       -5.17038590       7.91410359      -1.16095275       0.00000000       0.00000000      -0.01078983       0.00295901      -0.00532534       0.02397090
H       -7.50808686       8.17865960      -1.05848279       0.00000000       0.00000000      -0.00571961       0.00790305      -0.00920570       0.03382853
H       -6.83424435       9.68342439      -0.43836102       0.00000000       0.00000000      -0.01615417       0.01269391       0.00773219       0.04046409
H       -7.86798224       7.38659600       1.29759529       0.00000000       0.00000000      -0.00502894       0.00038767       0.00236689       0.02940386
H       -8.77968955       8.84102763       0.90370209       0.00000000       0.00000000      -0.00463803       0.01687396       0.00043896       0.04395122
H       -7.32966387       8.96098713       1.88821702       0.00000000       0.00000000       0.00982978      -0.00025888       0.00252968       0.03700283
N       -0.07865507      -1.68289441       2.15319619       0.00000000       0.00000000       0.07019865      -0.11479153       0.05225391       0.80168587
O        0.04325918      -2.62860114       2.86925276       0.00000000       0.00000000      -0.00833141      -0.03357059      -0.02407810      -0.40663764
O        0.62346762      -0.67525423       2.31001519       0.00000000       0.00000000      -0.07509171       0.05058976      -0.12871639      -0.44678121
O       -0.89008307      -1.70063818       1.22021062       0.00000000       0.00000000      -0.00174506       0.07550714       0.04372775      -0.42926003
