61
Properties=species:S:1:pos:R:3:initial_charges:R:1:initial_magmoms:R:1:forces:R:3:charge:R:1 energy=-2442.897564775228 free_energy=-2442.897564775228 dipole="0.4576405244797987 1.0532600665478222 -0.6365114097002768" pbc="F F F"
Er      -0.08705114      -0.21253432      -0.01386549       3.00000000       0.00000000       0.00661680       0.04131944       0.05446884       0.80592815
C        2.41232990      -0.62971544       2.23568386       0.00000000       0.00000000      -0.05625249       0.07555592       0.09396566      -0.00798083
O        1.01531440      -0.36408096       1.98828949       0.00000000       0.00000000      -0.00367143       0.00374040       0.00309846      -0.24149721
C        0.21106798      -0.50583600       3.18093947       0.00000000       0.00000000       0.08104908      -0.07931095      -0.05058660       0.03938975
C       -0.73860593       0.68513519       3.45873260       0.00000000       0.00000000      -0.07672654      -0.04511787       0.03412840      -0.03843254
N       -1.31890932       1.42613414       2.32717617       0.00000000       0.00000000       0.06309591       0.04801513       0.13876906      -0.02165813
C       -0.97625175       2.83795001       2.25424643       0.00000000       0.00000000       0.01638871       0.01438370      -0.01928941      -0.03827220
C        0.52395485       2.97733973       1.95724673       0.00000000       0.00000000       0.12146317      -0.06218069      -0.06988509       0.04633416
O        0.90535600       2.07618141       0.89495213       0.00000000       0.00000000      -0.05643058       0.00679778      -0.02145792      -0.25768667
C        2.27774280       2.31292519       0.53948122       0.00000000       0.00000000      -0.02364627      -0.01431105      -0.00722735       0.00316493
C       -2.00318015       0.76138164       1.39936443       0.00000000       0.00000000       0.03009128       0.08335907      -0.09561454       0.26410421
O       -1.86703090      -0.47142260       1.29345399       0.00000000       0.00000000      -0.04123618      -0.13856469       0.01173835      -0.37849836
C       -2.80770927       1.42238577       0.27050364       0.00000000       0.00000000       0.10070949      -0.03102199      -0.04851279       0.03342348
O       -1.85023254       1.38990365      -0.80877043       0.00000000       0.00000000      -0.03394738       0.03315370      -0.05396999      -0.24457583
C       -2.22216536       0.89347800      -2.11349112       0.00000000       0.00000000      -0.05999255       0.03321623       0.05011450       0.03912383
C       -1.20998425      -0.23623348      -2.35122483       0.00000000       0.00000000      -0.04974315       0.13746434       0.01049722       0.26428181
O       -1.26124799      -1.13864142      -1.48511184       0.00000000       0.00000000      -0.04767679      -0.12007123       0.04923223      -0.38282271
N       -0.28017323      -0.28252019      -3.30145091       0.00000000       0.00000000       0.08242676      -0.00628052      -0.05679871      -0.01990828
C        0.48151983      -1.52817394      -3.42409052       0.00000000       0.00000000       0.03521601      -0.06318100      -0.00331546      -0.03878158
C        1.79063294      -1.61267236      -2.62790587       0.00000000       0.00000000       0.02720927      -0.00452591       0.04064611       0.04102395
O        1.57720088      -1.54889553      -1.19769548       0.00000000       0.00000000      -0.00759073       0.06897131       0.01295656      -0.25141681
C        2.22856903      -2.65768134      -0.52914761       0.00000000       0.00000000      -0.02628148      -0.01155126       0.00750111      -0.01601255
C        0.20577652       0.87959816      -4.02267063       0.00000000       0.00000000      -0.05367326       0.00537099      -0.02169160      -0.04380396
C        1.14377534       1.68571044      -3.10306646       0.00000000       0.00000000      -0.00523853       0.05704998       0.05789941       0.04384914
O        0.52957918       1.93550603      -1.83370222       0.00000000       0.00000000       0.03341288      -0.02404155      -0.02914444      -0.27671310
C        0.05889641       3.29779858      -1.76092116       0.00000000       0.00000000      -0.00781213      -0.02368497      -0.01585231       0.00105681
H        2.56518109      -1.64510216       2.60986713       0.00000000       0.00000000      -0.02844206      -0.03345439      -0.02904138       0.10434801
H        2.80710284       0.06844777       2.97693713       0.00000000       0.00000000       0.03115487       0.03925132       0.04441730       0.10032733
H        2.94468616      -0.48762065       1.29387260       0.00000000       0.00000000       0.02261388      -0.04523211       0.01629753       0.10217681
H        0.87803540      -0.57551719       4.04238513       0.00000000       0.00000000      -0.00546221      -0.03349493       0.12942561       0.11775756
H       -0.34247356      -1.44999044       3.11032555       0.00000000       0.00000000      -0.07928837       0.03352367      -0.04354506       0.11685472
H       -0.22174893       1.42112428       4.06883832       0.00000000       0.00000000      -0.00186733       0.05232996       0.08214291       0.11813346
H       -1.56667225       0.27392514       4.04604598       0.00000000       0.00000000      -0.00274494       0.05974282       0.04940882       0.12790227
H       -1.20271522       3.34247530       3.19666585       0.00000000       0.00000000      -0.01720664      -0.01795806       0.04320982       0.12840782
H       -1.55536345       3.32214354       1.47047424       0.00000000       0.00000000      -0.01702794      -0.01737439      -0.02743525       0.10381321
H        1.13588357       2.75052854       2.84199331       0.00000000       0.00000000      -0.08134896       0.00255031      -0.02860452       0.08703822
H        0.74110061       4.01142705       1.66242100       0.00000000       0.00000000      -0.04812096      -0.00906697      -0.00733452       0.10423977
H        2.40429567       3.32708270       0.14989881       0.00000000       0.00000000       0.00371294      -0.02380481       0.02295851       0.09608368
H        2.54733337       1.58841849      -0.23413111       0.00000000       0.00000000      -0.00592292       0.03215057       0.04200845       0.08819776
H        2.93272140       2.19282718       1.40723962       0.00000000       0.00000000      -0.01565531       0.01960864      -0.00834969       0.08893967
H       -3.15956030       2.44439244       0.44902615       0.00000000       0.00000000       0.03597862      -0.03431245      -0.01234487       0.11448551
H       -3.67138424       0.77346112       0.07449723       0.00000000       0.00000000       0.03207525       0.03275506      -0.00884746       0.13360414
H       -2.22950078       1.71469552      -2.83696914       0.00000000       0.00000000       0.08910680      -0.03403891       0.05518820       0.11642089
H       -3.22148455       0.43972534      -2.09429659       0.00000000       0.00000000       0.03271175      -0.02966571      -0.01283128       0.13314662
H        0.72933769      -1.66952523      -4.47705372       0.00000000       0.00000000      -0.03996281       0.01191166      -0.06402524       0.12683426
H       -0.16900090      -2.35129608      -3.10623438       0.00000000       0.00000000      -0.03445287       0.05367055      -0.05867164       0.12540062
H        2.50779389      -0.83430344      -2.90815037       0.00000000       0.00000000      -0.03730263       0.01422102      -0.05057004       0.08735595
H        2.24033347      -2.57776874      -2.87553552       0.00000000       0.00000000       0.03027602      -0.01120234      -0.06101155       0.11879460
H        1.93780120      -3.60481129      -0.99272789       0.00000000       0.00000000       0.02871489       0.01211266       0.02494488       0.10238061
H        1.90157200      -2.65401084       0.51210616       0.00000000       0.00000000       0.04414904      -0.02737959      -0.02468144       0.12364614
H        3.31768215      -2.55769351      -0.58230967       0.00000000       0.00000000      -0.05357640       0.02930575      -0.02576978       0.10028772
H       -0.62282963       1.50707167      -4.35503608       0.00000000       0.00000000      -0.01659663      -0.07015255      -0.01800562       0.10773037
H        0.76627410       0.55631321      -4.90035173       0.00000000       0.00000000      -0.07686042      -0.00545353      -0.04733635       0.12405959
H        1.39086449       2.62588244      -3.60142997       0.00000000       0.00000000       0.07604131       0.00309440      -0.00773433       0.11030119
H        2.07243718       1.14246783      -2.90834399       0.00000000       0.00000000      -0.00903806       0.01736829      -0.05798963       0.07837257
H       -0.57183081       3.53439497      -2.62060769       0.00000000       0.00000000      -0.00943826       0.02401942       0.05338659       0.07913452
H        0.90083496       3.99549424      -1.74503045       0.00000000       0.00000000      -0.00226993      -0.06830646      -0.02399544       0.08680181
H       -0.51882044       3.40094487      -0.84631580       0.00000000       0.00000000       0.03881420       0.01158804      -0.02684590       0.09135618
O       -0.48470772      -2.62215906       0.65855989       0.00000000       0.00000000      -0.00624160       0.11914640       0.08000244      -0.49446593
H       -1.31255854      -2.76702964       1.14781316       0.00000000       0.00000000       0.05737277       0.03491951       0.01586059       0.36698426
H       -0.48943421      -3.33187574       0.00267125       0.00000000       0.00000000       0.01834504      -0.12692719      -0.08595035       0.35952864
