190
Properties=species:S:1:pos:R:3:initial_charges:R:1:initial_magmoms:R:1:forces:R:3:charge:R:1 energy=-7241.328860728134 free_energy=-7241.328860728134 dipole="-0.6977012900544317 -0.24871213351332488 -0.7103929765023754" pbc="F F F"
Pr      -0.16701054      -0.03694643      -0.14637108       3.00000000       0.00000000       0.03391982      -0.05270432       0.03986173       0.76181651
C       -5.22079978      -4.85339245      -7.76809559       0.00000000       0.00000000       0.00525656       0.00173683       0.02452180      -0.10910130
C       -5.11287790      -4.15766674      -6.41545539       0.00000000       0.00000000      -0.00006331      -0.02206212      -0.01894292      -0.05185712
C       -5.50023373      -2.67892915      -6.46351511       0.00000000       0.00000000       0.04367406       0.01584956      -0.02808828      -0.05993677
C       -4.48966941      -1.83007775      -7.23259649       0.00000000       0.00000000       0.01728363       0.08289743      -0.02558315      -0.06364362
C       -4.90266676      -0.36041693      -7.37505286       0.00000000       0.00000000      -0.01401053       0.02889039       0.02348522      -0.06957961
C       -5.13479284       0.40837878      -6.06953387       0.00000000       0.00000000      -0.03209666      -0.02842701      -0.00681568      -0.06461572
C       -3.88508901       1.04738058      -5.46716245       0.00000000       0.00000000      -0.05287972      -0.00371565      -0.01544110      -0.06195016
C       -2.82841255       0.03350551      -5.02337863       0.00000000       0.00000000      -0.02267236      -0.03750364       0.04530642      -0.01570236
N       -1.91629343       0.65824417      -4.07386508       0.00000000       0.00000000       0.03933762       0.00400525      -0.06100062      -0.04648711
C       -1.86739084       0.36221360      -2.77344969       0.00000000       0.00000000      -0.00942209      -0.07751762      -0.03984365       0.26331611
O       -1.04561198       0.91959231      -2.01222160       0.00000000       0.00000000       0.01400382      -0.08647685       0.02306520      -0.39923438
C       -2.74924622      -0.67804505      -2.10579884       0.00000000       0.00000000       0.06872917       0.02165921       0.08564919       0.07734635
C       -4.11568582      -0.92817633      -2.32273204       0.00000000       0.00000000       0.01163186      -0.02220244      -0.00731275      -0.03257257
C       -4.75123462      -1.84470293      -1.51356475       0.00000000       0.00000000       0.07809694      -0.09576878       0.03573910      -0.00718553
C       -4.05592686      -2.48058659      -0.46429923       0.00000000       0.00000000      -0.06828508       0.00324095      -0.03235760       0.02294327
C       -4.68171977      -3.36722394       0.45689010       0.00000000       0.00000000      -0.04644207       0.00572791       0.01962593      -0.02628203
C       -4.00889823      -3.84096077       1.53416884       0.00000000       0.00000000      -0.07927604       0.05482963       0.01454377      -0.02602431
C       -2.65239928      -3.48014122       1.78627341       0.00000000       0.00000000      -0.07023946       0.04176195      -0.01296319       0.02195911
C       -1.97011794      -3.92528243       2.93580453       0.00000000       0.00000000      -0.17142216      -0.00435248      -0.04787897      -0.00060960
C       -0.68318396      -3.49999044       3.14665292       0.00000000       0.00000000       0.05894525       0.01498803       0.04126587      -0.02790126
C       -0.11063468      -2.62208014       2.22511558       0.00000000       0.00000000      -0.03412512       0.00229804      -0.02380045       0.06037685
N       -0.71977921      -2.17068572       1.13781118       0.00000000       0.00000000      -0.09593268      -0.02881335       0.05655673      -0.15963607
C       -1.97810190      -2.60969116       0.89353680       0.00000000       0.00000000      -0.16121242       0.03654307      -0.07765143       0.08894371
C       -2.70204734      -2.11748583      -0.27120765       0.00000000       0.00000000      -0.02729342      -0.00801874       0.03876345       0.09334281
N       -2.10263927      -1.25297910      -1.09696209       0.00000000       0.00000000       0.01692137       0.04717744       0.03819400      -0.13366503
C       -1.10665254       1.71783218      -4.60834521       0.00000000       0.00000000       0.02303603       0.01795304       0.02744189       0.05578603
C       -0.78625644       2.84452817      -3.85290562       0.00000000       0.00000000      -0.03015701      -0.00787664      -0.02485567      -0.04099596
C       -0.04766304       3.87510000      -4.40524068       0.00000000       0.00000000      -0.02181417       0.04588696      -0.04908589      -0.04112928
C        0.36337195       3.84460941      -5.73245796       0.00000000       0.00000000       0.01920448      -0.01566872      -0.01183856       0.03161365
C        1.11842811       4.97775720      -6.34160562       0.00000000       0.00000000       0.01602371       0.01752130       0.00887212      -0.12320162
C        0.03543790       2.71843285      -6.48621564       0.00000000       0.00000000       0.07118838       0.13564642       0.03555829      -0.03486973
C       -0.66525042       1.66853373      -5.93123098       0.00000000       0.00000000      -0.04785815      -0.08149601      -0.05908555      -0.04191829
H       -5.04693495      -5.92130013      -7.65439686       0.00000000       0.00000000      -0.00802224       0.03472303      -0.01453988       0.04251192
H       -4.48945413      -4.46606440      -8.47399829       0.00000000       0.00000000      -0.03946531      -0.01367592       0.02330975       0.03832661
H       -6.21591208      -4.71106018      -8.18412605       0.00000000       0.00000000       0.04836087      -0.01902085       0.00240062       0.04809683
H       -4.09103520      -4.25220672      -6.03221398       0.00000000       0.00000000      -0.01316387      -0.00581060      -0.01656293       0.01377092
H       -5.77688235      -4.66153527      -5.71009444       0.00000000       0.00000000      -0.00904548      -0.02691606       0.00560526       0.03151370
H       -5.57938981      -2.31575194      -5.43436732       0.00000000       0.00000000      -0.02050468      -0.01754988      -0.00271854       0.00949629
H       -6.48114890      -2.57680689      -6.92951054       0.00000000       0.00000000       0.00406861      -0.01675148       0.01460431       0.04787483
H       -4.39716331      -2.22609222      -8.24438584       0.00000000       0.00000000       0.01842116      -0.02683945       0.03468457       0.05254144
H       -3.51018206      -1.91996325      -6.75555072       0.00000000       0.00000000      -0.02079924      -0.01075896      -0.02724738       0.01287485
H       -5.83304776      -0.33912449      -7.94519662       0.00000000       0.00000000       0.02695313      -0.00242348       0.00364262       0.05490081
H       -4.14946855       0.17106447      -7.96282219       0.00000000       0.00000000      -0.04815542      -0.04589085      -0.01667085       0.03861259
H       -5.59842931      -0.24906703      -5.33345465       0.00000000       0.00000000      -0.03689268      -0.00071948      -0.00075516       0.03704071
H       -5.84391607       1.21404430      -6.26575531       0.00000000       0.00000000       0.01903883       0.00722491      -0.02114096       0.05416435
H       -4.18046681       1.63267369      -4.59244026       0.00000000       0.00000000      -0.05140492       0.04629877      -0.01525669       0.03312270
H       -3.44023136       1.73738910      -6.18592375       0.00000000       0.00000000      -0.03814966       0.00803867       0.00467324       0.05497243
H       -2.27027438      -0.31529554      -5.89080055       0.00000000       0.00000000       0.06077673      -0.01580714       0.03100848       0.07886788
H       -3.28872085      -0.84006600      -4.56983108       0.00000000       0.00000000       0.01641831      -0.02831139       0.07693171       0.06292108
H       -4.67719392      -0.39064610      -3.07143378       0.00000000       0.00000000       0.00578055      -0.02038136       0.04910109       0.08610941
H       -5.80060311      -2.05983508      -1.65558619       0.00000000       0.00000000       0.02171200       0.00227148       0.00874499       0.08886792
H       -5.71774894      -3.62000552       0.29864915       0.00000000       0.00000000      -0.03307466      -0.05128806      -0.01561688       0.08442504
H       -4.50935666      -4.45661728       2.26543892       0.00000000       0.00000000       0.02234114      -0.11280995      -0.05970024       0.08435211
H       -2.46089109      -4.58069137       3.64390964       0.00000000       0.00000000      -0.01248848       0.05423871      -0.10626397       0.08897915
H       -0.12167313      -3.82510961       4.00970553       0.00000000       0.00000000      -0.02357078       0.03480121      -0.05697306       0.08114529
H        0.90044974      -2.27586760       2.39525938       0.00000000       0.00000000       0.04815570       0.03575618      -0.00809364       0.06002145
H       -1.13032735       2.94128720      -2.83572285       0.00000000       0.00000000       0.01468087      -0.00578164      -0.05991514       0.04706134
H        0.18343146       4.74094168      -3.79720322       0.00000000       0.00000000      -0.03994411      -0.06734499      -0.04271065       0.03635704
H        1.31624373       5.76166718      -5.61800321       0.00000000       0.00000000      -0.01315811       0.02070402       0.07245262       0.05408959
H        0.55146878       5.41305913      -7.16150373       0.00000000       0.00000000      -0.02685711      -0.02841952      -0.04587669       0.07991504
H        2.06765129       4.63670740      -6.74810289       0.00000000       0.00000000       0.01471558      -0.04796659      -0.04424364       0.06920981
H        0.32014701       2.67254057      -7.52882769       0.00000000       0.00000000       0.02993664      -0.01205072       0.10925872       0.06850840
H       -0.86848008       0.82081173      -6.56765379       0.00000000       0.00000000       0.01689368       0.01850162       0.06991513       0.05520717
C       -3.79194065       3.09133347      -1.79372498       0.00000000       0.00000000      -0.04271871       0.03635096      -0.00010250      -0.08373101
C       -5.13036399       3.82551481      -1.77506226       0.00000000       0.00000000      -0.01379723       0.00298824       0.01145003      -0.05778644
C       -6.34069564       2.91431921      -1.98898072       0.00000000       0.00000000       0.01439030       0.00446682       0.00757778      -0.06286090
C       -6.43278908       1.74696232      -1.00596737       0.00000000       0.00000000       0.00804514       0.01418867       0.00172078      -0.05872053
C       -6.43789076       2.18329993       0.45848003       0.00000000       0.00000000      -0.00788642      -0.02362964       0.02092718      -0.06115235
C       -6.63493158       0.99960249       1.40585544       0.00000000       0.00000000       0.03435703      -0.04945222       0.00766216      -0.06746873
C       -5.44302499       0.03234701       1.42958399       0.00000000       0.00000000       0.01015854       0.01720911      -0.00542031      -0.06164091
C       -4.41770859       0.28731695       2.53627609       0.00000000       0.00000000      -0.03546207      -0.02885762      -0.03162210       0.00209248
N       -3.63828827       1.52845570       2.39083702       0.00000000       0.00000000      -0.05813227      -0.09383184       0.03387335      -0.06096757
C       -2.60900647       1.47712591       1.53887743       0.00000000       0.00000000       0.03646355      -0.09981995      -0.11209173       0.26031875
O       -2.32589678       0.41152962       0.94376386       0.00000000       0.00000000       0.06674513       0.08741823       0.02985334      -0.41845511
C       -1.81365772       2.68669229       1.15243576       0.00000000       0.00000000       0.09894363      -0.05381094      -0.01228517       0.07221226
C       -2.23673968       4.01329196       1.31344336       0.00000000       0.00000000      -0.04964026       0.01196771      -0.00214248      -0.02738892
C       -1.49734562       5.00679487       0.71437331       0.00000000       0.00000000       0.05702809       0.05759464      -0.09352057      -0.00405356
C       -0.32829396       4.68670830      -0.00859944       0.00000000       0.00000000      -0.04710794       0.06372005       0.03089537       0.02264354
C        0.46566236       5.67084190      -0.66270485       0.00000000       0.00000000       0.01934015       0.04774600      -0.00983373      -0.02609151
C        1.57817900       5.32542559      -1.35538177       0.00000000       0.00000000      -0.05919072       0.00387798      -0.01456044      -0.02300615
C        1.98288184       3.96501257      -1.47905520       0.00000000       0.00000000      -0.05885514       0.00776932       0.04983809       0.02451012
C        3.10469820       3.59115718      -2.23946381       0.00000000       0.00000000      -0.01265528       0.05075721       0.00117841      -0.00219525
C        3.42566497       2.26134969      -2.33267157       0.00000000       0.00000000       0.03578049      -0.10420542       0.00917193      -0.02704224
C        2.63448582       1.32892439      -1.65561022       0.00000000       0.00000000      -0.00078411       0.05958103       0.00092273       0.06465611
N        1.57341185       1.64065087      -0.93067838       0.00000000       0.00000000       0.02590996       0.03649025      -0.02853264      -0.14373544
C        1.23385067       2.94586350      -0.84168750       0.00000000       0.00000000      -0.15360552       0.08620158       0.07619016       0.08419743
C        0.04953045       3.32211794      -0.08651978       0.00000000       0.00000000      -0.07093626       0.02413644      -0.02682110       0.08948941
N       -0.70361075       2.36702628       0.48143141       0.00000000       0.00000000      -0.05193453      -0.05506247      -0.00806450      -0.16212197
C       -3.60760949       2.28351176       3.60330778       0.00000000       0.00000000      -0.04583293      -0.02737111      -0.05763281       0.04174877
C       -2.46207163       2.18805559       4.38167413       0.00000000       0.00000000       0.03272685      -0.00940414       0.00611402      -0.04690462
C       -2.49202838       2.57737901       5.70541546       0.00000000       0.00000000       0.03479017       0.00883225      -0.01211650      -0.03514018
C       -3.66681696       3.04110744       6.28774336       0.00000000       0.00000000       0.08025266       0.02227768      -0.04299299       0.03866781
C       -3.73560636       3.33705430       7.74403586       0.00000000       0.00000000      -0.01271664      -0.00268832       0.00786000      -0.12606982
C       -4.79121890       3.18470573       5.47667400       0.00000000       0.00000000      -0.05197844       0.06872478       0.06239684      -0.03128031
C       -4.76727252       2.82770332       4.14458141       0.00000000       0.00000000      -0.02984606      -0.03877181      -0.06279199      -0.03989806
H       -2.98041400       3.81263061      -1.70794749       0.00000000       0.00000000       0.00819515      -0.02931980      -0.00290413       0.01724561
H       -3.66937445       2.54887346      -2.72938107       0.00000000       0.00000000      -0.00450394       0.03570374       0.02018253       0.02495582
H       -3.70369713       2.37890871      -0.97183897       0.00000000       0.00000000       0.00703959       0.02600792      -0.03268886       0.01289325
H       -5.12845180       4.57662229      -2.56778362       0.00000000       0.00000000       0.01691684      -0.01466170       0.02272532       0.04581498
H       -5.23853125       4.35637807      -0.82790693       0.00000000       0.00000000       0.01509341       0.00647483      -0.00909015       0.03535426
H       -6.31102751       2.51037705      -3.00416290       0.00000000       0.00000000      -0.00049304       0.01006670       0.00072527       0.03367942
H       -7.24378063       3.52116736      -1.90788516       0.00000000       0.00000000       0.01678262      -0.00063741       0.00002015       0.05163473
H       -5.59875809       1.06415738      -1.18746927       0.00000000       0.00000000      -0.02707433       0.00306355      -0.00125282       0.01279168
H       -7.35726389       1.20042940      -1.20628440       0.00000000       0.00000000       0.03308226       0.00265946      -0.01751382       0.04250994
H       -7.25876768       2.88650239       0.60287739       0.00000000       0.00000000       0.01421526       0.03523805       0.02240336       0.05213906
H       -5.50355545       2.69276469       0.70250091       0.00000000       0.00000000      -0.00891095      -0.00506594       0.01434979       0.02433451
H       -7.52534311       0.45345560       1.08950324       0.00000000       0.00000000       0.01987370       0.00598279      -0.00980895       0.05416831
H       -6.82973443       1.35812470       2.41808496       0.00000000       0.00000000      -0.00097808      -0.01476340      -0.02824559       0.04679085
H       -4.92813801       0.04900512       0.46824946       0.00000000       0.00000000       0.00250705      -0.00056112       0.04017910       0.03993925
H       -5.81344485      -0.98556015       1.58254042       0.00000000       0.00000000       0.06354848       0.07992409       0.04043892       0.04570217
H       -3.70567442      -0.54759205       2.53519866       0.00000000       0.00000000       0.01077342      -0.00894201       0.04879203       0.04820393
H       -4.91515076       0.32285958       3.50590492       0.00000000       0.00000000      -0.01760423       0.01275582      -0.03653518       0.07195178
H       -3.13609902       4.24435718       1.86704404       0.00000000       0.00000000       0.07038217      -0.03953703      -0.05911189       0.08185228
H       -1.82555939       6.03704997       0.76452194       0.00000000       0.00000000       0.08755290      -0.06797689       0.04257408       0.09218512
H        0.16365018       6.70300068      -0.60385674       0.00000000       0.00000000      -0.04733184       0.06937108       0.05698047       0.08731390
H        2.17700867       6.07506743      -1.84703778       0.00000000       0.00000000       0.01222341       0.05049374      -0.01058235       0.08707859
H        3.70349389       4.33726224      -2.74152467       0.00000000       0.00000000      -0.07785157       0.04074996       0.04081097       0.09087436
H        4.27695248       1.93484350      -2.90983946       0.00000000       0.00000000      -0.02954292      -0.00877583       0.02093193       0.08285800
H        2.89647707       0.27984421      -1.70079017       0.00000000       0.00000000      -0.02454385      -0.09688176       0.00191211       0.06677717
H       -1.58051048       1.72901560       3.95206873       0.00000000       0.00000000       0.03069909       0.01497581       0.06530959       0.01212824
H       -1.60628678       2.44950496       6.30562588       0.00000000       0.00000000       0.04523389       0.05609235       0.06970900       0.05485232
H       -2.79027740       3.14117315       8.23510254       0.00000000       0.00000000       0.11017755       0.00716600       0.02300393       0.06278724
H       -4.49542425       2.71823651       8.21157906       0.00000000       0.00000000      -0.11157951      -0.03523496       0.04853613       0.07787504
H       -4.01003937       4.37327420       7.91724623       0.00000000       0.00000000      -0.03428928       0.08788768      -0.01018550       0.08071769
H       -5.71558125       3.53037507       5.91416177       0.00000000       0.00000000       0.03781628       0.09851290      -0.02465776       0.07444153
H       -5.65603866       2.93325326       3.54071215       0.00000000       0.00000000       0.04339879      -0.04492845       0.00217417       0.06483415
C       -0.45747171      -6.18156005       1.16083026       0.00000000       0.00000000       0.02200301      -0.04897224      -0.02148982      -0.09350811
C       -0.49117789      -7.44545473       0.30759929       0.00000000       0.00000000      -0.01060705      -0.00255268      -0.01986688      -0.05742836
C       -1.75407832      -7.55278628      -0.54765412       0.00000000       0.00000000      -0.00580118       0.02411949      -0.00711032      -0.06446198
C       -1.94759730      -6.41663960      -1.55420133       0.00000000       0.00000000       0.02504431       0.01667540      -0.01894912      -0.05609896
C       -0.79314387      -6.31534120      -2.55241414       0.00000000       0.00000000      -0.00670848       0.02559134      -0.04607132      -0.06171548
C       -1.12241648      -5.40439214      -3.73722537       0.00000000       0.00000000       0.00247957       0.06361359      -0.00300085      -0.06741201
C       -1.04596796      -3.90379974      -3.40984886       0.00000000       0.00000000       0.00538099       0.00746114       0.03858823      -0.05796622
C        0.26519802      -3.20741956      -3.81071342       0.00000000       0.00000000      -0.07245236      -0.01658792      -0.03636957      -0.00281907
N        1.35617805      -3.31448710      -2.83463135       0.00000000       0.00000000      -0.06574598       0.01111389      -0.04254153      -0.05069874
C        1.28925599      -2.47465522      -1.79654770       0.00000000       0.00000000       0.04450832       0.01429566      -0.07161081       0.25490881
O        0.35871337      -1.64472014      -1.73228177       0.00000000       0.00000000       0.01489255       0.09159201       0.02357464      -0.39930444
C        2.28395404      -2.45822736      -0.67038732       0.00000000       0.00000000       0.02322159       0.03468490      -0.02921486       0.07274142
C        3.30927487      -3.39035792      -0.42595023       0.00000000       0.00000000      -0.04914474       0.05155290       0.02511051      -0.02984794
C        4.17394505      -3.14763132       0.61455395       0.00000000       0.00000000       0.02248760      -0.03129649       0.07152248      -0.00659728
C        3.98563296      -2.02932454       1.45033829       0.00000000       0.00000000       0.00708117       0.00006888       0.01645351       0.02034076
C        4.83212663      -1.74831759       2.55802664       0.00000000       0.00000000       0.03647579      -0.02926627       0.05430971      -0.02551157
C        4.55994937      -0.72151453       3.39915856       0.00000000       0.00000000      -0.03628072      -0.08139028      -0.01010665      -0.02398870
C        3.41467632       0.10341541       3.20937150       0.00000000       0.00000000       0.01621639      -0.04518714       0.05643861       0.02115291
C        3.08076052       1.11355755       4.12922099       0.00000000       0.00000000       0.00032086      -0.03019931      -0.04124030      -0.00177832
C        1.94531807       1.85081982       3.90902126       0.00000000       0.00000000       0.00161850       0.03808522       0.03931001      -0.02872570
C        1.15760340       1.55299805       2.79705952       0.00000000       0.00000000      -0.00253818      -0.04669552      -0.03522272       0.05951504
N        1.41914995       0.59792977       1.91769715       0.00000000       0.00000000       0.04440327       0.00493435       0.08236863      -0.16490291
C        2.55308990      -0.11787199       2.10756243       0.00000000       0.00000000       0.00848239      -0.14791708      -0.08456218       0.07644853
C        2.86653368      -1.19799922       1.19256851       0.00000000       0.00000000       0.05466203      -0.08663549      -0.01212617       0.07841899
N        2.06985165      -1.41486523       0.13293824       0.00000000       0.00000000      -0.03030742       0.04039870       0.01878327      -0.17172963
C        2.57396302      -3.86265810      -3.31148937       0.00000000       0.00000000      -0.05928824       0.03283174      -0.00809696       0.04101715
C        3.69841583      -3.04582402      -3.35991448       0.00000000       0.00000000       0.02805342       0.00316346      -0.01483753      -0.04627608
C        4.87793966      -3.53104490      -3.88432130       0.00000000       0.00000000       0.01603699       0.03445049      -0.01678285      -0.03546207
C        4.94941184      -4.81828349      -4.40768952       0.00000000       0.00000000       0.00944302       0.03023328       0.00661266       0.03823515
C        6.22007990      -5.35600315      -4.96201977       0.00000000       0.00000000       0.00628840       0.00407170      -0.02105954      -0.12635891
C        3.79501443      -5.59815127      -4.40916407       0.00000000       0.00000000       0.08266635      -0.08238485      -0.02393197      -0.03235809
C        2.61974521      -5.13931998      -3.85400530       0.00000000       0.00000000      -0.06427168      -0.04212020      -0.00547318      -0.04213727
H        0.40575693      -6.19453894       1.82324402       0.00000000       0.00000000      -0.00159465       0.00776719      -0.00623585       0.02852623
H       -1.35659378      -6.12753354       1.77286417       0.00000000       0.00000000       0.03823044      -0.01167077      -0.03078271       0.02968161
H       -0.40083898      -5.28244284       0.54480705       0.00000000       0.00000000       0.00402455      -0.03539511       0.02364559       0.00691951
H       -0.45514124      -8.31330245       0.96848817       0.00000000       0.00000000       0.00498594       0.01994185      -0.01200459       0.04893377
H        0.39170887      -7.48869059      -0.33238765       0.00000000       0.00000000       0.00410239       0.01903493       0.03569099       0.03582711
H       -2.62516190      -7.58567202       0.10954324       0.00000000       0.00000000      -0.01232558      -0.00541081       0.01589881       0.03725459
H       -1.72129162      -8.49642730      -1.09505940       0.00000000       0.00000000      -0.00023066       0.00553665       0.02155064       0.04935522
H       -2.07988252      -5.46562242      -1.02845723       0.00000000       0.00000000      -0.00554668      -0.02317039      -0.00755350       0.00830065
H       -2.86932183      -6.61457988      -2.10789018       0.00000000       0.00000000       0.02595863       0.01961661       0.03256512       0.03874834
H       -0.59310813      -7.31836055      -2.93321597       0.00000000       0.00000000       0.03681284       0.00741741       0.00715193       0.05112539
H        0.10582516      -5.95290347      -2.04776858       0.00000000       0.00000000      -0.01438069      -0.02401947      -0.01593335       0.02710700
H       -2.13328256      -5.64215148      -4.07541815       0.00000000       0.00000000       0.01122928       0.02174842       0.02848929       0.05163868
H       -0.46227831      -5.62936200      -4.57751994       0.00000000       0.00000000       0.02069525       0.03709214       0.03133505       0.04552090
H       -1.21390954      -3.74389203      -2.34255487       0.00000000       0.00000000      -0.00394073       0.00781037      -0.00416336       0.04411262
H       -1.85370816      -3.39158298      -3.94051092       0.00000000       0.00000000       0.09821889       0.00209868       0.00138402       0.03913177
H        0.05634705      -2.13703227      -3.92715623       0.00000000       0.00000000       0.02751412       0.01374709      -0.02695460       0.05939170
H        0.63017761      -3.59613541      -4.76067609       0.00000000       0.00000000       0.00262650      -0.05882007      -0.00323909       0.07557746
H        3.43527355      -4.27221880      -1.03537535       0.00000000       0.00000000      -0.07661338       0.08739516       0.02078255       0.08348647
H        4.99546494      -3.82434791       0.81102427       0.00000000       0.00000000      -0.06766991       0.06923899      -0.00057219       0.09097331
H        5.68130916      -2.38740248       2.73455264       0.00000000       0.00000000       0.05233010      -0.04097297      -0.02779549       0.08833598
H        5.17777203      -0.53558133       4.26185767       0.00000000       0.00000000       0.08418029       0.04191073       0.00122260       0.08955242
H        3.69617476       1.29000976       4.99742693       0.00000000       0.00000000       0.08216177      -0.02147971      -0.03496708       0.09188159
H        1.65066854       2.64049995       4.58268141       0.00000000       0.00000000       0.00047849      -0.02306794      -0.02444800       0.08149032
H        0.25986787       2.12845029       2.63330760       0.00000000       0.00000000      -0.09091380       0.04290962      -0.02909708       0.06189452
H        3.62563143      -2.02912194      -2.99799170       0.00000000       0.00000000       0.05049760       0.00536794      -0.01788648       0.01655825
H        5.74170040      -2.88695511      -3.92190427       0.00000000       0.00000000       0.06256345      -0.01554107       0.01677903       0.05858962
H        7.03127910      -4.64625672      -4.86238576       0.00000000       0.00000000       0.08363625       0.09594885       0.02694438       0.06373617
H        6.10405702      -5.59595032      -6.01398979       0.00000000       0.00000000      -0.02767552      -0.05740015      -0.11726041       0.08006165
H        6.49388295      -6.27216536      -4.44685886       0.00000000       0.00000000       0.02172336      -0.09026554       0.01737488       0.07706342
H        3.82051611      -6.57468033      -4.86648642       0.00000000       0.00000000       0.02697865      -0.05283214       0.07277818       0.07228701
H        1.74411076      -5.76845106      -3.83939856       0.00000000       0.00000000       0.01505550       0.02444789      -0.00234089       0.06653189
