358
Properties=species:S:1:pos:R:3:initial_charges:R:1:initial_magmoms:R:1:forces:R:3:charge:R:1 energy=-11292.076669817148 free_energy=-11292.076669817148 dipole="0.6884037426164832 -0.9584831220605923 -0.9220170604060475" pbc="F F F"
Pr       0.11624648      -0.48080355      -0.16425273       3.00000000       0.00000000       0.06283466       0.02025238       0.02650744       0.82012505
C       -8.33355003      -5.88872520      -3.28879208       0.00000000       0.00000000       0.00019831       0.00738093       0.01710125      -0.10711353
C       -8.51937465      -4.55168688      -2.57643895       0.00000000       0.00000000      -0.01761789      -0.02795630      -0.05045233      -0.05467086
C       -7.76724967      -4.52384307      -1.24570909       0.00000000       0.00000000      -0.02579757      -0.04362604      -0.06970594      -0.06144453
C       -7.80600905      -3.16531902      -0.55083493       0.00000000       0.00000000       0.00083939       0.02559620      -0.03096852      -0.06264863
C       -7.18751946      -3.23630939       0.84333718       0.00000000       0.00000000       0.02340937       0.04081514       0.05892739      -0.06379786
C       -6.94836662      -1.85990549       1.47961657       0.00000000       0.00000000       0.05598728       0.10993487      -0.00133422      -0.07301149
C       -5.73754921      -1.09202539       0.90097259       0.00000000       0.00000000       0.05172064       0.03010819       0.01199970      -0.07027550
C       -4.66649945      -0.65616777       1.91980887       0.00000000       0.00000000      -0.04087405      -0.01108671      -0.00550970      -0.02001059
N       -3.63097627      -1.66662905       2.12282389       0.00000000       0.00000000      -0.03129802       0.01922776       0.00770580      -0.05229487
C       -4.09254706      -2.90573564       2.74154537       0.00000000       0.00000000       0.00197887      -0.03026242      -0.00574019      -0.03586610
C       -4.26950925      -2.85378746       4.26994517       0.00000000       0.00000000      -0.02518260       0.00061619       0.00190204      -0.07361281
C       -3.09895122      -3.40596020       5.08898450       0.00000000       0.00000000       0.03472910      -0.02898256      -0.02044431      -0.06161747
C       -2.84681948      -4.88977844       4.82591333       0.00000000       0.00000000       0.04671169      -0.05539275       0.01915432      -0.06816857
C       -1.69604308      -5.46588602       5.65397569       0.00000000       0.00000000       0.01406854      -0.01218876       0.01544419      -0.05918375
C       -1.25586052      -6.84331662       5.14636329       0.00000000       0.00000000      -0.04300449       0.02555991       0.05630435      -0.06982218
C       -0.59067681      -6.80562404       3.75727714       0.00000000       0.00000000       0.01515991       0.03251922       0.10513157      -0.05368090
C       -1.42731030      -7.48178447       2.67847292       0.00000000       0.00000000      -0.00044159       0.01921656       0.01986031      -0.10857689
C       -2.40208315      -1.43625698       1.68530977       0.00000000       0.00000000      -0.09765561      -0.12194675       0.00067447       0.24806687
O       -2.02609896      -0.39184918       1.12098289       0.00000000       0.00000000       0.10020013      -0.07419653      -0.01172451      -0.38047373
C       -1.31927587      -2.51120242       1.90698685       0.00000000       0.00000000       0.03035065      -0.00298840       0.01995871       0.08111323
C       -1.25694609      -3.53559441       0.77392857       0.00000000       0.00000000       0.02091109      -0.01070155      -0.03916531      -0.12023284
O       -0.07466066      -1.81225206       1.87959388       0.00000000       0.00000000       0.03040943       0.00319219       0.02611667      -0.22910770
C        0.36084194      -1.35326186       3.16720742       0.00000000       0.00000000       0.00009102       0.01224043       0.00063692       0.09588704
C        0.95629581      -2.58948799       3.85161079       0.00000000       0.00000000      -0.02727067       0.01550207       0.01442753      -0.13095902
C        1.22809945      -0.09726636       2.88788398       0.00000000       0.00000000      -0.06722437      -0.02814518       0.04665979       0.26044331
O        1.16888991       0.37996793       1.73067332       0.00000000       0.00000000      -0.02165812       0.07856551       0.00716637      -0.40559562
N        1.91971737       0.49857439       3.85192402       0.00000000       0.00000000      -0.06448686      -0.12281794       0.06399952      -0.05273751
C        2.68067389       1.70998953       3.53676214       0.00000000       0.00000000      -0.08062176      -0.07500854       0.00313233      -0.01336562
C        4.15693732       1.67638902       3.97739728       0.00000000       0.00000000      -0.03322972       0.06352610      -0.12670313      -0.07366130
C        5.08480281       1.55353652       2.77037527       0.00000000       0.00000000       0.02729618       0.00841225      -0.05197161      -0.06770322
C        6.57485874       1.81919521       3.01966741       0.00000000       0.00000000      -0.00527302       0.07046186       0.02817431      -0.06392962
C        7.29031430       0.83612943       3.95007370       0.00000000       0.00000000      -0.03162938       0.03795447       0.02516905      -0.06393644
C        8.74054103       0.53074506       3.57358952       0.00000000       0.00000000      -0.04310742       0.01162657      -0.04730583      -0.06364961
C        9.46523544      -0.21398728       4.70686777       0.00000000       0.00000000       0.02202976       0.02369638       0.02928749      -0.06082272
C       10.02112100      -1.56887216       4.29052554       0.00000000       0.00000000       0.01222493      -0.00605866       0.02978255      -0.10560969
C        1.74002889       0.22595981       5.26881820       0.00000000       0.00000000      -0.06119297       0.00648864       0.12027469      -0.02736339
C        0.94795200       1.30573380       6.00982050       0.00000000       0.00000000      -0.07699356       0.05394792       0.08146172      -0.06822466
C        0.59883328       0.81010126       7.41689160       0.00000000       0.00000000      -0.02878604      -0.02246008       0.02235134      -0.07001572
C       -0.47772152      -0.28022890       7.47509096       0.00000000       0.00000000       0.00216926       0.01106039       0.04114793      -0.06429197
C       -1.90126726       0.27633060       7.32867046       0.00000000       0.00000000       0.01052410      -0.02933140       0.00956306      -0.06935239
C       -2.44718695       0.17666623       5.90021240       0.00000000       0.00000000      -0.01860053       0.01833287      -0.02335097      -0.05511034
C       -3.36982982       1.32620868       5.50371566       0.00000000       0.00000000      -0.07582931       0.02114704       0.01498609      -0.05397984
C       -4.67420071       1.32287494       6.28925241       0.00000000       0.00000000      -0.05082313       0.00684244       0.01437167      -0.10979078
H       -8.91990431      -5.92886783      -4.20472384       0.00000000       0.00000000       0.06947737       0.06043343       0.04137110       0.04594633
H       -8.65106257      -6.71483689      -2.65684711       0.00000000       0.00000000      -0.00082159       0.04539680       0.02998744       0.04386090
H       -7.28253808      -6.03406821      -3.53570274       0.00000000       0.00000000      -0.03755419      -0.04995539      -0.04012922       0.02822466
H       -9.58181399      -4.37932566      -2.39617477       0.00000000       0.00000000       0.03319209       0.00582153       0.00936490       0.04145388
H       -8.16126911      -3.75105598      -3.23086005       0.00000000       0.00000000       0.00561757       0.02461907       0.05948938       0.02079686
H       -6.72633412      -4.81113583      -1.42057791       0.00000000       0.00000000       0.02881785      -0.02371218       0.00772188       0.01901496
H       -8.20873516      -5.27196448      -0.58561043       0.00000000       0.00000000       0.01659623      -0.01254925       0.01364518       0.04246659
H       -8.83967015      -2.83258750      -0.47975199       0.00000000       0.00000000      -0.05992161       0.04724509       0.04638623       0.04546540
H       -7.26690355      -2.42750667      -1.14593925       0.00000000       0.00000000       0.02418554       0.05306018      -0.10786298       0.01845822
H       -6.25244688      -3.80084328       0.77496583       0.00000000       0.00000000       0.04151800       0.02922865       0.00648225       0.02076465
H       -7.85563287      -3.80401112       1.48953097       0.00000000       0.00000000      -0.04208614      -0.03200221       0.03207429       0.04791938
H       -6.83160611      -1.97444892       2.55930288       0.00000000       0.00000000      -0.02436865      -0.00706778      -0.02794850       0.04286895
H       -7.84773532      -1.26224297       1.33639084       0.00000000       0.00000000      -0.04462224      -0.00659398      -0.01374817       0.05578627
H       -6.08785684      -0.17972671       0.41618501       0.00000000       0.00000000      -0.02064103      -0.05913534      -0.00206210       0.05328352
H       -5.24740535      -1.70056350       0.13845854       0.00000000       0.00000000      -0.00242806       0.03719068       0.01047539       0.04166681
H       -5.12927051      -0.44746967       2.88769354       0.00000000       0.00000000      -0.02192263       0.04905514      -0.05871202       0.07480552
H       -4.15640440       0.24441810       1.56568448       0.00000000       0.00000000      -0.03951527      -0.06092832       0.01507240       0.08763298
H       -3.44851975      -3.74012872       2.48031810       0.00000000       0.00000000       0.09518089       0.03519249      -0.06706411       0.05901835
H       -5.06372918      -3.11382122       2.30128023       0.00000000       0.00000000       0.01187397       0.00146087      -0.01234048       0.09780324
H       -5.14999048      -3.44915898       4.51294094       0.00000000       0.00000000      -0.01009962      -0.00271315       0.04597501       0.06526218
H       -4.47976554      -1.82944255       4.57744079       0.00000000       0.00000000       0.00919280       0.02197994      -0.01407433       0.05299002
H       -3.32426809      -3.27486016       6.14937915       0.00000000       0.00000000      -0.04065873      -0.00865976      -0.03512950       0.05487934
H       -2.19001583      -2.83136628       4.89158367       0.00000000       0.00000000       0.03328078       0.04111529      -0.03338061       0.01124711
H       -2.62208876      -5.04922991       3.76967675       0.00000000       0.00000000      -0.01146351       0.00265828       0.00806868       0.02743564
H       -3.75464127      -5.44858236       5.05858876       0.00000000       0.00000000       0.01729573       0.00377735      -0.04528139       0.04910486
H       -2.01577790      -5.55520049       6.69338439       0.00000000       0.00000000       0.02102161       0.00815498      -0.01817736       0.04474123
H       -0.83357741      -4.79074543       5.64047512       0.00000000       0.00000000      -0.04463919       0.02141213      -0.03220496       0.01659338
H       -2.13103719      -7.49291663       5.11444621       0.00000000       0.00000000       0.02104534      -0.02421779      -0.01389039       0.05153159
H       -0.56769869      -7.27040307       5.87805685       0.00000000       0.00000000      -0.00972903       0.03437829      -0.06134243       0.04469174
H        0.37648981      -7.30617692       3.80296932       0.00000000       0.00000000       0.01960283       0.00186730       0.00265668       0.03747835
H       -0.39911299      -5.76700415       3.47047150       0.00000000       0.00000000       0.03002709       0.01975265       0.00674046       0.00924791
H       -1.53121770      -8.53770758       2.90412111       0.00000000       0.00000000      -0.03272643      -0.03554832      -0.02359600       0.05196343
H       -0.95287706      -7.38523025       1.70493747       0.00000000       0.00000000       0.03892379      -0.02711272      -0.04620484       0.02808135
H       -2.42081234      -7.04559871       2.62135066       0.00000000       0.00000000      -0.06569604      -0.00646048      -0.00648153       0.03056686
H       -1.45295272      -3.00084255       2.87372672       0.00000000       0.00000000      -0.01033618      -0.06727489      -0.01058653       0.08781467
H       -0.80427156      -3.06210421      -0.11593878       0.00000000       0.00000000       0.00225462       0.00224254      -0.04411946       0.12439188
H       -2.24228365      -3.91054391       0.51374239       0.00000000       0.00000000      -0.06804764      -0.00107798      -0.02215718       0.07965145
H       -0.63931944      -4.38091156       1.07138494       0.00000000       0.00000000       0.06032396      -0.02263361      -0.00850009       0.09355043
H       -0.51005193      -0.97151439       3.73109632       0.00000000       0.00000000       0.02517755      -0.03052234       0.01271530       0.06531372
H        1.52357873      -3.15541026       3.11507939       0.00000000       0.00000000       0.10079081       0.08705440       0.02391472       0.07930552
H        0.14709342      -3.23505206       4.18695968       0.00000000       0.00000000      -0.00806219      -0.01028789       0.08844849       0.06854564
H        1.57638867      -2.37757144       4.71109416       0.00000000       0.00000000       0.08258092      -0.04813016      -0.05950606       0.07612366
H        2.16343956       2.54715825       4.00834671       0.00000000       0.00000000       0.02009150       0.03918008       0.00566024       0.06927484
H        2.61283017       1.83494193       2.45442221       0.00000000       0.00000000       0.00574802       0.02990243       0.01770177       0.06959954
H        4.32665733       0.84973007       4.65683646       0.00000000       0.00000000       0.12164231       0.06441899       0.11790970       0.06607278
H        4.38472854       2.60720645       4.49109178       0.00000000       0.00000000       0.04587364       0.01237471       0.12395673       0.06295257
H        4.76027166       2.31937823       2.06276568       0.00000000       0.00000000       0.09410660      -0.11908660      -0.05492169       0.03921881
H        4.94701176       0.56596086       2.32313656       0.00000000       0.00000000       0.00998296       0.04030794       0.02578533       0.02443498
H        6.66181210       2.82629378       3.42843869       0.00000000       0.00000000       0.11599339       0.02698278      -0.02665811       0.04298210
H        7.08018283       1.81684024       2.04909343       0.00000000       0.00000000      -0.05083979       0.01088323       0.01107839       0.03188923
H        6.75168472      -0.10950886       3.96566283       0.00000000       0.00000000      -0.08543390       0.01849835      -0.00455341       0.03147608
H        7.29508408       1.24097327       4.96323534       0.00000000       0.00000000      -0.09065876       0.02589046      -0.05450239       0.04072625
H        9.26281766       1.45876469       3.35351539       0.00000000       0.00000000       0.00717072       0.11938141       0.00170290       0.03732305
H        8.77470843      -0.07476707       2.66594700       0.00000000       0.00000000      -0.07303265      -0.00836494      -0.06740671       0.02544522
H        8.78491229      -0.37379036       5.54411160       0.00000000       0.00000000      -0.00925807       0.03589511       0.04053191       0.03434176
H       10.27846903       0.41054976       5.07006198       0.00000000       0.00000000       0.08634027      -0.03021213       0.05157235       0.04354539
H        9.21418732      -2.27021078       4.07393122       0.00000000       0.00000000       0.06651481       0.03843672      -0.03656387       0.02430463
H       10.61835286      -1.97534870       5.10309790       0.00000000       0.00000000      -0.01971617      -0.06236773      -0.05361193       0.04723538
H       10.65785964      -1.47371769       3.41469442       0.00000000       0.00000000      -0.00195310      -0.02771013      -0.00658744       0.03962889
H        2.70417859       0.12182766       5.76983343       0.00000000       0.00000000       0.03812459       0.02386366      -0.13246157       0.08219382
H        1.21081377      -0.71089656       5.39011555       0.00000000       0.00000000      -0.02973453       0.06315873       0.01332984       0.06668079
H        0.03458723       1.54513675       5.46574244       0.00000000       0.00000000       0.00460882       0.05222293      -0.02196036       0.04671058
H        1.53709808       2.21870819       6.11620608       0.00000000       0.00000000      -0.00424948      -0.06304358      -0.06918190       0.05192183
H        0.24529858       1.66484775       7.99607444       0.00000000       0.00000000       0.05635284      -0.05616590       0.03235387       0.06207747
H        1.51091243       0.44808237       7.89650533       0.00000000       0.00000000      -0.00934045       0.00479308      -0.02959122       0.04634686
H       -0.38560917      -0.78200578       8.43855105       0.00000000       0.00000000      -0.03065885       0.06666390       0.03437534       0.05122069
H       -0.30866713      -1.04777717       6.71272419       0.00000000       0.00000000       0.00638512       0.04760583       0.07803044       0.01867270
H       -1.91272205       1.31597372       7.65771141       0.00000000       0.00000000       0.00403489      -0.01148311      -0.02354145       0.05043500
H       -2.56596043      -0.27746192       7.99086815       0.00000000       0.00000000      -0.01792012       0.04631343       0.01776159       0.04658131
H       -2.99895661      -0.75762117       5.80949280       0.00000000       0.00000000       0.02687028      -0.04268608      -0.06843992       0.03007277
H       -1.62134807       0.14570808       5.18394012       0.00000000       0.00000000       0.04035694       0.00127214      -0.01412073       0.00155610
H       -3.59452273       1.24317557       4.43567805       0.00000000       0.00000000       0.01495476       0.02039494      -0.01934445       0.01749021
H       -2.85732432       2.27820002       5.65893874       0.00000000       0.00000000       0.00440357      -0.01314976      -0.00147369       0.03370452
H       -5.19381259       0.37239828       6.17692259       0.00000000       0.00000000       0.01271122       0.01802623      -0.00770712       0.03195637
H       -5.32903733       2.11410968       5.93240979       0.00000000       0.00000000      -0.00181247      -0.00809016       0.03303986       0.04323660
H       -4.49069013       1.48244295       7.34780141       0.00000000       0.00000000       0.00366358       0.00712912      -0.01504278       0.04996953
C        5.03124932       5.00419769       1.21165312       0.00000000       0.00000000       0.04836461       0.00949050      -0.02160104      -0.11048427
C        3.65465881       5.07999537       1.85505876       0.00000000       0.00000000       0.01803441      -0.01524504       0.02136259      -0.05688802
C        2.63013900       5.75637336       0.95293868       0.00000000       0.00000000      -0.01474307       0.00230173      -0.01233503      -0.06362046
C        1.26238729       5.84686360       1.62354315       0.00000000       0.00000000      -0.04981227       0.02925841       0.02753159      -0.06418436
C        0.23604118       6.50608205       0.70749822       0.00000000       0.00000000      -0.05468717       0.04680118       0.00838317      -0.06612499
C       -1.13585693       6.72046807       1.36005989       0.00000000       0.00000000       0.00208732      -0.00285091      -0.00252197      -0.06963948
C       -1.95802704       5.45494886       1.65108663       0.00000000       0.00000000       0.08216524       0.02106489       0.02572117      -0.07043212
C       -2.92876939       5.01169350       0.54908369       0.00000000       0.00000000       0.06461680       0.00252152      -0.01285777      -0.01232149
N       -2.22905882       4.43828789      -0.60202923       0.00000000       0.00000000       0.04145547      -0.10254709      -0.03072167      -0.07627177
C       -1.87004626       5.37940611      -1.65396166       0.00000000       0.00000000       0.04265676      -0.00030724       0.04926636      -0.02247888
C       -2.96330788       5.61465854      -2.71117863       0.00000000       0.00000000       0.00699386       0.05685704       0.12204359      -0.07372713
C       -2.83072077       4.81280824      -4.00207495       0.00000000       0.00000000      -0.00521462      -0.01064724       0.03638387      -0.06270631
C       -1.48874465       5.03565896      -4.69997469       0.00000000       0.00000000       0.05240913      -0.00434264      -0.06822678      -0.06047398
C       -1.56646042       4.77401443      -6.20466929       0.00000000       0.00000000       0.06305755      -0.02979666      -0.03892020      -0.06338512
C       -0.19086689       4.70475580      -6.87743086       0.00000000       0.00000000       0.00126727      -0.00784524      -0.01735692      -0.06746888
C        0.62247511       3.46586570      -6.48450901       0.00000000       0.00000000      -0.04525156       0.02316308      -0.00841010      -0.04912055
C        1.78420255       3.22132229      -7.44328340       0.00000000       0.00000000      -0.04210120       0.00265294       0.03547985      -0.10885786
C       -1.88366422       3.14693415      -0.54499900       0.00000000       0.00000000       0.00784983      -0.01931698      -0.12039266       0.24759963
O       -2.32453229       2.33027030       0.25439921       0.00000000       0.00000000      -0.01379312       0.01344106       0.09981476      -0.43235630
C       -0.71783317       2.61243058      -1.42738335       0.00000000       0.00000000      -0.08511403       0.03915641      -0.01344046       0.08337803
C        0.49092791       2.70434689      -0.48701976       0.00000000       0.00000000      -0.05006248       0.00118489      -0.01605453      -0.13356904
O       -0.92501846       1.21276230      -1.69824187       0.00000000       0.00000000       0.01327750       0.03575800      -0.00167220      -0.23901235
C       -2.02514347       0.90812779      -2.58167085       0.00000000       0.00000000       0.01378834      -0.05947993      -0.01483346       0.09417432
C       -1.54406206       0.96325128      -4.03935576       0.00000000       0.00000000      -0.02163193       0.00778904       0.01838695      -0.12687626
C       -2.47152326      -0.52425440      -2.21151944       0.00000000       0.00000000       0.00430075      -0.04308293      -0.04533049       0.25915907
O       -1.73651657      -1.17948389      -1.44320947       0.00000000       0.00000000       0.05415690       0.07849127       0.07050137      -0.39037173
N       -3.58692968      -1.05091467      -2.70524412       0.00000000       0.00000000       0.04085133       0.00163264       0.02865795      -0.05551577
C       -3.94605564      -2.40574469      -2.28474646       0.00000000       0.00000000      -0.02367132       0.10244785       0.04135641      -0.01494506
C       -3.72801429      -3.46873239      -3.36302441       0.00000000       0.00000000       0.00702170       0.11876507       0.07783137      -0.06602568
C       -3.59416008      -4.84052472      -2.69828012       0.00000000       0.00000000      -0.01164863       0.03865655       0.04545416      -0.05938600
C       -3.75069318      -6.01099287      -3.66526638       0.00000000       0.00000000      -0.00196337      -0.01259406      -0.02518748      -0.06341880
C       -2.65977481      -6.15685455      -4.73140447       0.00000000       0.00000000       0.03885450       0.00134800      -0.05863229      -0.06231625
C       -1.43733651      -7.00191672      -4.35381997       0.00000000       0.00000000       0.05049350      -0.00627374      -0.00945731      -0.06944204
C       -0.34078634      -6.26765635      -3.56747973       0.00000000       0.00000000      -0.00004876       0.00791319       0.09236967      -0.05444580
C       -0.29023245      -6.68328990      -2.10150622       0.00000000       0.00000000       0.00299686       0.00515694       0.04662093      -0.10471436
C       -4.48301755      -0.45037434      -3.68192998       0.00000000       0.00000000       0.07674709      -0.01740596       0.01188417      -0.01872055
C       -5.93834408      -0.35991956      -3.21462573       0.00000000       0.00000000       0.04504041      -0.02240665      -0.03402138      -0.06753810
C       -6.73300771       0.56521583      -4.14084923       0.00000000       0.00000000      -0.01061741       0.00203087      -0.00809472      -0.06872031
C       -6.41637803       2.05974671      -4.02509652       0.00000000       0.00000000      -0.01281616      -0.00288346      -0.01004009      -0.06390844
C       -6.79680068       2.68340269      -2.67494915       0.00000000       0.00000000      -0.01176033      -0.04032895      -0.01054181      -0.06892881
C       -5.65179648       2.73897560      -1.66571478       0.00000000       0.00000000       0.01724429      -0.01166311      -0.02125056      -0.05307823
C       -6.08946141       3.21737272      -0.28098531       0.00000000       0.00000000       0.00167699       0.02456788      -0.00168344      -0.05609994
C       -6.49800189       4.68567877      -0.24350590       0.00000000       0.00000000      -0.02614462       0.03006076      -0.00406287      -0.10896437
H        5.74366428       4.52961982       1.87928006       0.00000000       0.00000000       0.03090823       0.01972488       0.03311702       0.04229831
H        5.39289070       6.00212635       0.98822683       0.00000000       0.00000000       0.02807558       0.04411971      -0.02428517       0.05214951
H        5.00587083       4.43629472       0.28385083       0.00000000       0.00000000      -0.04197944      -0.00313695      -0.04098757       0.02423853
H        3.72794056       5.63340062       2.79111037       0.00000000       0.00000000       0.00792057       0.03386953       0.01569695       0.04245406
H        3.30074683       4.07565973       2.09702980       0.00000000       0.00000000      -0.01292382      -0.03839770       0.01941618       0.01364085
H        2.54757095       5.19749448       0.01656311       0.00000000       0.00000000       0.01782926      -0.02382986      -0.04771699       0.01468638
H        2.97367072       6.75882365       0.69902844       0.00000000       0.00000000       0.01622431       0.02964274       0.02511113       0.04844890
H        1.35538434       6.43399231       2.53563920       0.00000000       0.00000000      -0.00236575       0.01935213       0.06801759       0.04620238
H        0.92783826       4.84502094       1.90735951       0.00000000       0.00000000       0.00387570      -0.01586171       0.03415002       0.01517917
H        0.15705982       5.91460417      -0.20645648       0.00000000       0.00000000      -0.02949792       0.02226796       0.03904155       0.01768065
H        0.61873536       7.48812694       0.42443966       0.00000000       0.00000000       0.01104752       0.00657269      -0.02096688       0.04822900
H       -1.73306103       7.39002216       0.73533959       0.00000000       0.00000000       0.03723166       0.01062480       0.05057388       0.04256050
H       -0.96544607       7.24940584       2.30099271       0.00000000       0.00000000      -0.00807756      -0.06115528      -0.03668497       0.05392042
H       -2.56300857       5.64768957       2.53854875       0.00000000       0.00000000      -0.00813468      -0.04389823      -0.03552442       0.05834568
H       -1.29840453       4.61645612       1.87770701       0.00000000       0.00000000       0.01932380       0.00300533       0.06656885       0.04082650
H       -3.53121935       5.85704705       0.22337640       0.00000000       0.00000000      -0.01371060      -0.00426108      -0.09794865       0.06943137
H       -3.58983492       4.25425953       0.97022008       0.00000000       0.00000000       0.02815219      -0.06774819      -0.08846106       0.07909713
H       -0.94532077       5.07638414      -2.13934546       0.00000000       0.00000000       0.00683373       0.04263455      -0.01476883       0.04711140
H       -1.68376020       6.33203386      -1.16443829       0.00000000       0.00000000      -0.00485366       0.02780983       0.00127091       0.08289267
H       -2.92246739       6.67023219      -2.97910602       0.00000000       0.00000000      -0.05865607       0.03032218      -0.02253011       0.06158893
H       -3.93922106       5.43001028      -2.26356168       0.00000000       0.00000000      -0.04709891       0.00587976       0.01569381       0.05267040
H       -3.63292355       5.13926962      -4.66265415       0.00000000       0.00000000      -0.02322470       0.01681735      -0.06902601       0.05660108
H       -2.98595795       3.74901471      -3.81643917       0.00000000       0.00000000       0.00909731      -0.10368852       0.05142865       0.01367248
H       -0.72843885       4.37914370      -4.26505427       0.00000000       0.00000000       0.00876784       0.05740327      -0.01263426       0.00714000
H       -1.16880736       6.06724673      -4.54274163       0.00000000       0.00000000       0.02795091      -0.02921438      -0.00628912       0.04523514
H       -2.14216772       5.57711244      -6.66883313       0.00000000       0.00000000       0.00983913      -0.05208089       0.02378278       0.04804903
H       -2.10400138       3.83827560      -6.38738878       0.00000000       0.00000000       0.03351957       0.00399011       0.00080441       0.02885268
H        0.38638404       5.60139239      -6.64086431       0.00000000       0.00000000      -0.06086933      -0.01750263       0.00895789       0.04223658
H       -0.34488533       4.69811531      -7.95830175       0.00000000       0.00000000       0.01689499      -0.05895829       0.03294823       0.05030935
H       -0.04049467       2.59283169      -6.48852595       0.00000000       0.00000000       0.06048865       0.00598204      -0.00557534       0.01707926
H        1.01960661       3.58942388      -5.47049818       0.00000000       0.00000000      -0.03753644      -0.01787013      -0.05057416       0.01083104
H        1.41159722       3.00663025      -8.44095915       0.00000000       0.00000000       0.00767175       0.04248367      -0.01107861       0.04840743
H        2.38821356       2.37475648      -7.12111635       0.00000000       0.00000000       0.00218838      -0.01455223       0.02464163       0.02124538
H        2.42743740       4.09578626      -7.49554738       0.00000000       0.00000000      -0.03024390      -0.00143841      -0.00396088       0.04851698
H       -0.55263995       3.14024517      -2.37202203       0.00000000       0.00000000      -0.05721529       0.04357231       0.01557413       0.06116197
H        0.20433100       2.19920809       0.45135888       0.00000000       0.00000000       0.08687586      -0.04777507       0.03329008       0.12583182
H        0.70038662       3.74571256      -0.24406844       0.00000000       0.00000000      -0.01960710      -0.00592070      -0.05530830       0.09908558
H        1.39989833       2.26301650      -0.90817339       0.00000000       0.00000000      -0.02841539      -0.04292746      -0.00927052       0.11332197
H       -2.85058077       1.60881991      -2.38454526       0.00000000       0.00000000       0.08434174      -0.04094941      -0.06138921       0.07511894
H       -0.73169321       0.25176135      -4.18685177       0.00000000       0.00000000       0.01484109       0.07275133       0.09754153       0.05975536
H       -1.20453205       1.96107037      -4.30899633       0.00000000       0.00000000       0.04349655      -0.00847092       0.06603515       0.07574544
H       -2.33533374       0.69907135      -4.72960144       0.00000000       0.00000000      -0.04878599      -0.00012160      -0.05668292       0.07230933
H       -4.99334766      -2.39446884      -1.97760341       0.00000000       0.00000000       0.06934852      -0.05107622       0.01781946       0.07354731
H       -3.31456572      -2.64257183      -1.42719557       0.00000000       0.00000000      -0.03943946       0.01196200       0.03890265       0.07003813
H       -2.82096794      -3.21241005      -3.90545784       0.00000000       0.00000000       0.07363774      -0.06669080      -0.08779080       0.03994187
H       -4.56126565      -3.47318189      -4.06549720       0.00000000       0.00000000      -0.00120622      -0.04249325      -0.00625544       0.05558893
H       -4.38776290      -4.92574552      -1.95016178       0.00000000       0.00000000       0.02833373      -0.02840492       0.02457506       0.03120162
H       -2.63572767      -4.89568071      -2.17909953       0.00000000       0.00000000      -0.01419484       0.00515317      -0.02721825       0.03584522
H       -4.70982151      -5.88636837      -4.16850205       0.00000000       0.00000000      -0.05502962      -0.00771350      -0.06083396       0.04060019
H       -3.81915139      -6.93242376      -3.08641455       0.00000000       0.00000000       0.06250893      -0.04246790      -0.01200243       0.04941065
H       -2.31812147      -5.17203518      -5.05665266       0.00000000       0.00000000      -0.05916517       0.00653470      -0.01535001       0.02491297
H       -3.12139187      -6.62689877      -5.60040656       0.00000000       0.00000000      -0.00571531      -0.04845252       0.00395197       0.04513144
H       -0.99894740      -7.36718314      -5.28149059       0.00000000       0.00000000      -0.00757495      -0.01978227      -0.06743359       0.04118268
H       -1.75313532      -7.87952371      -3.79048343       0.00000000       0.00000000      -0.06843295      -0.00273597      -0.01358726       0.05044513
H       -0.50709800      -5.18970241      -3.62560798       0.00000000       0.00000000      -0.01015966      -0.03054967      -0.00431234       0.01790881
H        0.63493097      -6.47193946      -4.01787844       0.00000000       0.00000000      -0.08574483       0.01468624       0.03517674       0.02964440
H       -1.24577792      -6.48706091      -1.61810050       0.00000000       0.00000000       0.04733642      -0.04957600       0.03516745       0.03163786
H        0.49039701      -6.13536580      -1.57334111       0.00000000       0.00000000      -0.02830182      -0.00313932       0.00068221       0.01948597
H       -0.07518880      -7.74618916      -2.01542576       0.00000000       0.00000000      -0.01207610       0.04859619      -0.00791740       0.04745037
H       -4.44543291      -1.05528078      -4.59483348       0.00000000       0.00000000       0.02882984       0.01959498       0.01647473       0.07306664
H       -4.13443288       0.54863784      -3.92313270       0.00000000       0.00000000      -0.06292089       0.05026584       0.06838154       0.06235911
H       -5.97711122      -0.00408357      -2.18555758       0.00000000       0.00000000      -0.04940211       0.01903296      -0.04136792       0.05303216
H       -6.39698778      -1.34838523      -3.24913473       0.00000000       0.00000000      -0.04241998       0.01218423      -0.01656024       0.05193343
H       -7.79341369       0.41968780      -3.93775941       0.00000000       0.00000000      -0.03469565       0.03520540       0.02592578       0.05975616
H       -6.56024628       0.24879049      -5.17254006       0.00000000       0.00000000      -0.00568919       0.00989814       0.00371665       0.04353259
H       -6.98571404       2.56387504      -4.80686694       0.00000000       0.00000000       0.00255427      -0.02879549      -0.01405094       0.05251783
H       -5.36058969       2.24378711      -4.24054368       0.00000000       0.00000000      -0.00917119       0.04136475       0.02870801       0.01950729
H       -7.62443991       2.11433958      -2.25061409       0.00000000       0.00000000      -0.04576933       0.03545257       0.03098426       0.04495924
H       -7.14695566       3.70249537      -2.84265038       0.00000000       0.00000000      -0.01121139      -0.04590166       0.01076527       0.04888363
H       -4.87764007       3.40829864      -2.04709378       0.00000000       0.00000000       0.02653689       0.02806014       0.00623686       0.01844161
H       -5.19584813       1.75318444      -1.55195095       0.00000000       0.00000000       0.01664307      -0.03547850       0.01319983       0.01084345
H       -5.25550718       3.05066865       0.40515280       0.00000000       0.00000000      -0.01675815      -0.00502237       0.03604295       0.02527377
H       -6.92859179       2.61108981       0.06707148       0.00000000       0.00000000       0.03046391      -0.02015859      -0.00876418       0.03523260
H       -5.77438043       5.31365964      -0.75907212       0.00000000       0.00000000       0.02275568      -0.03348331       0.00494007       0.02856771
H       -6.57419309       5.03210347       0.78377457       0.00000000       0.00000000      -0.01801133      -0.01832215       0.00985658       0.04207420
H       -7.46401944       4.83298210      -0.71524795       0.00000000       0.00000000      -0.02623623      -0.01364433      -0.03153526       0.04949586
C       -4.39762061       1.46965510      -9.15099003       0.00000000       0.00000000       0.00174172      -0.00146781       0.01664922      -0.10955486
C       -3.96474786       0.37372384      -8.18144631       0.00000000       0.00000000      -0.02740229       0.01976306      -0.05030498      -0.05224460
C       -2.46879322       0.07291936      -8.29342730       0.00000000       0.00000000      -0.07048807       0.02169017      -0.04011250      -0.06430704
C       -2.06405714      -1.16396386      -7.49393988       0.00000000       0.00000000      -0.01098465       0.05107285      -0.03315605      -0.06004973
C       -0.58043470      -1.48520293      -7.66698071       0.00000000       0.00000000       0.03107809      -0.02930189       0.01026073      -0.06358545
C       -0.15906258      -2.77015136      -6.95370444       0.00000000       0.00000000      -0.01521017      -0.06358198       0.15780046      -0.07013719
C       -0.29030385      -2.66296062      -5.42120535       0.00000000       0.00000000       0.00551568      -0.00774450       0.07037886      -0.06586107
C        0.96723178      -2.97272824      -4.59006184       0.00000000       0.00000000      -0.09767576      -0.01205514      -0.03209267      -0.01416334
N        1.78828474      -1.79731048      -4.31723642       0.00000000       0.00000000      -0.02861762      -0.05151525      -0.01936125      -0.05247571
C        2.63339786      -1.39019063      -5.42923522       0.00000000       0.00000000       0.02162743       0.02914470      -0.06447343      -0.02528315
C        3.91799640      -2.20811238      -5.60637415       0.00000000       0.00000000       0.02959863       0.01016852      -0.05228176      -0.07372720
C        5.10489701      -1.74505767      -4.76196284       0.00000000       0.00000000      -0.00281119       0.01281422      -0.02297673      -0.05959567
C        5.60316267      -0.33723313      -5.10912599       0.00000000       0.00000000       0.03593937      -0.02030142       0.02981827      -0.06501561
C        6.77978564       0.05396054      -4.21070105       0.00000000       0.00000000      -0.00906134      -0.00181543       0.01609323      -0.05670350
C        7.36210436       1.45640169      -4.43273056       0.00000000       0.00000000       0.01421004      -0.06202448      -0.02855886      -0.06823460
C        6.67206407       2.58815841      -3.66348752       0.00000000       0.00000000       0.06132504      -0.05989780      -0.01111881      -0.05671755
C        5.36257293       3.09382494      -4.25802417       0.00000000       0.00000000       0.03724082      -0.01288694       0.03207966      -0.10355635
C        1.65001144      -1.17470843      -3.15747720       0.00000000       0.00000000      -0.03984966      -0.05316526      -0.04067268       0.24792963
O        0.81697929      -1.52328449      -2.29081521       0.00000000       0.00000000       0.01432705      -0.01567396       0.09090463      -0.40238932
C        2.55151348       0.01684329      -2.80781193       0.00000000       0.00000000      -0.04344770       0.01178625      -0.03034329       0.08750510
C        1.97298516       1.32827546      -3.34050333       0.00000000       0.00000000       0.00903927      -0.00129047      -0.05108818      -0.13311327
O        2.59499081       0.06891411      -1.37744891       0.00000000       0.00000000       0.03846791      -0.05470174       0.00800075      -0.25456575
C        3.87287272      -0.26287723      -0.80885274       0.00000000       0.00000000       0.07241525       0.02275472       0.01091224       0.09456975
C        4.52549216       1.06324616      -0.42073556       0.00000000       0.00000000       0.02417277       0.03279297      -0.00955433      -0.13014854
C        3.64474093      -1.25990894       0.35374005       0.00000000       0.00000000       0.07470550      -0.08466868      -0.08585965       0.24818436
O        2.46680364      -1.58368071       0.59967989       0.00000000       0.00000000       0.05169983       0.02406157      -0.01485911      -0.40002288
N        4.70531841      -1.75990274       1.00598314       0.00000000       0.00000000      -0.01268455      -0.00203078       0.02142149      -0.06955453
C        4.46404059      -2.67644516       2.13141225       0.00000000       0.00000000      -0.02633628       0.01588609       0.01571626      -0.00996439
C        5.31053047      -2.48506835       3.42110217       0.00000000       0.00000000      -0.01376340       0.00949525       0.00131126      -0.07209652
C        4.42543498      -2.13121055       4.63334128       0.00000000       0.00000000      -0.03070379      -0.02504356       0.01266406      -0.06811015
C        5.02065331      -2.28331191       6.05615212       0.00000000       0.00000000      -0.02863721       0.01696261      -0.04327938      -0.06726566
C        5.85760582      -1.13240290       6.65794467       0.00000000       0.00000000      -0.04048978      -0.01539721      -0.07747902      -0.07318705
C        5.10605897      -0.04762554       7.45298564       0.00000000       0.00000000      -0.04031136      -0.04614558      -0.12869300      -0.05864883
C        6.00795608       1.15199594       7.78889518       0.00000000       0.00000000      -0.07182309       0.03504972      -0.07724069      -0.05909550
C        5.24223858       2.46143698       7.97091052       0.00000000       0.00000000      -0.02852635      -0.01097721       0.00029627      -0.10511977
C        6.08762054      -1.58390987       0.53514030       0.00000000       0.00000000       0.00266286      -0.04489226       0.02634969      -0.01231847
C        7.05501243      -2.74588673       0.82491788       0.00000000       0.00000000      -0.02296605      -0.00608651       0.00512067      -0.07000584
C        8.16955883      -2.89280890      -0.22200507       0.00000000       0.00000000      -0.02578801      -0.00161183       0.04140210      -0.06841387
C        7.75575852      -3.31215315      -1.63751318       0.00000000       0.00000000      -0.00472636      -0.00194845       0.03946567      -0.06307693
C        6.99671945      -4.64122367      -1.73577394       0.00000000       0.00000000      -0.00485982      -0.01986929       0.00489130      -0.06674599
C        5.47680418      -4.52512660      -1.62066212       0.00000000       0.00000000      -0.03667072       0.03058958      -0.00006269      -0.05392450
C        4.75949941      -5.83057383      -1.98474332       0.00000000       0.00000000      -0.01092802      -0.01255213      -0.00216017      -0.05782057
C        4.46305253      -5.93747796      -3.47466585       0.00000000       0.00000000      -0.00019059      -0.00250625      -0.02912336      -0.10247750
H       -5.45637005       1.68916166      -9.03024969       0.00000000       0.00000000       0.04715767       0.01094324       0.02004261       0.04358615
H       -4.23846834       1.15404207     -10.18005312       0.00000000       0.00000000       0.02899354       0.00530891       0.06284496       0.04797192
H       -3.83000627       2.38282940      -8.98149156       0.00000000       0.00000000      -0.02783249      -0.01174947       0.00195687       0.03627611
H       -4.53005843      -0.53319986      -8.41014236       0.00000000       0.00000000       0.02824308       0.01340878       0.05262488       0.03623573
H       -4.21120571       0.67332377      -7.15500957       0.00000000       0.00000000       0.03017611      -0.03259484      -0.06649762       0.01044829
H       -1.89408425       0.94198217      -7.95680684       0.00000000       0.00000000      -0.01824152      -0.04765163      -0.02571685       0.02503261
H       -2.22552568      -0.09812172      -9.34361054       0.00000000       0.00000000      -0.00464950       0.03720745       0.02051825       0.04796879
H       -2.65943891      -2.01232765      -7.83709557       0.00000000       0.00000000       0.04073267      -0.01249621       0.01267918       0.04223959
H       -2.29922623      -1.00094276      -6.43838432       0.00000000       0.00000000      -0.00724614      -0.03599715       0.01821567       0.00861635
H        0.02155399      -0.64574436      -7.30888323       0.00000000       0.00000000      -0.01068985       0.05659651       0.01752181       0.02207011
H       -0.37591546      -1.59999567      -8.72976395       0.00000000       0.00000000       0.00875202      -0.00035163      -0.07642337       0.05253622
H       -0.79636757      -3.58094027      -7.30669900       0.00000000       0.00000000       0.00151064      -0.01909657      -0.02493325       0.05457941
H        0.86064253      -3.03713865      -7.24019133       0.00000000       0.00000000      -0.03945918       0.04198924       0.01547043       0.04152961
H       -1.06368487      -3.35938144      -5.09066350       0.00000000       0.00000000       0.06230479       0.06200724      -0.03204241       0.04994364
H       -0.63076407      -1.65831067      -5.16101353       0.00000000       0.00000000       0.02631689      -0.06380703       0.04927863       0.03851551
H        1.58501623      -3.71048562      -5.10813508       0.00000000       0.00000000      -0.07105481       0.01704164       0.09557939       0.07708316
H        0.66207253      -3.36516610      -3.61661563       0.00000000       0.00000000       0.07466274      -0.02993094      -0.05406701       0.07634130
H        2.88855805      -0.33665287      -5.36650949       0.00000000       0.00000000      -0.04280352       0.05767810       0.06378797       0.05883231
H        2.02572979      -1.52386903      -6.32251089       0.00000000       0.00000000      -0.03326087       0.04624508      -0.05626010       0.09011328
H        4.19330977      -2.12761951      -6.65794354       0.00000000       0.00000000       0.07440520      -0.02527977      -0.02222460       0.06861958
H        3.72397516      -3.26257576      -5.40322399       0.00000000       0.00000000      -0.00917862       0.03115431       0.01676965       0.05393755
H        5.92134624      -2.44970846      -4.92852276       0.00000000       0.00000000       0.01264455       0.01907293       0.02824579       0.05809044
H        4.84428284      -1.80707986      -3.69859091       0.00000000       0.00000000       0.00779621       0.00872387      -0.02794954       0.00783284
H        4.79266723       0.38958220      -5.01754742       0.00000000       0.00000000       0.09272055      -0.00291495       0.04346450       0.02131042
H        5.93007808      -0.31557240      -6.15038772       0.00000000       0.00000000      -0.00665107      -0.04229609       0.04374788       0.05057421
H        7.57825461      -0.67244709      -4.38691209       0.00000000       0.00000000      -0.06926559       0.02326350       0.04661301       0.04264410
H        6.48431875      -0.03179191      -3.15803080       0.00000000       0.00000000       0.00389550      -0.03972759      -0.02282291       0.01127784
H        7.39040440       1.68428044      -5.49860175       0.00000000       0.00000000      -0.06821539       0.01329316       0.01213746       0.04939909
H        8.39703588       1.41739843      -4.08748705       0.00000000       0.00000000       0.00261833       0.06764287      -0.01845086       0.04591854
H        7.36035135       3.43335628      -3.62300470       0.00000000       0.00000000       0.01532456      -0.00293829      -0.00797500       0.04651472
H        6.50963649       2.25887627      -2.63274720       0.00000000       0.00000000      -0.01342246       0.02029671       0.01426802       0.01908077
H        5.51866604       3.45593601      -5.26999332       0.00000000       0.00000000       0.00377727      -0.02217452      -0.00332281       0.04904327
H        4.99114845       3.91905414      -3.65480776       0.00000000       0.00000000      -0.03648129       0.06250304      -0.02458241       0.03000843
H        4.59897591       2.32131152      -4.28273311       0.00000000       0.00000000       0.00433730      -0.03843207      -0.01826088       0.01534061
H        3.55163976      -0.13860249      -3.21923995       0.00000000       0.00000000       0.01145572       0.05386788       0.07959321       0.07512876
H        0.96105999       1.45829869      -2.96822358       0.00000000       0.00000000       0.04943876      -0.05797798      -0.05041803       0.08818364
H        1.94730548       1.31748024      -4.42596162       0.00000000       0.00000000      -0.03768424       0.03098036      -0.04683627       0.06869819
H        2.59039529       2.16885084      -3.02615114       0.00000000       0.00000000      -0.00831652      -0.04396951       0.00302285       0.07697670
H        4.47942737      -0.77706945      -1.56837665       0.00000000       0.00000000      -0.02675384       0.00697022       0.04768981       0.05216644
H        3.93481129       1.53303981       0.36063666       0.00000000       0.00000000      -0.02642674      -0.00332565      -0.07932805       0.07020411
H        4.53865732       1.72496451      -1.28536771       0.00000000       0.00000000      -0.02360935      -0.05149126      -0.04568051       0.07082942
H        5.54951806       0.95478247      -0.08217375       0.00000000       0.00000000      -0.06009029      -0.05902335       0.02967524       0.07213384
H        4.58872975      -3.69919190       1.76440386       0.00000000       0.00000000       0.04940686       0.00888213       0.01685529       0.05980030
H        3.40588513      -2.56576129       2.36181258       0.00000000       0.00000000      -0.05281127       0.10508395       0.06982470       0.07046986
H        6.08170137      -1.73144776       3.27432674       0.00000000       0.00000000      -0.12210368       0.01347293      -0.03005134       0.06103638
H        5.82338792      -3.42652305       3.62963258       0.00000000       0.00000000      -0.01920845       0.06828396       0.02590133       0.05676277
H        3.60103798      -2.84673776       4.59629394       0.00000000       0.00000000      -0.02335052       0.09647618       0.03374930       0.02915764
H        4.02536900      -1.12530030       4.49382934       0.00000000       0.00000000       0.01253675      -0.15221609      -0.01583889       0.02878823
H        5.63486944      -3.18558882       6.04581592       0.00000000       0.00000000       0.01692748       0.03263467       0.03347478       0.04643044
H        4.18110165      -2.48420180       6.73104843       0.00000000       0.00000000       0.10100856       0.04252094      -0.02298747       0.03633663
H        6.41437321      -0.64308571       5.86395119       0.00000000       0.00000000       0.01988408      -0.07436748      -0.01055377       0.04472073
H        6.58683453      -1.58418334       7.33263133       0.00000000       0.00000000      -0.00565579       0.05572099      -0.00610756       0.04666661
H        4.69321537      -0.47953357       8.36644298       0.00000000       0.00000000       0.02986065       0.01836315      -0.01556489       0.03571939
H        4.26164051       0.34252181       6.87525477       0.00000000       0.00000000       0.04365621      -0.12734804      -0.05738969       0.01409451
H        6.71010431       1.31214945       6.97034535       0.00000000       0.00000000       0.06039272      -0.09929618      -0.06051520       0.03149496
H        6.59668380       0.96323252       8.68211042       0.00000000       0.00000000       0.02178383      -0.13776676       0.06338722       0.04564636
H        4.56614795       2.62650823       7.13057739       0.00000000       0.00000000       0.01561645       0.02922776       0.05474853       0.01992580
H        5.95000283       3.28758109       8.00445659       0.00000000       0.00000000      -0.06261581      -0.01342177       0.03977028       0.04458938
H        4.66345194       2.48084510       8.89165400       0.00000000       0.00000000      -0.00302458      -0.10803917      -0.04653132       0.04132219
H        6.50719279      -0.67872925       0.98265728       0.00000000       0.00000000       0.00431318       0.02130085       0.00717456       0.06405578
H        6.04975633      -1.44431922      -0.54315679       0.00000000       0.00000000       0.06460602      -0.00235870      -0.04215966       0.05740400
H        6.53590982      -3.69846303       0.88680091       0.00000000       0.00000000      -0.04795906       0.04881242      -0.02691177       0.06057919
H        7.53803895      -2.57376811       1.78705494       0.00000000       0.00000000       0.00048277      -0.06665557      -0.01570754       0.05579536
H        8.84637441      -3.65760665       0.16421813       0.00000000       0.00000000       0.02521429       0.03811681      -0.02061462       0.05887881
H        8.74036557      -1.96330371      -0.29161695       0.00000000       0.00000000      -0.06327798       0.00302318       0.02532321       0.04108938
H        8.68286292      -3.42181478      -2.20256112       0.00000000       0.00000000       0.00318831       0.06272507       0.00279239       0.05066950
H        7.18420513      -2.51951858      -2.12622307       0.00000000       0.00000000      -0.04785605       0.00107808       0.00962076       0.02018361
H        7.37270658      -5.32463316      -0.97358112       0.00000000       0.00000000      -0.01672267      -0.01353476       0.02371282       0.04390208
H        7.22104431      -5.09331446      -2.70208323       0.00000000       0.00000000       0.00350056       0.01299641      -0.03875910       0.04594343
H        5.12815259      -3.73489768      -2.29011433       0.00000000       0.00000000      -0.03429331       0.04118721      -0.03075278       0.01404035
H        5.19279976      -4.23624847      -0.60907488       0.00000000       0.00000000      -0.00197620      -0.00200993       0.03663420       0.01482337
H        3.81506173      -5.89444689      -1.43912494       0.00000000       0.00000000      -0.01833018       0.01704045       0.01145144       0.02306742
H        5.37058685      -6.67781225      -1.67530928       0.00000000       0.00000000       0.02217631      -0.01146820       0.01853766       0.04620522
H        3.77489978      -5.14898447      -3.77642943       0.00000000       0.00000000      -0.02196724       0.01576165      -0.02377387       0.01538372
H        4.00731625      -6.89571794      -3.70639660       0.00000000       0.00000000      -0.01610933      -0.01737028       0.01626454       0.04464819
H        5.36960236      -5.84798179      -4.06544858       0.00000000       0.00000000       0.05060859       0.01181068       0.00821446       0.04328948
