448
Properties=species:S:1:pos:R:3:initial_charges:R:1:initial_magmoms:R:1:forces:R:3:charge:R:1 energy=-13875.738944978517 free_energy=-13875.738944978517 dipole="0.2167999123564034 1.6671944904074252 -1.052199085574085" pbc="F F F"
Pr      -0.00492167      -0.06874933       0.14122480       3.00000000       0.00000000       0.13110758       0.07275923       0.05646092       0.84649117
C       -0.30918221       1.38742343      -7.50707154       0.00000000       0.00000000      -0.01362005       0.00919372      -0.01483598      -0.10322394
C       -1.81552798       1.20744697      -7.67101706       0.00000000       0.00000000       0.01927674      -0.02795374       0.00970566      -0.05262147
C       -2.53172812       2.43329746      -8.24305182       0.00000000       0.00000000       0.01568721      -0.02909081       0.02448726      -0.06493904
C       -2.44951614       3.70155255      -7.38937440       0.00000000       0.00000000       0.00716207      -0.01217454       0.00130196      -0.06555346
C       -3.50675493       3.85386175      -6.28865822       0.00000000       0.00000000       0.00612487       0.01143520      -0.03829911      -0.06228071
C       -3.57400305       2.75790423      -5.21934317       0.00000000       0.00000000      -0.03620776       0.03262899      -0.05595809      -0.06483255
C       -2.27822596       2.49356354      -4.45254013       0.00000000       0.00000000       0.01550594      -0.00240757      -0.03330572      -0.06418896
C       -1.98855818       3.61060337      -3.45721640       0.00000000       0.00000000       0.04210284       0.01800621       0.06976817      -0.00218202
N       -0.60814678       3.61969815      -2.97662236       0.00000000       0.00000000      -0.00811115       0.04707132       0.06091284      -0.06749628
C        0.27092387       4.63592873      -3.55588542       0.00000000       0.00000000       0.04802836      -0.04465838       0.01047984      -0.01626780
C        0.44027104       4.49512865      -5.07049269       0.00000000       0.00000000      -0.04392148       0.01356563       0.02407009      -0.06475997
C        1.62150928       5.28724288      -5.64808156       0.00000000       0.00000000      -0.07520067       0.02763864       0.05507348      -0.06885958
C        1.55202511       6.82648347      -5.54915135       0.00000000       0.00000000      -0.00561016       0.02538423       0.00161620      -0.02978531
C        0.13518302       7.35670133      -5.79425721       0.00000000       0.00000000      -0.02537364       0.05582227      -0.00888805      -0.06357854
C        0.08823486       8.87185577      -5.99416961       0.00000000       0.00000000      -0.04579534       0.06770799      -0.03157547      -0.06182846
C       -1.25683060       9.35768847      -6.53571132       0.00000000       0.00000000      -0.06477422      -0.02158005       0.02103230      -0.05805973
C       -2.41500789       9.08843593      -5.57933641       0.00000000       0.00000000      -0.00012359       0.01169234      -0.01184925      -0.10184477
C        2.13994660       7.36570678      -4.23925246       0.00000000       0.00000000       0.03546862      -0.00538461       0.01228091      -0.06939236
C        3.65504403       7.19554768      -4.16072819       0.00000000       0.00000000       0.04378298      -0.00750075       0.00411996      -0.06185307
C        4.27117004       7.83679333      -2.91753074       0.00000000       0.00000000      -0.00813763      -0.00049962       0.01858201      -0.06472351
C        3.72005098       7.31317653      -1.59209841       0.00000000       0.00000000       0.00317706      -0.02963921       0.01506866      -0.06120402
C        3.85920888       5.80186252      -1.44006812       0.00000000       0.00000000       0.01157162      -0.01728991       0.01214086      -0.05108042
C        3.32951114       5.33611746      -0.08952932       0.00000000       0.00000000       0.01550888       0.02529825      -0.01656492      -0.10271423
C       -0.25763173       2.75582373      -2.03276520       0.00000000       0.00000000       0.02077174      -0.09640759      -0.03874887       0.24744619
O       -0.99888565       1.86530070      -1.57666092       0.00000000       0.00000000       0.01349383      -0.02323887       0.04566723      -0.40888109
C        1.14498449       2.83324857      -1.42547898       0.00000000       0.00000000       0.01949726       0.01066991      -0.05789681       0.03548721
O        1.11127191       2.28482697      -0.10887802       0.00000000       0.00000000      -0.06886933       0.01416239      -0.16954963      -0.23883396
C        0.75481413       3.24527453       0.87792452       0.00000000       0.00000000       0.02843574      -0.01770599      -0.03967722       0.04190499
C       -0.38707323       2.75862204       1.77329535       0.00000000       0.00000000      -0.01840001      -0.01739792       0.01855119       0.25982869
O       -0.79886178       1.58631831       1.66768675       0.00000000       0.00000000       0.02078573       0.02840328      -0.09551671      -0.38618354
N       -0.89525800       3.63677634       2.62908082       0.00000000       0.00000000      -0.03480948       0.03839614       0.08123713      -0.05271337
C       -2.02428682       3.25012411       3.48120409       0.00000000       0.00000000       0.00049008      -0.00419665      -0.00864074      -0.01207301
C       -3.32109692       3.00285847       2.70978570       0.00000000       0.00000000       0.02631707      -0.00646741       0.00600176      -0.06859177
C       -3.83824050       4.21596069       1.94194193       0.00000000       0.00000000       0.00248704      -0.02368242       0.01140727      -0.06492391
C       -5.10793962       3.90595019       1.15230696       0.00000000       0.00000000       0.01261364      -0.00385743       0.00142144      -0.06458996
C       -4.92622135       2.75936670       0.16390510       0.00000000       0.00000000       0.01056967      -0.00586608      -0.00885535      -0.05419110
C       -6.15318416       2.60803711      -0.72425515       0.00000000       0.00000000       0.00737336      -0.01556438      -0.01659644      -0.06621635
C       -6.12014413       1.34396854      -1.57711119       0.00000000       0.00000000      -0.01281391      -0.02070589      -0.00765301      -0.06066817
C       -6.38869367       0.08970826      -0.75027575       0.00000000       0.00000000       0.00615439       0.02403721       0.00806710      -0.10310724
C       -0.29036037       4.92848935       2.93604674       0.00000000       0.00000000      -0.00380680       0.06867465      -0.01529841      -0.02423058
C       -1.02896429       6.15075870       2.37502827       0.00000000       0.00000000       0.00164151      -0.01264029       0.01815222      -0.07547874
C       -0.95586721       6.23213150       0.85187732       0.00000000       0.00000000       0.02621426      -0.03000638       0.03632134      -0.05725158
C       -1.97315467       7.13460611       0.13907754       0.00000000       0.00000000       0.01451030      -0.02087274       0.01008429      -0.02536627
C       -1.83343180       6.82223039      -1.36008784       0.00000000       0.00000000      -0.02273684       0.01754432      -0.05239760      -0.05830917
C       -2.99801847       7.25162711      -2.24635563       0.00000000       0.00000000      -0.11256814      -0.01129093      -0.01153990      -0.06167342
C       -4.30536435       6.52140340      -1.94294107       0.00000000       0.00000000      -0.06860247      -0.01250470      -0.01789079      -0.05105334
C       -5.35575687       6.81207753      -3.01029181       0.00000000       0.00000000       0.02192440      -0.00674842       0.02190110      -0.10777774
C       -1.74985026       8.63228917       0.36337426       0.00000000       0.00000000       0.01741574       0.00332398       0.01310128      -0.06766084
C       -2.10752956       9.23005492       1.72615487       0.00000000       0.00000000       0.00604418       0.00053657       0.02298851      -0.06605872
C       -3.59822759       9.42761941       2.00718754       0.00000000       0.00000000      -0.04101072      -0.02352042       0.01046459      -0.06553375
C       -4.36094560       8.15845473       2.37812513       0.00000000       0.00000000      -0.08238270      -0.03222013       0.01897667      -0.05436494
C       -5.78040109       8.45766206       2.85698779       0.00000000       0.00000000      -0.05076641      -0.02465451       0.02204280      -0.05925923
C       -6.55540471       7.17877821       3.16632116       0.00000000       0.00000000       0.02045325       0.03542196      -0.00663858      -0.10359178
H        0.15144554       0.45896722      -7.17595695       0.00000000       0.00000000      -0.01821884       0.00059102      -0.03061162       0.02783185
H       -0.07281973       2.15252753      -6.77307398       0.00000000       0.00000000       0.00906368      -0.00359176      -0.01105804       0.01778687
H        0.14793971       1.68040195      -8.44630749       0.00000000       0.00000000      -0.02146719       0.00518877      -0.03378416       0.05082018
H       -2.24896467       0.92652214      -6.71103324       0.00000000       0.00000000      -0.00316499       0.00132417      -0.00930120       0.01802080
H       -1.98866789       0.37715324      -8.35811255       0.00000000       0.00000000      -0.03907760      -0.00922728      -0.01001834       0.03367694
H       -3.57897150       2.18465040      -8.42164689       0.00000000       0.00000000      -0.01758320      -0.01051641       0.01415086       0.03820733
H       -2.08100752       2.64208261      -9.21471682       0.00000000       0.00000000      -0.01196062       0.04512101      -0.00519031       0.04481740
H       -2.57286455       4.55819636      -8.05430221       0.00000000       0.00000000      -0.02805986       0.01352712       0.00239539       0.04223378
H       -1.44809319       3.77634115      -6.97312187       0.00000000       0.00000000      -0.00114020       0.01588166       0.00414033       0.03517546
H       -4.48577066       3.88616932      -6.76996838       0.00000000       0.00000000      -0.02220408       0.01133518       0.01823615       0.04794536
H       -3.35985547       4.82831994      -5.81509133       0.00000000       0.00000000       0.01909636      -0.01311270       0.01288944       0.02506665
H       -3.89325291       1.84201487      -5.70832409       0.00000000       0.00000000      -0.00110620      -0.03464634       0.00127725       0.05228459
H       -4.35219869       3.02850961      -4.50191442       0.00000000       0.00000000      -0.04538504       0.01321041      -0.00729778       0.03272178
H       -1.45027328       2.40237244      -5.14529740       0.00000000       0.00000000       0.05127895       0.03139072      -0.08820541       0.05959908
H       -2.34746721       1.54686025      -3.91213130       0.00000000       0.00000000      -0.03462068      -0.03457970       0.03938786       0.02503908
H       -2.64584526       3.48957679      -2.59459870       0.00000000       0.00000000      -0.03663578       0.02427409       0.10301932       0.05687689
H       -2.18415149       4.58033604      -3.90883039       0.00000000       0.00000000       0.00764507       0.01861947      -0.02840093       0.07977983
H        1.26323424       4.56081601      -3.12364439       0.00000000       0.00000000       0.02964052      -0.00547116       0.07672323       0.05270218
H       -0.13842405       5.62386040      -3.31906658       0.00000000       0.00000000      -0.03609451      -0.11835434      -0.02353720       0.07666527
H       -0.47350393       4.80644731      -5.56667396       0.00000000       0.00000000      -0.03553114       0.02577646      -0.04581611       0.06430769
H        0.61170605       3.44016474      -5.30136903       0.00000000       0.00000000       0.04845343       0.01433684       0.06143722       0.03237149
H        1.68571721       5.01952156      -6.70582734       0.00000000       0.00000000      -0.01200052       0.00448124       0.06829156       0.05103767
H        2.54060630       4.94168768      -5.16981652       0.00000000       0.00000000      -0.00970417       0.00735339      -0.07383060       0.03569615
H        2.17874996       7.21946078      -6.35520747       0.00000000       0.00000000       0.03939023      -0.02755707      -0.02772965       0.04747627
H       -0.50927739       7.09668135      -4.95383339       0.00000000       0.00000000      -0.03118304      -0.01126779       0.00989653       0.02218507
H       -0.26407740       6.88887113      -6.69618820       0.00000000       0.00000000      -0.00063099      -0.04421184      -0.00669342       0.03881534
H        0.86886725       9.16552029      -6.69551759       0.00000000       0.00000000       0.04359243      -0.00751801      -0.04416626       0.03892110
H        0.28265297       9.38312111      -5.05067595       0.00000000       0.00000000      -0.00950110       0.01185819       0.02216140       0.03276148
H       -1.45998186       8.87491270      -7.49409386       0.00000000       0.00000000       0.00339879       0.01924270       0.00240868       0.03560073
H       -1.19214074      10.43334196      -6.71426500       0.00000000       0.00000000       0.01439158      -0.05932530       0.00654854       0.04311091
H       -2.61303155       8.02110816      -5.49122567       0.00000000       0.00000000       0.00271001       0.03922253      -0.01700690       0.02073382
H       -3.32063203       9.56676520      -5.94242716       0.00000000       0.00000000       0.00358248      -0.00677431      -0.00276469       0.04253385
H       -2.19327934       9.48607783      -4.59027302       0.00000000       0.00000000      -0.00408331      -0.00463734      -0.02518254       0.03344266
H        1.65827220       6.88436640      -3.38926711       0.00000000       0.00000000       0.01948079       0.00340851       0.02732189       0.01865896
H        1.93342758       8.43260716      -4.17123575       0.00000000       0.00000000      -0.03014215       0.00226093      -0.02199458       0.04976276
H        4.10131267       7.66575699      -5.03691014       0.00000000       0.00000000       0.01460289       0.01590588      -0.03090383       0.04361113
H        3.92814784       6.14030481      -4.19408952       0.00000000       0.00000000       0.02508233      -0.03304370      -0.00663853       0.02224338
H        4.10311038       8.91298794      -2.95371568       0.00000000       0.00000000       0.01245171       0.03526324      -0.00470479       0.04605450
H        5.34970102       7.66942146      -2.93985110       0.00000000       0.00000000       0.00190376       0.01190302      -0.01052588       0.04025170
H        2.66961136       7.59188220      -1.48551039       0.00000000       0.00000000       0.00064236       0.01883510      -0.01954193       0.02895160
H        4.26768318       7.79208987      -0.77905227       0.00000000       0.00000000      -0.01171801       0.03228463       0.01461414       0.04097252
H        4.91199591       5.53335874      -1.53744160       0.00000000       0.00000000       0.02203766       0.01349489      -0.00283464       0.03661907
H        3.31632772       5.29303586      -2.24081837       0.00000000       0.00000000      -0.00923698       0.01849462       0.00728545       0.01638681
H        3.89718977       5.80060106       0.71163013       0.00000000       0.00000000       0.03074031       0.01874826      -0.01065761       0.04836777
H        3.40388209       4.25281835       0.01033086       0.00000000       0.00000000       0.00020993       0.02003543       0.01694154       0.01105003
H        2.28963007       5.64019647       0.02623429       0.00000000       0.00000000       0.00580859       0.00860807       0.01949058       0.01795336
H        1.54182036       3.84611653      -1.40100699       0.00000000       0.00000000       0.04715356       0.05456901       0.09419810       0.08013406
H        1.80711770       2.19710684      -2.02035575       0.00000000       0.00000000       0.03141648       0.01360850      -0.03714700       0.10571702
H        0.45571298       4.17197061       0.39412717       0.00000000       0.00000000      -0.03181592       0.11432420       0.02625052       0.08701062
H        1.64620943       3.42919933       1.48214383       0.00000000       0.00000000       0.06575352       0.02884161       0.13502699       0.08457751
H       -2.17757374       4.04793585       4.20777202       0.00000000       0.00000000       0.00493655      -0.02404695      -0.02412336       0.07921391
H       -1.75198352       2.33345431       4.01436011       0.00000000       0.00000000       0.01792032       0.00050586      -0.01250656       0.06534953
H       -4.07909312       2.68292688       3.42637152       0.00000000       0.00000000       0.01367291      -0.01985691       0.01981868       0.05596635
H       -3.14634687       2.19010342       2.00633734       0.00000000       0.00000000       0.06082411       0.02879164      -0.00768641       0.04707580
H       -3.06915990       4.54843249       1.24489964       0.00000000       0.00000000      -0.03411414      -0.00423638      -0.01038110       0.03807660
H       -4.05841048       5.02798157       2.63541688       0.00000000       0.00000000       0.02707620      -0.00019642       0.02396094       0.04995606
H       -5.40251449       4.80256904       0.60517772       0.00000000       0.00000000      -0.00867285       0.00952663      -0.01269480       0.04754584
H       -5.92377870       3.65887545       1.83335561       0.00000000       0.00000000       0.02784934       0.00661469       0.04457722       0.04292099
H       -4.77114278       1.83159081       0.71419733       0.00000000       0.00000000      -0.01788870      -0.01100559       0.01727738       0.01890696
H       -4.03585685       2.93068641      -0.44942824       0.00000000       0.00000000       0.02202279       0.03566059      -0.01610259       0.01414017
H       -6.24019774       3.48472960      -1.36595523       0.00000000       0.00000000       0.02416274       0.01900338      -0.03061498       0.04140743
H       -7.04098679       2.57983093      -0.09402896       0.00000000       0.00000000       0.00953900      -0.01616870       0.01594978       0.05108306
H       -5.15783636       1.28326808      -2.09545825       0.00000000       0.00000000      -0.01129018       0.00485049       0.02601684       0.00484239
H       -6.88663063       1.41695703      -2.34246622       0.00000000       0.00000000      -0.01353097       0.01641847      -0.02388361       0.06617946
H       -5.71157559       0.02826468       0.09830809       0.00000000       0.00000000      -0.04145405      -0.00302271       0.03188166       0.01425257
H       -6.28729810      -0.81631330      -1.34721431       0.00000000       0.00000000      -0.03359952       0.02954337       0.01638095       0.02450365
H       -7.40268793       0.11871842      -0.35835872       0.00000000       0.00000000       0.00795356      -0.00919434      -0.01288744       0.05395816
H        0.73807498       4.95342502       2.58313504       0.00000000       0.00000000       0.02521950      -0.02784459       0.04437136       0.05968609
H       -0.26889157       5.01154843       4.02709404       0.00000000       0.00000000       0.01196965       0.00750542      -0.05193802       0.07735875
H       -0.55246710       7.02432133       2.81742713       0.00000000       0.00000000      -0.00845641      -0.01719425       0.01005668       0.06875301
H       -2.06873076       6.13653587       2.69354079       0.00000000       0.00000000       0.00732151       0.00134842       0.01061113       0.06958987
H       -1.13769212       5.22569092       0.46244101       0.00000000       0.00000000      -0.01165747      -0.03323191       0.01532677       0.00844315
H        0.04889636       6.53963631       0.54935467       0.00000000       0.00000000       0.04836500       0.00337825       0.03080815       0.02392479
H       -2.96779210       6.84147189       0.46801923       0.00000000       0.00000000      -0.01915312       0.04308030      -0.00355260       0.04831300
H       -1.70347023       5.74223791      -1.48635783       0.00000000       0.00000000      -0.02347399      -0.02630483       0.01189377       0.00461698
H       -0.92310056       7.31018488      -1.71430880       0.00000000       0.00000000       0.06281364       0.02405192      -0.06718907       0.02693175
H       -2.72365760       7.05056909      -3.28567422       0.00000000       0.00000000      -0.00960537       0.03025603       0.01201566       0.03003360
H       -3.16746710       8.32396697      -2.16260191       0.00000000       0.00000000       0.01443664       0.01456376      -0.00628099       0.04722654
H       -4.69379018       6.84119751      -0.97460543       0.00000000       0.00000000       0.01571520       0.01243218      -0.01362866       0.03380399
H       -4.12705711       5.44214954      -1.88858484       0.00000000       0.00000000       0.02001374       0.02580736      -0.01846655       0.01445700
H       -5.54752122       7.88077279      -3.06512917       0.00000000       0.00000000      -0.01372810      -0.03070621      -0.00335068       0.04844517
H       -6.29194138       6.30760391      -2.77957286       0.00000000       0.00000000       0.03283733       0.01857907      -0.01660424       0.03909298
H       -5.01475876       6.47937161      -3.98953537       0.00000000       0.00000000      -0.02860998      -0.00505031       0.02703316       0.03272356
H       -2.32222290       9.18167872      -0.38451799       0.00000000       0.00000000      -0.01086183      -0.02090065      -0.02039819       0.05128908
H       -0.69345145       8.83187798       0.16496564       0.00000000       0.00000000       0.03801491       0.05720750       0.02881957       0.02991167
H       -1.63913152      10.21437113       1.76013683       0.00000000       0.00000000       0.00132490       0.06570236      -0.01494493       0.04381751
H       -1.67091452       8.64948602       2.53426069       0.00000000       0.00000000       0.00170616      -0.00477700       0.04782288       0.03076390
H       -4.07465685       9.90267940       1.14895049       0.00000000       0.00000000      -0.00879120      -0.00629205      -0.03097163       0.03977382
H       -3.68461593      10.11728124       2.84841270       0.00000000       0.00000000      -0.00704772       0.04214723       0.00075339       0.04256681
H       -3.82083257       7.63073431       3.16983756       0.00000000       0.00000000      -0.00488999       0.02110204       0.01717040       0.01663601
H       -4.43862911       7.49076582       1.51933063       0.00000000       0.00000000       0.00853213       0.00153973      -0.02639459       0.02202090
H       -6.30802301       9.02044962       2.08438363       0.00000000       0.00000000       0.00734376      -0.01116513       0.00679180       0.03841734
H       -5.74332674       9.08213954       3.75053051       0.00000000       0.00000000       0.01450156       0.00068143       0.00182523       0.03916932
H       -6.61955136       6.54428309       2.28191546       0.00000000       0.00000000      -0.01484221       0.03074909       0.04458540       0.02691902
H       -7.56543601       7.42031378       3.48905680       0.00000000       0.00000000       0.04875375      -0.02640453      -0.01301620       0.04625602
H       -6.06827485       6.61471798       3.96213640       0.00000000       0.00000000      -0.02519956       0.03254363      -0.03433149       0.02672603
C        0.40669891      -0.60269277     -10.23905363       0.00000000       0.00000000      -0.00950629      -0.01783924       0.00549400      -0.10722847
C        0.92898664      -1.75567905      -9.38631758       0.00000000       0.00000000       0.01266285       0.04860972      -0.01985014      -0.05351338
C       -0.05740701      -2.92955021      -9.32982977       0.00000000       0.00000000       0.04922179       0.04135321       0.00043867      -0.06699106
C       -1.05758742      -2.86941123      -8.16540673       0.00000000       0.00000000       0.01236116       0.03706990      -0.00060064      -0.06400693
C       -0.58468917      -3.54754534      -6.86816590       0.00000000       0.00000000      -0.00752485       0.01633903       0.00303310      -0.06563165
C        0.07098638      -2.61704591      -5.83948213       0.00000000       0.00000000       0.01034393       0.00041588      -0.00555224      -0.06110413
C       -0.87797810      -1.67375576      -5.08814234       0.00000000       0.00000000      -0.01530419       0.01292429      -0.01791352      -0.06391753
C       -1.82990214      -2.42425598      -4.15564085       0.00000000       0.00000000      -0.03732443       0.01053484       0.03351108      -0.00550004
N       -2.68113116      -1.56284031      -3.32779999       0.00000000       0.00000000       0.02134086       0.02437913       0.04615934      -0.06428038
C       -4.09852648      -1.45830500      -3.69260808       0.00000000       0.00000000      -0.00062216       0.00846245      -0.02124287      -0.02005506
C       -4.31496008      -1.02488365      -5.15107155       0.00000000       0.00000000       0.02057054      -0.00267076       0.01470989      -0.06747069
C       -5.63067310      -0.26324823      -5.41389068       0.00000000       0.00000000       0.05081703      -0.05069163       0.03430001      -0.07223071
C       -6.97729668      -1.03834164      -5.41792421       0.00000000       0.00000000       0.04106301      -0.01054219      -0.00432241      -0.03035896
C       -6.78048246      -2.55438603      -5.53534284       0.00000000       0.00000000      -0.03573120      -0.04487645       0.01894725      -0.06342366
C       -8.07658157      -3.33998134      -5.74165220       0.00000000       0.00000000      -0.04156903      -0.07068662      -0.03165150      -0.06137973
C       -7.82804774      -4.74333390      -6.30063158       0.00000000       0.00000000       0.04553589      -0.04950741       0.01950260      -0.05803542
C       -6.95580035      -5.60545338      -5.39245976       0.00000000       0.00000000      -0.01687195      -0.00304849      -0.00585370      -0.10202317
C       -7.86939349      -0.63259120      -4.23029913       0.00000000       0.00000000       0.00407487       0.00476716       0.00712917      -0.07161758
C       -8.51888800       0.74606354      -4.43172400       0.00000000       0.00000000      -0.00458613       0.01866369      -0.01761525      -0.06315361
C       -9.78965450       1.00653230      -3.60237872       0.00000000       0.00000000       0.00924815       0.00001129       0.02428785      -0.06627363
C       -9.62388532       1.73194482      -2.26281007       0.00000000       0.00000000       0.01359234       0.04444245       0.02589471      -0.06417516
C       -9.23378188       3.20856729      -2.37664752       0.00000000       0.00000000      -0.01393082       0.03509113       0.01040926      -0.05515440
C       -9.43114808       3.95456027      -1.05732620       0.00000000       0.00000000      -0.01539914      -0.03235878      -0.01948701      -0.10575304
C       -2.15667746      -1.05139921      -2.21928167       0.00000000       0.00000000       0.01264198       0.06519314       0.07662435       0.25857245
O       -0.93948702      -1.10085850      -1.94997205       0.00000000       0.00000000       0.04134308       0.05005819       0.05773449      -0.39754043
C       -3.09051430      -0.39263395      -1.19628523       0.00000000       0.00000000      -0.01020543      -0.00275279      -0.01350673       0.04321315
O       -2.39339395      -0.16980342       0.02771459       0.00000000       0.00000000      -0.03801592      -0.02845309       0.00612425      -0.21993965
C       -3.03401222      -0.62238828       1.21720182       0.00000000       0.00000000      -0.02005144      -0.03822539       0.06214072       0.04114021
C       -2.15304605      -1.68409013       1.89247578       0.00000000       0.00000000       0.01281033       0.01732279       0.06600602       0.25479454
O       -0.93769681      -1.64535986       1.61584318       0.00000000       0.00000000       0.09358159      -0.02509223      -0.05116608      -0.36918755
N       -2.67305698      -2.53654565       2.76233157       0.00000000       0.00000000       0.04200154      -0.00346075      -0.01058202      -0.04328159
C       -1.78665823      -3.51492120       3.40747727       0.00000000       0.00000000      -0.01599110      -0.00753763      -0.02697152      -0.01693576
C       -1.12396195      -4.51890317       2.46138607       0.00000000       0.00000000       0.00046707      -0.00872781      -0.03708286      -0.07264410
C       -2.10247464      -5.44937757       1.75398729       0.00000000       0.00000000      -0.01145898      -0.00855996      -0.00760705      -0.06568692
C       -1.46786580      -6.73096279       1.21527968       0.00000000       0.00000000      -0.00324992      -0.00720766      -0.00859966      -0.06291048
C       -0.35838373      -6.52015928       0.19301039       0.00000000       0.00000000       0.01817490      -0.01171222      -0.00126892      -0.06161735
C        0.00126039      -7.83592245      -0.49688295       0.00000000       0.00000000       0.03626932      -0.01790416      -0.03885336      -0.06598559
C        1.27525287      -7.75238460      -1.34111252       0.00000000       0.00000000       0.05191038      -0.00503033       0.00954651      -0.05570167
C        2.54147507      -7.85465143      -0.49399051       0.00000000       0.00000000      -0.02029463      -0.00740867      -0.00167676      -0.10809645
C       -4.05203146      -2.47450866       3.23128924       0.00000000       0.00000000      -0.01900433      -0.02723666      -0.02423371      -0.02281515
C       -4.96261945      -3.53296290       2.59455333       0.00000000       0.00000000       0.03150625       0.00455397       0.01162667      -0.07551720
C       -5.06255125      -3.37368813       1.07909505       0.00000000       0.00000000       0.00721628       0.01580375       0.04700025      -0.06267110
C       -5.39258650      -4.62463777       0.25161848       0.00000000       0.00000000      -0.00228876       0.02091403       0.02981562      -0.02535477
C       -5.22268218      -4.20655316      -1.22103995       0.00000000       0.00000000      -0.01016165      -0.01314232      -0.03538758      -0.05810053
C       -4.93951094      -5.33607047      -2.20510137       0.00000000       0.00000000       0.06544108      -0.06877270      -0.00990622      -0.06301096
C       -3.54406700      -5.93588800      -2.04608415       0.00000000       0.00000000       0.04012615      -0.04729254      -0.02274525      -0.04970764
C       -3.24211321      -6.93277278      -3.15956075       0.00000000       0.00000000      -0.00620809       0.01954243       0.01773884      -0.10743159
C       -6.81169053      -5.16073520       0.45520555       0.00000000       0.00000000      -0.01661960       0.00497726       0.00690598      -0.06780468
C       -7.18189248      -5.79187765       1.80087056       0.00000000       0.00000000      -0.01302907      -0.01063119       0.01188637      -0.06756108
C       -6.66309232      -7.20584355       2.07386663       0.00000000       0.00000000       0.02903608      -0.04190377      -0.00153755      -0.06601920
C       -5.19925663      -7.30696558       2.49644991       0.00000000       0.00000000       0.04750013      -0.06345823       0.02945831      -0.05461826
C       -4.86971164      -8.67991522       3.08352804       0.00000000       0.00000000       0.02720460      -0.03948001       0.02606082      -0.05948836
C       -3.39971841      -8.81199400       3.47598446       0.00000000       0.00000000      -0.05213927      -0.00970104      -0.01569866      -0.10609759
H        1.10968184       0.22832648     -10.23681144       0.00000000       0.00000000       0.00255709      -0.04219994      -0.00143750       0.03189556
H       -0.55005275      -0.24551528      -9.86909936       0.00000000       0.00000000      -0.01077575      -0.02783597      -0.02428477       0.03594534
H        0.26936292      -0.92405091     -11.26838505       0.00000000       0.00000000       0.02574628      -0.02322400       0.01273793       0.04349407
H        1.13665661      -1.39697995      -8.37603090       0.00000000       0.00000000       0.03667133       0.00208279      -0.02281431       0.01922360
H        1.87597031      -2.08778062      -9.81344473       0.00000000       0.00000000      -0.00569821      -0.06213405       0.00261628       0.03470648
H        0.49098881      -3.87076958      -9.28255520       0.00000000       0.00000000       0.00802435      -0.02118725       0.05250942       0.03633574
H       -0.60941490      -2.93787458     -10.27070591       0.00000000       0.00000000      -0.03495208      -0.02720037       0.02107220       0.04689233
H       -1.97211009      -3.36422129      -8.49187570       0.00000000       0.00000000      -0.03069013      -0.02778419       0.01809598       0.03672024
H       -1.30708484      -1.82921444      -7.96143744       0.00000000       0.00000000      -0.04687927       0.05197334      -0.02152912       0.03731867
H        0.13957148      -4.32097287      -7.12849757       0.00000000       0.00000000       0.00613419       0.00484823       0.01835021       0.04802251
H       -1.42753960      -4.05699215      -6.39960691       0.00000000       0.00000000      -0.01634147      -0.00372471       0.01639770       0.02798881
H        0.81776359      -2.01485233      -6.35707837       0.00000000       0.00000000       0.02446299       0.04237335       0.02810998       0.04604994
H        0.60198817      -3.22379066      -5.10132510       0.00000000       0.00000000      -0.00740099      -0.05058339       0.00654253       0.02255613
H       -1.44902936      -1.08312047      -5.79972354       0.00000000       0.00000000      -0.02320707      -0.00439362      -0.07190766       0.05787752
H       -0.28072440      -0.98787319      -4.48138325       0.00000000       0.00000000      -0.00758424       0.03922081      -0.00572867       0.02990702
H       -1.23179125      -3.04048146      -3.47807390       0.00000000       0.00000000       0.00171746      -0.01981066       0.03199281       0.06144734
H       -2.49151102      -3.06887826      -4.72846775       0.00000000       0.00000000      -0.01865117      -0.03067339      -0.02378177       0.07928118
H       -4.58150808      -0.71417928      -3.06464016       0.00000000       0.00000000       0.04933488      -0.00739401       0.02482667       0.06175390
H       -4.57139680      -2.42664316      -3.50648506       0.00000000       0.00000000       0.00700829      -0.00237295      -0.01808723       0.07171113
H       -4.24031392      -1.87583424      -5.82441931       0.00000000       0.00000000       0.00455620      -0.00297929       0.00932720       0.05980062
H       -3.50196381      -0.34154105      -5.40066478       0.00000000       0.00000000      -0.02390766       0.02468307      -0.01275933       0.04391049
H       -5.51090930       0.19899655      -6.39645180       0.00000000       0.00000000      -0.00711749      -0.02775917       0.04051988       0.04710217
H       -5.70481023       0.54526118      -4.68479123       0.00000000       0.00000000       0.01140453       0.01489638      -0.03556277       0.04108048
H       -7.51747588      -0.73629962      -6.32018594       0.00000000       0.00000000       0.01534693       0.00805564      -0.02914782       0.04570817
H       -6.28310092      -2.93737112      -4.64499525       0.00000000       0.00000000       0.02944589      -0.00866683       0.03744758       0.02190936
H       -6.14363778      -2.74720318      -6.40163826       0.00000000       0.00000000       0.00673804       0.01548629       0.01758895       0.03726674
H       -8.72046603      -2.80631808      -6.43969744       0.00000000       0.00000000      -0.01912665       0.06524080      -0.04115727       0.04009880
H       -8.61581963      -3.43279822      -4.79824390       0.00000000       0.00000000      -0.00550474      -0.00836730       0.02637537       0.03258081
H       -7.35583184      -4.66802926      -7.28298460       0.00000000       0.00000000      -0.01953595       0.01564581       0.01069180       0.03477636
H       -8.79081137      -5.24039932      -6.43740077       0.00000000       0.00000000       0.02923278       0.04901443       0.01207525       0.04283131
H       -5.93185152      -5.23486921      -5.36435320       0.00000000       0.00000000      -0.04319845      -0.01336894      -0.01050617       0.02045568
H       -6.92964030      -6.62915122      -5.75707422       0.00000000       0.00000000      -0.00105652       0.01607907      -0.00481270       0.04188435
H       -7.35304255      -5.61573631      -4.37898510       0.00000000       0.00000000      -0.00152780      -0.00053393      -0.02112570       0.03375191
H       -7.28514457      -0.66531252      -3.31187813       0.00000000       0.00000000      -0.02984013       0.00895134       0.05601381       0.02127829
H       -8.66965127      -1.36346257      -4.13418219       0.00000000       0.00000000      -0.02909820      -0.01780989      -0.02901944       0.04854325
H       -8.80509028       0.80711541      -5.48109711       0.00000000       0.00000000      -0.01875985       0.02340067      -0.06853778       0.03905849
H       -7.79624858       1.54438934      -4.25900380       0.00000000       0.00000000       0.01796094       0.02322752      -0.02651310       0.02388214
H      -10.27794252       0.05048653      -3.41045062       0.00000000       0.00000000      -0.03492698      -0.03747531      -0.01177450       0.03842035
H      -10.47877946       1.60007271      -4.20497582       0.00000000       0.00000000       0.01108653      -0.00214856      -0.02544971       0.04243350
H       -8.90140910       1.20766289      -1.63811090       0.00000000       0.00000000      -0.01658719      -0.02860020       0.02132063       0.02573365
H      -10.58322880       1.68867136      -1.74392573       0.00000000       0.00000000      -0.03956005      -0.03476654      -0.03033530       0.04051802
H       -9.85260824       3.68841797      -3.13572504       0.00000000       0.00000000      -0.01166284      -0.03460340      -0.03888390       0.04040858
H       -8.19249376       3.30784655      -2.69260389       0.00000000       0.00000000      -0.03490098      -0.01402962      -0.04012485       0.01712036
H      -10.48555798       3.99224380      -0.79759395       0.00000000       0.00000000      -0.00955294       0.01246614      -0.03044468       0.04428199
H       -9.05986710       4.97555377      -1.12894766       0.00000000       0.00000000      -0.03897018      -0.04055315      -0.03594281       0.03353381
H       -8.90842294       3.46176889      -0.24040767       0.00000000       0.00000000      -0.02373479      -0.01178892      -0.01709559       0.02599427
H       -3.96878332      -1.02091148      -1.04527504       0.00000000       0.00000000       0.00165147      -0.07871314       0.06773263       0.08511585
H       -3.40756645       0.58981914      -1.56412768       0.00000000       0.00000000       0.01886374       0.04141088      -0.08835044       0.10616051
H       -4.03796295      -0.98511412       1.01304190       0.00000000       0.00000000      -0.09822586       0.01244715      -0.04745554       0.08894693
H       -3.07660906       0.23044711       1.90736667       0.00000000       0.00000000      -0.05374469       0.05582454       0.06502176       0.10287098
H       -2.37360009      -4.05319661       4.15062310       0.00000000       0.00000000      -0.03581667       0.02570778      -0.00908228       0.07522444
H       -0.99525209      -2.95865902       3.91533381       0.00000000       0.00000000      -0.01678931      -0.00666733       0.00612666       0.08003982
H       -0.43443051      -5.11155178       3.06357988       0.00000000       0.00000000      -0.02005749      -0.00459207       0.05954297       0.05870477
H       -0.54043577      -3.97934689       1.72058584       0.00000000       0.00000000      -0.01429154       0.04004385      -0.03845893       0.06065063
H       -2.57342130      -4.90753020       0.93343350       0.00000000       0.00000000      -0.00733592      -0.02001387      -0.03053942       0.03212306
H       -2.87669727      -5.75464021       2.45573795       0.00000000       0.00000000      -0.00564077       0.00502394       0.04765641       0.04879310
H       -2.25352787      -7.33152689       0.75351034       0.00000000       0.00000000      -0.03417627      -0.00196138      -0.00868234       0.04158536
H       -1.06406385      -7.31160203       2.04614960       0.00000000       0.00000000      -0.00224462       0.02662269       0.03093487       0.04226958
H        0.51212495      -6.12864149       0.71148254       0.00000000       0.00000000       0.04003873      -0.02222834       0.01444095       0.02992090
H       -0.66672556      -5.78515904      -0.55568648       0.00000000       0.00000000      -0.04402610      -0.00994706      -0.00687255       0.01821136
H       -0.83409481      -8.13335289      -1.13094075       0.00000000       0.00000000      -0.02960307      -0.02843069      -0.02473143       0.03687894
H        0.13237528      -8.61348165       0.25668939       0.00000000       0.00000000      -0.00065065      -0.00652369       0.00636837       0.04643152
H        1.27327954      -6.81845576      -1.91352793       0.00000000       0.00000000      -0.00558836      -0.02342911       0.01422352       0.01267350
H        1.28460361      -8.57083906      -2.06195413       0.00000000       0.00000000      -0.03415958       0.00842001      -0.00086888       0.04457327
H        2.51657530      -7.15656288       0.33983545       0.00000000       0.00000000       0.00074930      -0.02376564      -0.01545715       0.02762272
H        3.42592386      -7.65241523      -1.09608528       0.00000000       0.00000000      -0.02689667      -0.03184652       0.01863164       0.03038901
H        2.63371583      -8.85725851      -0.08420504       0.00000000       0.00000000      -0.00063609       0.00571425      -0.02478484       0.05095800
H       -4.45934857      -1.47954765       3.05196728       0.00000000       0.00000000       0.03100502       0.01883486       0.02946295       0.05114935
H       -4.03886972      -2.63029843       4.31363820       0.00000000       0.00000000       0.02476385       0.01651119      -0.03212054       0.07914375
H       -5.94479648      -3.43333224       3.05494325       0.00000000       0.00000000       0.05543680       0.02432270       0.01763765       0.06690077
H       -4.57190389      -4.51975483       2.83063971       0.00000000       0.00000000      -0.01623346       0.00116929      -0.00671753       0.07154605
H       -4.07907396      -3.04762624       0.72852922       0.00000000       0.00000000       0.00398766      -0.00276951      -0.02128620       0.01293760
H       -5.79814895      -2.60229708       0.83561350       0.00000000       0.00000000       0.00931368       0.03937952       0.02933497       0.02897644
H       -4.66503141      -5.39714765       0.49350657       0.00000000       0.00000000      -0.04453571      -0.04243806      -0.00999682       0.04806419
H       -4.39682183      -3.48952182      -1.30216884       0.00000000       0.00000000       0.03452603      -0.00583023       0.00684484      -0.00109142
H       -6.13477679      -3.68968396      -1.52354927       0.00000000       0.00000000      -0.05343398       0.05050158      -0.07108882       0.03080319
H       -5.02764245      -4.93923064      -3.21964297       0.00000000       0.00000000      -0.02511825      -0.02304651       0.01135032       0.03117785
H       -5.68200822      -6.12580730      -2.10099304       0.00000000       0.00000000      -0.01183077      -0.00326609      -0.00066458       0.04819131
H       -3.46670959      -6.44779283      -1.08641747       0.00000000       0.00000000      -0.01623073       0.00543697      -0.01279599       0.03658224
H       -2.79398187      -5.13571750      -2.05417175       0.00000000       0.00000000      -0.03940443      -0.00749343      -0.02707387       0.00768479
H       -3.97075162      -7.73952515      -3.14685546       0.00000000       0.00000000       0.03050965       0.00679582      -0.00633130       0.04820325
H       -2.25011808      -7.36234096      -3.03544646       0.00000000       0.00000000      -0.03113255       0.01471905      -0.01965977       0.03769339
H       -3.29068008      -6.44995834      -4.13405679       0.00000000       0.00000000       0.01601750      -0.01865015       0.01754692       0.03210311
H       -7.00687950      -5.90630826      -0.31648215       0.00000000       0.00000000       0.01347226      -0.01033645      -0.02753983       0.04866730
H       -7.49639620      -4.32819081       0.27411297       0.00000000       0.00000000      -0.06681379       0.00873711       0.02792716       0.03153557
H       -8.27087645      -5.84820637       1.81346879       0.00000000       0.00000000      -0.06810227      -0.02695080      -0.01404591       0.04412447
H       -6.89638669      -5.14592527       2.62583653       0.00000000       0.00000000      -0.01656615      -0.00181969       0.03282726       0.03351440
H       -6.82954634      -7.83459559       1.19945175       0.00000000       0.00000000      -0.01260943      -0.01757940      -0.05226373       0.03913980
H       -7.26302685      -7.61865151       2.88660646       0.00000000       0.00000000      -0.04372160      -0.01215724       0.00219681       0.04256807
H       -4.98996112      -6.55139631       3.25927732       0.00000000       0.00000000      -0.02932768      -0.00850258       0.01227071       0.01617551
H       -4.54387379      -7.12830416       1.64317403       0.00000000       0.00000000      -0.02091221      -0.00738408      -0.02381568       0.02340208
H       -5.11504565      -9.45444170       2.35481937       0.00000000       0.00000000      -0.00723806       0.00946075       0.00064114       0.03824797
H       -5.49133042      -8.84869036       3.96409026       0.00000000       0.00000000      -0.01437886       0.00450396       0.00490367       0.03818851
H       -2.76333257      -8.76842071       2.59512820       0.00000000       0.00000000      -0.03277050      -0.01731737       0.03581346       0.03277197
H       -3.22687434      -9.76648611       3.96761504       0.00000000       0.00000000      -0.02084233       0.04484205      -0.00070356       0.04519897
H       -3.10373962      -8.01542684       4.15976800       0.00000000       0.00000000      -0.03888517      -0.05663729      -0.02435519       0.02526761
C        2.81900370       6.88932535       3.51643592       0.00000000       0.00000000      -0.00424592       0.00251123       0.00423410      -0.10239302
C        2.48982709       6.50282171       4.95517210       0.00000000       0.00000000      -0.02847176      -0.00220249      -0.04988402      -0.05675638
C        3.72508176       6.14954889       5.78577602       0.00000000       0.00000000      -0.05345141       0.00824874      -0.02688383      -0.06654620
C        4.50413199       4.90968721       5.32868230       0.00000000       0.00000000      -0.01454924       0.02495084      -0.01823401      -0.06434359
C        4.01122782       3.56527913       5.87827740       0.00000000       0.00000000       0.01835374       0.02193614      -0.01728849      -0.06592340
C        2.74578409       2.96445467       5.25636558       0.00000000       0.00000000       0.00727476       0.01229372       0.02264241      -0.06325819
C        2.77087576       2.67001743       3.75109840       0.00000000       0.00000000       0.01008955       0.01082473       0.00108516      -0.05983783
C        3.74886632       1.56281755       3.35326804       0.00000000       0.00000000       0.01931086      -0.03413283      -0.00564557      -0.01054076
N        3.98473246       1.46372896       1.90771024       0.00000000       0.00000000       0.01939392      -0.00184123       0.03408785      -0.06605900
C        5.29560990       1.91342217       1.44473652       0.00000000       0.00000000       0.00253352       0.02942053       0.00302014      -0.02313206
C        5.67364417       3.32251843       1.91116528       0.00000000       0.00000000      -0.00275098      -0.00753066       0.01635639      -0.06567627
C        6.56291001       4.07637655       0.91094860       0.00000000       0.00000000      -0.02133054      -0.03651037       0.03952693      -0.07165947
C        7.92372415       3.45251324       0.53549384       0.00000000       0.00000000       0.00572692       0.00185856       0.02300309      -0.03024635
C        8.57890857       2.77565141       1.74229186       0.00000000       0.00000000       0.05248460      -0.04402144       0.02311035      -0.06588084
C       10.02386659       2.34104113       1.50393396       0.00000000       0.00000000       0.08600433      -0.02583273       0.04338122      -0.06114204
C       10.74641759       1.97877389       2.80340126       0.00000000       0.00000000      -0.01371697      -0.04038820       0.05420747      -0.05854594
C       10.10897058       0.80147121       3.53615551       0.00000000       0.00000000       0.02642420       0.00816659      -0.00322048      -0.10351091
C        7.84621707       2.54442940      -0.70232340       0.00000000       0.00000000      -0.00461454       0.00999713      -0.02241803      -0.06845196
C        7.61411669       3.35340438      -1.97885550       0.00000000       0.00000000      -0.00916192       0.03289636      -0.03169821      -0.06286429
C        7.61050230       2.52050138      -3.26099861       0.00000000       0.00000000      -0.03148500      -0.02928578       0.00221443      -0.06583284
C        6.31866398       1.74190561      -3.52047325       0.00000000       0.00000000      -0.06295914      -0.00011514      -0.00410835      -0.05802191
C        5.11646991       2.63731151      -3.82730351       0.00000000       0.00000000      -0.04285429       0.00366786      -0.00930610      -0.05574199
C        3.90977096       1.83609093      -4.31073529       0.00000000       0.00000000       0.01084147       0.00650716       0.02069643      -0.10392597
C        3.11715080       0.82145093       1.13291970       0.00000000       0.00000000      -0.10478714      -0.04346861      -0.03221648       0.25422703
O        2.03218000       0.36441488       1.53827296       0.00000000       0.00000000      -0.05633912       0.06839579      -0.04006350      -0.37380746
C        3.48269285       0.61601649      -0.35002705       0.00000000       0.00000000      -0.01504115       0.00845340      -0.00465301       0.04742738
O        2.33816292       0.19546681      -1.09161478       0.00000000       0.00000000      -0.06270557       0.04470275      -0.03640918      -0.24150791
C        2.52716647      -0.96310012      -1.90011775       0.00000000       0.00000000       0.01543609       0.00192417       0.00315039       0.04402874
C        2.14888966      -2.17982155      -1.04599914       0.00000000       0.00000000      -0.02251320      -0.07290747      -0.01400124       0.25508405
O        1.14865057      -2.01883884      -0.32163894       0.00000000       0.00000000       0.02427232       0.06441375       0.01952097      -0.36998578
N        2.87010513      -3.28519349      -1.07125309       0.00000000       0.00000000       0.02659527      -0.06609996       0.02387292      -0.04310754
C        2.53825153      -4.41272283      -0.19811317       0.00000000       0.00000000      -0.02159439       0.01088450       0.02200011      -0.01800624
C        2.17859882      -4.07350515       1.24509461       0.00000000       0.00000000      -0.02394176       0.02989314       0.01014194      -0.07507158
C        3.27862250      -3.41157861       2.06017106       0.00000000       0.00000000      -0.00541734      -0.03053469      -0.00703933      -0.05611794
C        2.83745713      -3.25232999       3.51632109       0.00000000       0.00000000       0.00555020       0.00266363      -0.00806973      -0.06748517
C        1.89464748      -2.07202714       3.73529557       0.00000000       0.00000000       0.00189902       0.02416955      -0.00662491      -0.06359231
C        1.50312652      -1.96443772       5.20850298       0.00000000       0.00000000      -0.02605011       0.02724933       0.01012373      -0.06534021
C        0.85715185      -0.63463904       5.59591936       0.00000000       0.00000000      -0.04718875       0.02151696      -0.02373334      -0.05755107
C       -0.50307265      -0.38820390       4.94999036       0.00000000       0.00000000       0.01034519       0.00837515      -0.00973412      -0.10235629
C        3.86101352      -3.61095584      -2.08749735       0.00000000       0.00000000       0.11055670      -0.01156179      -0.03307265      -0.02210060
C        5.27696966      -3.76981281      -1.51727741       0.00000000       0.00000000      -0.00934995       0.00776328       0.01138045      -0.07485295
C        5.77006973      -2.50774783      -0.80690434       0.00000000       0.00000000      -0.02518045      -0.01206204      -0.04501590      -0.06022258
C        6.62941533      -2.73091107       0.44599232       0.00000000       0.00000000      -0.00691446      -0.01156788      -0.04282771      -0.02745897
C        6.83226388      -1.35800685       1.10313572       0.00000000       0.00000000       0.02091392       0.00893130       0.02641153      -0.05978595
C        7.25080189      -1.38159964       2.57144858       0.00000000       0.00000000      -0.02900778      -0.03769866       0.09143111      -0.06337685
C        6.16365396      -1.92261545       3.49705089       0.00000000       0.00000000      -0.00889897      -0.01227842       0.06642698      -0.05263981
C        6.53042305      -1.76200809       4.96884675       0.00000000       0.00000000       0.00276280       0.00488446      -0.03197465      -0.10760567
C        7.99081230      -3.36740321       0.15415593       0.00000000       0.00000000       0.01498843      -0.01437496      -0.02309119      -0.06892264
C        8.04208658      -4.85846941      -0.19360520       0.00000000       0.00000000       0.00433112      -0.01352064      -0.02276822      -0.06780411
C        7.81860014      -5.84321328       0.95804668       0.00000000       0.00000000      -0.01677577      -0.01427157       0.01753935      -0.06587742
C        6.38279471      -5.96747635       1.46119758       0.00000000       0.00000000      -0.03281002      -0.03569665       0.06270944      -0.05160424
C        6.21727582      -7.10277146       2.46904271       0.00000000       0.00000000      -0.03631628      -0.03432955       0.03304034      -0.05983810
C        4.79076852      -7.17168673       3.00940458       0.00000000       0.00000000       0.03402385      -0.00318579      -0.01410580      -0.10430927
H        1.92241185       7.21195327       2.99126920       0.00000000       0.00000000       0.00391994       0.01610381       0.00431543       0.02514387
H        3.25054786       6.05354847       2.96856348       0.00000000       0.00000000      -0.00106817       0.01180065       0.00504913       0.01390102
H        3.53179582       7.70894448       3.49839394       0.00000000       0.00000000       0.01194477      -0.00343896       0.02183293       0.05039470
H        1.78569508       5.66946521       4.95729274       0.00000000       0.00000000      -0.00318718      -0.00580827       0.00008384       0.01759421
H        1.99096986       7.35079589       5.42765057       0.00000000       0.00000000       0.02253926      -0.01216280       0.03239820       0.04059641
H        3.42280319       6.01859057       6.82525143       0.00000000       0.00000000      -0.00635323      -0.03122667       0.01963536       0.04346367
H        4.39324466       7.01199339       5.75713564       0.00000000       0.00000000       0.03967981      -0.02811193      -0.01923606       0.04611895
H        5.53013960       5.03448047       5.67688734       0.00000000       0.00000000       0.02091920      -0.03406114       0.02194489       0.04357284
H        4.54559604       4.88197067       4.24147485       0.00000000       0.00000000       0.01878964      -0.00332908      -0.02779163       0.03145640
H        3.81086116       3.69111909       6.94387104       0.00000000       0.00000000       0.01973090      -0.02450859      -0.00102030       0.05299175
H        4.82600504       2.84304179       5.79843277       0.00000000       0.00000000       0.00471467      -0.02145898      -0.03679882       0.03157593
H        1.91362643       3.64231888       5.44498101       0.00000000       0.00000000      -0.03552172      -0.00688845      -0.00202416       0.04346411
H        2.52694597       2.03662449       5.78699109       0.00000000       0.00000000       0.01110837      -0.01845418       0.02534118       0.04129545
H        3.01978555       3.58502310       3.21516841       0.00000000       0.00000000       0.00623286       0.06298142       0.00980913       0.03709803
H        1.76674552       2.35400111       3.45736541       0.00000000       0.00000000      -0.02596455       0.00431101      -0.02056768       0.02912740
H        3.34941562       0.60949087       3.70197309       0.00000000       0.00000000       0.01637285      -0.05361531       0.00970714       0.07319789
H        4.71645400       1.73021876       3.81852332       0.00000000       0.00000000       0.02500169       0.00510759       0.04183844       0.08484555
H        5.31379260       1.91422660       0.36048145       0.00000000       0.00000000      -0.01598469      -0.01221932       0.00913527       0.06161000
H        6.04609270       1.19954352       1.79299556       0.00000000       0.00000000      -0.02877889       0.02330833       0.00801634       0.07975252
H        6.16109756       3.28322649       2.88246746       0.00000000       0.00000000       0.03884716       0.03070390       0.01478134       0.05919692
H        4.76099890       3.90772750       2.02372901       0.00000000       0.00000000       0.01351453       0.02226111      -0.00228062       0.03939716
H        6.74481276       5.06060616       1.34685267       0.00000000       0.00000000       0.02127797      -0.02279318      -0.00739176       0.04985911
H        5.99025810       4.23121183      -0.00339814       0.00000000       0.00000000       0.01197964       0.02602924       0.02884822       0.03939650
H        8.57642843       4.28342432       0.25017116       0.00000000       0.00000000       0.00735643       0.04206380       0.00914119       0.04803238
H        8.00249701       1.90055728       2.03699201       0.00000000       0.00000000      -0.02064024      -0.03662059       0.01382926       0.02498844
H        8.57528595       3.48428791       2.57287349       0.00000000       0.00000000      -0.02549878       0.01623445       0.00701266       0.04096580
H       10.57221253       3.14884294       1.02000614       0.00000000       0.00000000       0.00473706       0.06015883      -0.02944079       0.03867072
H       10.05102011       1.47596943       0.83966181       0.00000000       0.00000000       0.00611776      -0.02578723      -0.00088857       0.03055235
H       10.76404993       2.84725620       3.46553005       0.00000000       0.00000000       0.00779074      -0.00703195      -0.02318286       0.03683093
H       11.78175113       1.72345583       2.56729680       0.00000000       0.00000000      -0.04821722       0.02824610      -0.01103574       0.04297789
H        9.12623417       1.06315789       3.92637629       0.00000000       0.00000000       0.05402814      -0.00366285      -0.00830163       0.02282113
H       10.73064655       0.50231595       4.37583320       0.00000000       0.00000000      -0.00278312       0.01271643      -0.00638757       0.04374472
H       10.00699293      -0.05224427       2.86832432       0.00000000       0.00000000       0.01885130       0.02433371       0.01419157       0.03348538
H        7.07862368       1.77975769      -0.58314861       0.00000000       0.00000000      -0.00222074      -0.01729437      -0.01603243       0.01373329
H        8.79796752       2.02796230      -0.81346007       0.00000000       0.00000000       0.02841264      -0.00354452       0.01673603       0.04937046
H        8.41667254       4.08623244      -2.05216253       0.00000000       0.00000000       0.04628436       0.03893153      -0.02810360       0.04406830
H        6.68024391       3.91141584      -1.91745938       0.00000000       0.00000000      -0.02839779       0.03325546       0.00104552       0.02325220
H        8.44315234       1.81776322      -3.22373035       0.00000000       0.00000000       0.02597155      -0.03080449      -0.01218150       0.04356849
H        7.78290680       3.18269857      -4.11120107       0.00000000       0.00000000      -0.00642008      -0.00031933       0.01122510       0.04479632
H        6.08903126       1.09781790      -2.66612261       0.00000000       0.00000000       0.01449811      -0.00536968       0.01835963       0.01083873
H        6.48503530       1.09516494      -4.38378046       0.00000000       0.00000000       0.00546044      -0.02845357       0.00524624       0.03956330
H        5.39604733       3.35046145      -4.60354923       0.00000000       0.00000000       0.02225110      -0.00272384      -0.00495803       0.04699887
H        4.83374038       3.21304838      -2.94179608       0.00000000       0.00000000       0.01655481      -0.01447680       0.01481406       0.01682093
H        4.15732356       1.29103055      -5.21816397       0.00000000       0.00000000       0.00023340       0.01951477       0.00850702       0.04809212
H        3.07098184       2.49485519      -4.53013430       0.00000000       0.00000000       0.01851907      -0.00580239      -0.01010787       0.02707178
H        3.59273704       1.11274323      -3.55954413       0.00000000       0.00000000      -0.00063420       0.01131349       0.01130909       0.00697948
H        4.28030193      -0.12920592      -0.40715504       0.00000000       0.00000000       0.06098240      -0.05643600       0.01372206       0.08243290
H        3.84532162       1.54379150      -0.80296255       0.00000000       0.00000000      -0.02625293       0.10795737      -0.04258355       0.08013741
H        3.53459497      -0.98298354      -2.30927914       0.00000000       0.00000000       0.15156226       0.01076119      -0.03833566       0.07713362
H        1.79597915      -0.87330219      -2.71245538       0.00000000       0.00000000      -0.04255286      -0.06215950      -0.06636652       0.10601752
H        3.40698763      -5.07195690      -0.19402447       0.00000000       0.00000000      -0.06785816       0.03398967      -0.02517236       0.08645783
H        1.69796158      -4.94209283      -0.65695067       0.00000000       0.00000000       0.02599608      -0.01333772       0.02232341       0.07688818
H        1.92548471      -5.01364668       1.73912698       0.00000000       0.00000000       0.04713559      -0.03073215      -0.05103140       0.05724414
H        1.30052960      -3.43580694       1.27088333       0.00000000       0.00000000      -0.03975674       0.02584460      -0.03195162       0.07833270
H        3.53153927      -2.43342003       1.64130029       0.00000000       0.00000000      -0.02255699      -0.02141515       0.01991458       0.01963103
H        4.16522001      -4.04223320       2.02186650       0.00000000       0.00000000       0.03288069      -0.01353863       0.02149288       0.04680532
H        3.71410599      -3.10918758       4.14821100       0.00000000       0.00000000       0.02597739      -0.00793292      -0.00290271       0.04735130
H        2.35201994      -4.17267677       3.84632490       0.00000000       0.00000000       0.00232997      -0.01107458       0.00152856       0.03912176
H        1.01139656      -2.16271462       3.10020617       0.00000000       0.00000000      -0.01899365      -0.01836931       0.00389534       0.04779865
H        2.40236408      -1.15744819       3.42613772       0.00000000       0.00000000       0.03013824       0.03386059       0.02515179       0.03203896
H        2.40532490      -2.08014466       5.81213328       0.00000000       0.00000000       0.01476722      -0.01354488       0.02103187       0.04329065
H        0.83514335      -2.78699717       5.46996443       0.00000000       0.00000000      -0.01580800      -0.01518725       0.02498730       0.03428140
H        1.53136890       0.18019745       5.32412510       0.00000000       0.00000000      -0.01275822      -0.01753714      -0.00219557       0.02922754
H        0.73539416      -0.61446142       6.68085603       0.00000000       0.00000000       0.00538909       0.00320717      -0.01518391       0.04570015
H       -0.41931919      -0.34039200       3.86072232       0.00000000       0.00000000       0.00349716       0.01471574       0.00835286       0.03700838
H       -0.91755170       0.55213305       5.30992489       0.00000000       0.00000000       0.02768343       0.01005026      -0.01451150       0.02943341
H       -1.19882253      -1.17761368       5.22795001       0.00000000       0.00000000       0.00667878       0.01877855      -0.02663266       0.03437631
H        3.85896463      -2.85733709      -2.87105645       0.00000000       0.00000000      -0.02651992       0.00234322      -0.05356746       0.05419497
H        3.55665654      -4.55918549      -2.54210109       0.00000000       0.00000000       0.00789951       0.01589308      -0.01155818       0.07802324
H        5.93817152      -4.02738314      -2.34495944       0.00000000       0.00000000      -0.04648488      -0.00965518       0.03289165       0.06661376
H        5.28236138      -4.59847122      -0.81237219       0.00000000       0.00000000       0.00673681       0.02236158      -0.00163268       0.07090212
H        4.88213145      -1.96595358      -0.46930661       0.00000000       0.00000000      -0.02329715       0.01056024      -0.00181899       0.00718653
H        6.31684086      -1.86721550      -1.50127341       0.00000000       0.00000000      -0.00391630       0.00461501      -0.06232658       0.03411381
H        6.05489704      -3.35067400       1.12859269       0.00000000       0.00000000       0.05228628      -0.02388338      -0.01121382       0.04746158
H        5.88995873      -0.80452957       1.03997843       0.00000000       0.00000000      -0.03098952      -0.00243563       0.01331693      -0.00290009
H        7.57769634      -0.81001211       0.52582723       0.00000000       0.00000000       0.05904681       0.07346725      -0.01812686       0.03636496
H        7.48847898      -0.36075370       2.87954295       0.00000000       0.00000000       0.02168992      -0.01255342      -0.00610961       0.03273599
H        8.15530713      -1.97301087       2.70297466       0.00000000       0.00000000       0.01646492      -0.00584186      -0.01553503       0.04867460
H        6.00882828      -2.98344641       3.29887899       0.00000000       0.00000000       0.01972823       0.01593721      -0.00183469       0.03469622
H        5.22008263      -1.40420567       3.29529621       0.00000000       0.00000000       0.04665997       0.01606427       0.00447538       0.01282059
H        7.46008959      -2.28253851       5.18422369       0.00000000       0.00000000      -0.01943175       0.01579323       0.00254155       0.04984204
H        5.75107919      -2.18085112       5.60346486       0.00000000       0.00000000       0.04374771       0.03681905      -0.00955684       0.03632528
H        6.66150701      -0.71319859       5.22893150       0.00000000       0.00000000      -0.00632676      -0.02167685      -0.00809482       0.03216714
H        8.63700970      -3.21866236       1.01977470       0.00000000       0.00000000      -0.01694834       0.01548488       0.02150493       0.04993766
H        8.43176029      -2.80698948      -0.67392255       0.00000000       0.00000000       0.07051121      -0.03446203      -0.03177953       0.03431095
H        9.04591664      -5.04478460      -0.57748547       0.00000000       0.00000000       0.06560786      -0.01217160       0.01575885       0.04573501
H        7.35781278      -5.09213656      -1.00445889       0.00000000       0.00000000      -0.00473828      -0.03553509      -0.02966477       0.03239818
H        8.46879798      -5.58201655       1.79404849       0.00000000       0.00000000       0.00602691       0.03114300       0.01272110       0.04042557
H        8.12553031      -6.82925143       0.60537346       0.00000000       0.00000000       0.04939369      -0.02257651       0.00194321       0.04244782
H        5.70586106      -6.14114851       0.61840701       0.00000000       0.00000000       0.03309246      -0.03762025      -0.00165211       0.01285294
H        6.07787913      -5.04834762       1.96114214       0.00000000       0.00000000       0.02428634       0.01838405       0.01588097       0.02167527
H        6.91068132      -6.94771796       3.29760102       0.00000000       0.00000000      -0.00927522      -0.00310834      -0.00466325       0.03939279
H        6.47227531      -8.05319303       1.99937847       0.00000000       0.00000000       0.00293431      -0.00622178      -0.01432806       0.03982470
H        4.51300832      -6.23058114       3.48572402       0.00000000       0.00000000       0.01364801      -0.05677600      -0.00368956       0.02629401
H        4.70567993      -7.96703152       3.74603628       0.00000000       0.00000000      -0.00595187       0.03898247      -0.03138246       0.04536650
H        4.08550720      -7.37556101       2.20385395       0.00000000       0.00000000       0.03268567       0.00483247       0.03554311       0.02784544
