277
Properties=species:S:1:pos:R:3:initial_charges:R:1:initial_magmoms:R:1:forces:R:3:charge:R:1 energy=-8966.749522241631 free_energy=-8966.749522241631 dipole="-1.3183056686379375 -0.06522296716190078 0.035156838099464585" pbc="F F F"
Pr       0.09087781       0.24101596       0.05940813       3.00000000       0.00000000       0.06526039      -0.01979229       0.03405244       0.83217251
C       -6.73224281       5.20004025      -2.54561782       0.00000000       0.00000000       0.01154354       0.02634866      -0.01555144      -0.10701993
C       -5.77980365       6.01139749      -1.67320098       0.00000000       0.00000000       0.06358952       0.02831641       0.01547421      -0.05869948
C       -4.31486238       5.93918984      -2.11351932       0.00000000       0.00000000       0.03507315      -0.00333205      -0.06077671      -0.05612788
C       -4.10647207       6.40738695      -3.55375491       0.00000000       0.00000000      -0.00178675      -0.00603117      -0.01963805      -0.06769776
C       -2.64044187       6.62702801      -3.92921523       0.00000000       0.00000000      -0.01780059      -0.01426586       0.01587636      -0.06533325
C       -1.73767298       5.39958394      -3.78537642       0.00000000       0.00000000       0.00636977      -0.03773464      -0.03243710      -0.06377622
C       -2.15106847       4.24587135      -4.69024434       0.00000000       0.00000000       0.01109215      -0.02921273      -0.05555604      -0.07529096
C       -1.11768752       3.11476886      -4.72658798       0.00000000       0.00000000       0.02952383       0.04176843      -0.08393968      -0.01784885
N       -1.15368085       2.25755269      -3.55826903       0.00000000       0.00000000       0.06755916       0.00238629       0.07285158      -0.04840558
C       -2.30714083       1.37696998      -3.47478301       0.00000000       0.00000000      -0.05226976      -0.06909646      -0.07643776      -0.05805268
C       -0.23929227       2.04890362      -2.61514503       0.00000000       0.00000000      -0.09648166      -0.00084467      -0.11164579       0.26407822
O       -0.44594226       1.13030411      -1.79684146       0.00000000       0.00000000       0.10741587       0.05246667      -0.12995281      -0.38162013
C        0.97043348       2.97119543      -2.41441561       0.00000000       0.00000000       0.10486977      -0.01945965       0.07317573      -0.06507526
C        2.37127502       2.28500731      -2.49079149       0.00000000       0.00000000       0.07384340      -0.05350041       0.08838878      -0.07646127
C        2.89418673       1.49872296      -1.25950982       0.00000000       0.00000000      -0.03487554      -0.01271221       0.01640481       0.05994960
O        2.92024504       0.07496603      -1.33851439       0.00000000       0.00000000       0.00976858       0.05946238      -0.00758209      -0.29678631
C        4.18688654      -0.44874832      -1.80360901       0.00000000       0.00000000      -0.09972521      -0.01502217       0.10845713       0.06771370
C        4.36687778      -1.94462472      -1.47906352       0.00000000       0.00000000      -0.08688926       0.10355483       0.05862397      -0.06748165
C        4.38700517      -2.86609630      -2.71054902       0.00000000       0.00000000      -0.01357506       0.05027992       0.04834072      -0.07087389
C        3.95288545      -4.30240199      -2.39332186       0.00000000       0.00000000       0.00942633       0.02058556       0.04290082      -0.06231607
C        3.24772588      -5.00422640      -3.55745179       0.00000000       0.00000000       0.03363072      -0.00744073       0.03037431      -0.06002876
C        2.40788658      -6.16728417      -3.04636987       0.00000000       0.00000000       0.01049772       0.00586422      -0.04179128      -0.10832392
C        0.63614118       3.52997208      -1.02648310       0.00000000       0.00000000      -0.10968083      -0.13878170       0.04812510       0.26000537
O        0.51964884       2.72245623      -0.07436317       0.00000000       0.00000000       0.03075596      -0.02697096       0.04802553      -0.41011492
N        0.30243874       4.80195138      -0.85146474       0.00000000       0.00000000       0.04587974       0.10682400       0.08295700      -0.04129705
C       -0.23728010       5.13478303       0.45729090       0.00000000       0.00000000      -0.07862212       0.03157696      -0.05089849      -0.05996996
C        0.69126188       5.94402607      -1.65930692       0.00000000       0.00000000       0.05762689      -0.00390026       0.01248174      -0.01998763
C        1.82924381       6.73295686      -1.00346412       0.00000000       0.00000000       0.02644749      -0.00453415       0.04777515      -0.07706216
C        3.05439911       5.87680116      -0.67914744       0.00000000       0.00000000      -0.00470540       0.00258075       0.01088342      -0.05794817
C        3.93683153       6.57291425       0.35503577       0.00000000       0.00000000      -0.00470153      -0.01759606      -0.00732548      -0.06716308
C        5.08295633       5.69387492       0.85029268       0.00000000       0.00000000      -0.03032030       0.01420220      -0.01115468      -0.05845264
C        5.85733304       6.36052029       1.99008136       0.00000000       0.00000000       0.00519854      -0.02295621      -0.02799063      -0.06480376
C        5.01512451       6.69911249       3.22225051       0.00000000       0.00000000       0.01643231       0.01607394       0.01396905      -0.05890909
C        4.30266315       5.49919646       3.83377554       0.00000000       0.00000000      -0.01551689      -0.00263327       0.02231605      -0.10149383
H       -7.69370359       5.09555688      -2.05142037       0.00000000       0.00000000      -0.01926691       0.00232612       0.01122549       0.04495320
H       -6.33916920       4.20495367      -2.74505014       0.00000000       0.00000000       0.02144449      -0.02424472       0.00854954       0.02246877
H       -6.90344183       5.69063098      -3.49745482       0.00000000       0.00000000       0.02105276       0.03171197      -0.04814489       0.04810380
H       -5.84342174       5.65775712      -0.64084013       0.00000000       0.00000000      -0.01379737       0.00775093       0.02963449       0.02301036
H       -6.09565189       7.05416349      -1.67833440       0.00000000       0.00000000      -0.03298586       0.01756450       0.00037968       0.04733371
H       -3.95643768       4.91000225      -2.00820894       0.00000000       0.00000000       0.00615354       0.00436757       0.01480449       0.01174470
H       -3.72198966       6.57064614      -1.44401353       0.00000000       0.00000000      -0.02742956      -0.03215582      -0.02264877       0.02404884
H       -4.62699721       7.35560816      -3.69248345       0.00000000       0.00000000      -0.01411322      -0.00253294       0.00934616       0.05339620
H       -4.54950165       5.68814749      -4.24208057       0.00000000       0.00000000      -0.03762911       0.00732931       0.00372881       0.04113994
H       -2.22955913       7.42654660      -3.30908521       0.00000000       0.00000000      -0.01609371       0.02003503       0.00284931       0.03806500
H       -2.59900094       6.96390024      -4.96740152       0.00000000       0.00000000       0.00214821       0.01422070       0.04875951       0.04989099
H       -1.71796881       5.05678500      -2.74851866       0.00000000       0.00000000      -0.03860617       0.00612376      -0.00520849       0.02204176
H       -0.72785889       5.70545875      -4.06507327       0.00000000       0.00000000       0.00499973       0.01779251      -0.01896170       0.02849545
H       -2.26173462       4.61557191      -5.71001062       0.00000000       0.00000000      -0.01627811       0.02997206      -0.00431113       0.07161201
H       -3.11467755       3.85378881      -4.37076225       0.00000000       0.00000000      -0.02884402       0.00099632      -0.01689290       0.06072035
H       -1.33148761       2.47391233      -5.59006587       0.00000000       0.00000000       0.01908980       0.05680967       0.01650340       0.08134593
H       -0.11886382       3.52831836      -4.85944968       0.00000000       0.00000000       0.02852202       0.02204818      -0.01893730       0.06009473
H       -3.01170417       1.64514454      -4.25078038       0.00000000       0.00000000      -0.12638213       0.00052220      -0.03822020       0.08951682
H       -2.77036503       1.46374811      -2.49086936       0.00000000       0.00000000       0.00072944       0.02897896       0.00207560       0.08114530
H       -2.00147317       0.33862362      -3.60611706       0.00000000       0.00000000       0.04818681      -0.07026065       0.00096735       0.08548131
H        0.98802497       3.74955496      -3.17409603       0.00000000       0.00000000      -0.14236562       0.02391279       0.04858272       0.07401082
H        3.09191611       3.08247294      -2.67856080       0.00000000       0.00000000      -0.05351019       0.07551251      -0.00888382       0.07442349
H        2.39085305       1.63350757      -3.36124389       0.00000000       0.00000000       0.02835247      -0.00293983      -0.09413195       0.08111233
H        2.25225739       1.69947347      -0.39330769       0.00000000       0.00000000       0.02479070       0.05399024      -0.00837844       0.11763257
H        3.91008013       1.86401173      -1.03706744       0.00000000       0.00000000      -0.13932341      -0.08819416       0.02288057       0.05804024
H        4.97344687       0.12632974      -1.31142266       0.00000000       0.00000000       0.13437427       0.06171042       0.04912808       0.04643277
H        4.27852956      -0.28859583      -2.87882831       0.00000000       0.00000000       0.04351187       0.07439613      -0.17480515       0.04503558
H        3.55115341      -2.22807127      -0.80842870       0.00000000       0.00000000      -0.02128372       0.04340841       0.01761003       0.04148606
H        5.29941788      -2.07647130      -0.92870472       0.00000000       0.00000000      -0.05347110       0.00457565       0.02013627       0.05687928
H        5.38831901      -2.87266170      -3.13590400       0.00000000       0.00000000       0.00691405       0.03879924      -0.06673194       0.05635513
H        3.71365889      -2.46824351      -3.46837401       0.00000000       0.00000000      -0.02291157       0.05290322      -0.09665788       0.03909931
H        3.24873080      -4.27557150      -1.55633739       0.00000000       0.00000000       0.05785341      -0.03255963       0.08774644       0.01129241
H        4.80858274      -4.89655463      -2.07877441       0.00000000       0.00000000       0.03532078      -0.00701391       0.04207103       0.04901817
H        3.97183357      -5.36170795      -4.28607998       0.00000000       0.00000000       0.05486732      -0.00346504       0.00196152       0.05457419
H        2.59430469      -4.29682710      -4.06925697       0.00000000       0.00000000      -0.02892928       0.05088866      -0.04153240       0.02629354
H        3.03155906      -6.93754549      -2.61034482       0.00000000       0.00000000       0.11029576      -0.07139103       0.05392561       0.04826566
H        1.71690970      -5.81275948      -2.28590359       0.00000000       0.00000000      -0.14141532      -0.01869660       0.06299632       0.01327157
H        1.83211863      -6.61798074      -3.84567447       0.00000000       0.00000000      -0.01588097      -0.02530853      -0.11411901       0.05152199
H       -0.94237185       4.35707468       0.74881709       0.00000000       0.00000000      -0.00716747      -0.06784080       0.02937849       0.08106233
H       -0.75812017       6.08529340       0.39798255       0.00000000       0.00000000       0.02555491       0.05501743      -0.00789526       0.08788082
H        0.55264250       5.19329055       1.20506695       0.00000000       0.00000000       0.00466747       0.06030643       0.04955102       0.07882255
H       -0.17853680       6.59831655      -1.75971549       0.00000000       0.00000000       0.03790607      -0.03431932      -0.05235180       0.08237756
H        1.00479700       5.61917511      -2.64735952       0.00000000       0.00000000       0.02147193      -0.01944727      -0.01261874       0.06255518
H        1.46374316       7.18409106      -0.08075800       0.00000000       0.00000000      -0.00073326       0.02899080       0.00943867       0.06079044
H        2.09733020       7.54808906      -1.67639988       0.00000000       0.00000000       0.04439484      -0.04280270       0.03296957       0.07225837
H        3.62879504       5.66369669      -1.58261002       0.00000000       0.00000000      -0.02345473       0.02467795      -0.00851250       0.03379229
H        2.72828159       4.91778307      -0.25884068       0.00000000       0.00000000       0.02897877      -0.01479473      -0.03669208       0.00952216
H        3.30555610       6.83603826       1.20520757       0.00000000       0.00000000       0.02744976       0.04209050      -0.02333057       0.04252543
H        4.34131519       7.49622575      -0.06253214       0.00000000       0.00000000      -0.02742362      -0.03787778       0.01288613       0.05033029
H        5.77188499       5.49021738       0.02698474       0.00000000       0.00000000      -0.00641786       0.03487441       0.01321566       0.03154084
H        4.68854089       4.73071758       1.18636174       0.00000000       0.00000000      -0.01037439       0.03173391       0.00314965       0.02119591
H        6.30124364       7.28412436       1.61613859       0.00000000       0.00000000       0.01248319      -0.00147718       0.00655908       0.04551873
H        6.67489558       5.70110556       2.28496335       0.00000000       0.00000000       0.00448870      -0.02796499       0.02458495       0.04095072
H        4.28119318       7.46506211       2.97035337       0.00000000       0.00000000      -0.00367639       0.02905109       0.01666968       0.03464550
H        5.67445042       7.12988874       3.97435095       0.00000000       0.00000000       0.05623168       0.01644171       0.02023191       0.04783921
H        3.57005919       5.08402701       3.14404028       0.00000000       0.00000000      -0.00883995      -0.02072766      -0.00751050       0.01710487
H        3.78102021       5.79476480       4.74009159       0.00000000       0.00000000      -0.00622698       0.03221851       0.02761275       0.03692562
H        5.02068934       4.72631953       4.09850458       0.00000000       0.00000000       0.02768313       0.01165262      -0.00537594       0.03383806
C       -9.97539456      -1.87871739       1.03432447       0.00000000       0.00000000       0.00991627       0.02954218      -0.01218866      -0.10646819
C       -9.58168797      -0.50799673       0.49049283       0.00000000       0.00000000       0.03816739       0.01018207      -0.03836614      -0.05734311
C       -8.67803250      -0.63284522      -0.73773663       0.00000000       0.00000000       0.02659478      -0.01822294      -0.03526809      -0.06097869
C       -8.41517885       0.70026220      -1.46241850       0.00000000       0.00000000      -0.05538005      -0.01472800       0.01337217      -0.06871575
C       -6.96083474       1.18144951      -1.49978358       0.00000000       0.00000000      -0.04375690      -0.00898451      -0.01777244      -0.05812736
C       -6.41986245       1.65803567      -0.15176071       0.00000000       0.00000000      -0.01044057       0.00330481       0.01801169      -0.06335273
C       -5.12739616       2.46237205      -0.30822411       0.00000000       0.00000000      -0.00761137      -0.03495415      -0.00871061      -0.06942545
C       -4.58285162       2.96688459       1.03040364       0.00000000       0.00000000      -0.02790232       0.01725464      -0.04412787      -0.01097941
N       -4.15250871       1.83846761       1.84976485       0.00000000       0.00000000       0.19060439      -0.01750789      -0.05775395      -0.06050989
C       -4.82762053       1.68054436       3.11898600       0.00000000       0.00000000      -0.05220318       0.01596061       0.03679200      -0.07244623
C       -3.08820337       1.13976254       1.44956756       0.00000000       0.00000000       0.03299426       0.10340233      -0.08453589       0.26489929
O       -2.26229719       1.57402533       0.62930290       0.00000000       0.00000000       0.04366093       0.00461903       0.10323515      -0.39799639
C       -2.94835499      -0.29933046       1.96635496       0.00000000       0.00000000       0.09283274      -0.05297097       0.02532437      -0.06819974
C       -1.69199818      -0.45993739       2.85958395       0.00000000       0.00000000       0.06374927       0.07609021       0.01905200      -0.07437165
C       -1.00280198       0.83085272       3.32112830       0.00000000       0.00000000       0.07749456       0.01092077      -0.01666590       0.06538805
O        0.18710975       1.04964368       2.54909455       0.00000000       0.00000000       0.06024552       0.02247835      -0.10328446      -0.25177871
C        0.90795810       2.22603558       3.00502570       0.00000000       0.00000000      -0.02395401       0.02715914      -0.01823428       0.05176491
C        2.37914838       1.95692925       3.32829674       0.00000000       0.00000000      -0.09559957       0.00235576       0.02846788      -0.08091546
C        3.26814659       1.83022231       2.09104475       0.00000000       0.00000000      -0.06817009       0.01165234       0.05380938      -0.05853654
C        4.76020082       1.94875599       2.42393215       0.00000000       0.00000000      -0.03422940       0.03130762      -0.04599389      -0.07075299
C        5.38808507       0.72585348       3.09888513       0.00000000       0.00000000      -0.02019358       0.05205885      -0.00502034      -0.06381515
C        6.04117099      -0.22830167       2.10785329       0.00000000       0.00000000       0.02157785      -0.00666585      -0.00371318      -0.11127067
C       -2.80224782      -1.09726117       0.66335650       0.00000000       0.00000000      -0.00848165      -0.04391458      -0.12057459       0.27703273
O       -1.83863858      -0.82449118      -0.08364910       0.00000000       0.00000000       0.04727370      -0.00540940       0.06122743      -0.38828654
N       -3.70915270      -1.98245893       0.27755879       0.00000000       0.00000000       0.05630293      -0.03558654      -0.02569708      -0.03927285
C       -4.75883015      -2.52091021       1.11015459       0.00000000       0.00000000       0.01784282      -0.00017056       0.01085812      -0.07422302
C       -3.51340728      -2.65204538      -1.00809492       0.00000000       0.00000000      -0.07264746      -0.04442986      -0.08266827      -0.01258287
C       -4.79026034      -2.82465628      -1.82744959       0.00000000       0.00000000      -0.03556948      -0.00149042      -0.00241171      -0.07150310
C       -4.52391427      -3.71737792      -3.05259312       0.00000000       0.00000000      -0.05071460       0.01708012       0.04570760      -0.07068786
C       -4.22935477      -2.97643621      -4.36827657       0.00000000       0.00000000      -0.02167469      -0.02263119       0.04448674      -0.06795483
C       -2.79839438      -3.15505437      -4.88067689       0.00000000       0.00000000       0.01857793       0.00153435       0.01320909      -0.06007310
C       -2.43330825      -4.62224287      -5.17106274       0.00000000       0.00000000      -0.01205624       0.01348480       0.03482113      -0.06229874
C       -1.76796503      -4.85887465      -6.52910648       0.00000000       0.00000000      -0.04787864      -0.01411831       0.02830092      -0.05978559
C       -0.42277543      -4.16516062      -6.69294396       0.00000000       0.00000000       0.00577845      -0.00429558       0.00752297      -0.10364341
H      -10.47244683      -1.78253937       1.99553754       0.00000000       0.00000000      -0.02369265       0.00961383      -0.01538181       0.04498108
H       -9.10441507      -2.52018034       1.16273507       0.00000000       0.00000000      -0.00367893       0.01724557       0.00319943       0.02274160
H      -10.65636312      -2.37215400       0.34585808       0.00000000       0.00000000       0.01534921      -0.01306392       0.00969243       0.04594177
H       -9.08102845       0.07701755       1.26503116       0.00000000       0.00000000       0.03416984      -0.00588191       0.00670884       0.02287413
H      -10.49000170       0.02631093       0.20977844       0.00000000       0.00000000       0.01338035       0.01893079       0.00792191       0.04362928
H       -9.16922304      -1.31873986      -1.42899464       0.00000000       0.00000000       0.03879825      -0.02737753      -0.02426876       0.04239490
H       -7.73154521      -1.09863311      -0.44827856       0.00000000       0.00000000       0.02278974       0.02756117       0.01468033       0.01339107
H       -9.02460300       1.48341016      -1.00892074       0.00000000       0.00000000       0.00889001      -0.00097919       0.00637399       0.04650345
H       -8.74703399       0.60088986      -2.49684269       0.00000000       0.00000000       0.00059658       0.03763438       0.00375661       0.04429316
H       -6.92471491       2.01977694      -2.19702031       0.00000000       0.00000000       0.02663851       0.02583104      -0.02418841       0.03793633
H       -6.31546898       0.39596761      -1.90235988       0.00000000       0.00000000      -0.00618797      -0.02862092       0.01911009       0.01837895
H       -6.24724041       0.79792477       0.49887230       0.00000000       0.00000000      -0.01964271      -0.00371314       0.02331321       0.02292873
H       -7.16869992       2.29607315       0.31881315       0.00000000       0.00000000      -0.03797163      -0.00871052       0.01735517       0.05044864
H       -5.31827992       3.32883199      -0.94064468       0.00000000       0.00000000      -0.02865730      -0.04828401       0.02906572       0.06968553
H       -4.36194195       1.85191448      -0.79579920       0.00000000       0.00000000      -0.00859261      -0.00425155       0.01324967       0.02877633
H       -5.36967348       3.49285198       1.57108156       0.00000000       0.00000000       0.07316393       0.04168904      -0.01903089       0.07788691
H       -3.74208690       3.64511778       0.85735815       0.00000000       0.00000000       0.00433288      -0.02244871       0.02784748       0.06135448
H       -4.71970460       2.60630197       3.68792684       0.00000000       0.00000000      -0.03135769       0.04325821      -0.00997444       0.08328476
H       -4.40188424       0.88392647       3.72060429       0.00000000       0.00000000       0.03644487       0.00070458      -0.01510476       0.07005348
H       -5.89045860       1.49358340       2.97642134       0.00000000       0.00000000      -0.05311850      -0.00405527      -0.05346262       0.09412466
H       -3.83975739      -0.60075759       2.51002748       0.00000000       0.00000000      -0.00669850       0.01692243      -0.07487452       0.07628243
H       -0.93854812      -1.04240357       2.31136928       0.00000000       0.00000000       0.05776766      -0.06249808      -0.01004416       0.14122654
H       -1.96855692      -1.03801136       3.73971411       0.00000000       0.00000000      -0.03363601      -0.07111675       0.02451027       0.08312919
H       -0.72002956       0.73577133       4.37872402       0.00000000       0.00000000       0.02130069      -0.01137534      -0.01598616       0.07110027
H       -1.65389376       1.70930626       3.21325242       0.00000000       0.00000000      -0.05125105      -0.03479134       0.08891053       0.06211210
H        0.42360358       2.61011884       3.90696982       0.00000000       0.00000000      -0.01389999      -0.02101151      -0.01258951       0.06272080
H        0.83140593       2.98264704       2.21808221       0.00000000       0.00000000      -0.01937299       0.03369055      -0.01926889       0.08120737
H        2.73577250       2.79805069       3.92750855       0.00000000       0.00000000      -0.02365074      -0.01592460      -0.02105512       0.07309309
H        2.44279037       1.06338647       3.94419051       0.00000000       0.00000000       0.02340822       0.02987119       0.03803840       0.06475011
H        3.01005326       2.65727341       1.42202957       0.00000000       0.00000000       0.03739572      -0.00638749       0.00313100       0.03427518
H        3.05739790       0.88264556       1.57604472       0.00000000       0.00000000      -0.01969344       0.03895237      -0.00193516       0.04410939
H        4.88561803       2.81795252       3.06879991       0.00000000       0.00000000      -0.00727430      -0.01086581       0.00412701       0.05598540
H        5.30916763       2.15638878       1.50513286       0.00000000       0.00000000       0.04050447       0.00626589      -0.04704065       0.04361623
H        4.63606793       0.20239532       3.68570143       0.00000000       0.00000000      -0.00572666      -0.04796336       0.05301354       0.02945028
H        6.15648213       1.06627433       3.79028220       0.00000000       0.00000000       0.04415774       0.01492252       0.03164758       0.05437166
H        5.32097081      -0.64732797       1.40933390       0.00000000       0.00000000      -0.02859479       0.02050132      -0.04319897       0.02083136
H        6.52766574      -1.04107709       2.63746837       0.00000000       0.00000000      -0.01762286      -0.07765836       0.01530424       0.04528300
H        6.80755371       0.29281132       1.54264288       0.00000000       0.00000000       0.03706228       0.03210404      -0.04943942       0.04711514
H       -4.45009653      -2.56731794       2.14808206       0.00000000       0.00000000       0.00698841       0.02411495       0.06910393       0.08645671
H       -4.96817085      -3.53942455       0.79441007       0.00000000       0.00000000      -0.02621371      -0.02540502      -0.02153820       0.08866543
H       -5.67170923      -1.93466825       1.02145912       0.00000000       0.00000000      -0.05277808       0.02619354      -0.01164594       0.08351041
H       -3.08884722      -3.64279725      -0.80750079       0.00000000       0.00000000       0.00401230       0.02835325       0.03637709       0.05457469
H       -2.79459077      -2.07378874      -1.59038624       0.00000000       0.00000000       0.00552849       0.01070882       0.04321261       0.08557088
H       -5.17673456      -1.85152055      -2.13296608       0.00000000       0.00000000       0.02108221      -0.00919413      -0.02510301       0.05028479
H       -5.55926929      -3.29955246      -1.22048885       0.00000000       0.00000000      -0.02584284      -0.01374208      -0.01591311       0.05327567
H       -5.40003262      -4.34841513      -3.19322100       0.00000000       0.00000000       0.00581765      -0.00820915      -0.04775397       0.05498895
H       -3.68740704      -4.37592560      -2.81745852       0.00000000       0.00000000      -0.05019794      -0.07256225      -0.05450357       0.04245225
H       -4.43153498      -1.91031338      -4.24604491       0.00000000       0.00000000       0.01087405       0.01987071       0.01012013       0.02941704
H       -4.91170712      -3.34008017      -5.13529679       0.00000000       0.00000000       0.00222132       0.00238185      -0.04332257       0.05299077
H       -2.10669666      -2.72920308      -4.14936330       0.00000000       0.00000000       0.07482488       0.01184378      -0.01031401       0.01378262
H       -2.70690176      -2.57790334      -5.80159410       0.00000000       0.00000000       0.01015669       0.00317287      -0.01872983       0.04060272
H       -3.34124467      -5.22597266      -5.14523606       0.00000000       0.00000000      -0.01091308       0.00792167       0.00392659       0.04419238
H       -1.76685233      -5.00542077      -4.39279414       0.00000000       0.00000000      -0.01709844       0.01201914       0.01481872       0.01651972
H       -2.43729805      -4.53390147      -7.32631345       0.00000000       0.00000000      -0.02169903       0.00893272       0.00699670       0.04335130
H       -1.62400573      -5.93443490      -6.64114998       0.00000000       0.00000000      -0.00371464      -0.01875156      -0.02203419       0.04199119
H       -0.54487495      -3.09069013      -6.79312625       0.00000000       0.00000000      -0.00337735       0.02430537       0.01713146       0.03329109
H        0.07234106      -4.53043638      -7.58642849       0.00000000       0.00000000       0.02419749       0.00237912      -0.06144212       0.04655342
H        0.22602166      -4.37317750      -5.84304795       0.00000000       0.00000000      -0.00912974      -0.03799165       0.01534328       0.01933612
C        3.38551074      -7.34323246       5.80788514       0.00000000       0.00000000      -0.00711178      -0.02259007       0.00302329      -0.11043046
C        2.79937906      -5.93775001       5.85236544       0.00000000       0.00000000      -0.01228882      -0.00574223      -0.00971239      -0.05437002
C        1.27610369      -5.95657901       5.73552793       0.00000000       0.00000000      -0.00577578       0.00017536      -0.00406057      -0.06085613
C        0.59703601      -4.60335936       5.96079317       0.00000000       0.00000000       0.01716188      -0.00802842       0.00182145      -0.06605565
C        0.76698167      -3.58530096       4.82537527       0.00000000       0.00000000       0.01468988       0.03658848       0.01283268      -0.05478037
C        2.01811677      -2.72471578       4.98144902       0.00000000       0.00000000       0.03049910       0.06532514      -0.03822787      -0.07234196
C        2.20443157      -1.66238201       3.89398659       0.00000000       0.00000000       0.00374361      -0.01865404      -0.08020374      -0.06596304
C        3.06085461      -2.06665851       2.68318587       0.00000000       0.00000000      -0.05603652       0.02558422       0.02897123      -0.01374500
N        2.44536985      -3.08298657       1.83367876       0.00000000       0.00000000       0.05328975       0.01561868       0.07926023      -0.05006175
C        2.85155364      -4.46529493       2.00670226       0.00000000       0.00000000      -0.02719572       0.06450231      -0.01997632      -0.06818582
C        1.56198108      -2.67288493       0.92781652       0.00000000       0.00000000      -0.00298085      -0.00783641      -0.10477193       0.27139810
O        1.31955908      -1.45311363       0.77423674       0.00000000       0.00000000      -0.05387978       0.14631788       0.06171975      -0.40098511
C        0.75631051      -3.71129908       0.16542055       0.00000000       0.00000000       0.01746968       0.02694979       0.02571102      -0.06672726
C        0.00303597      -3.18196809      -1.07184001       0.00000000       0.00000000       0.06797175      -0.02145478       0.04583369      -0.07356485
C        0.80094932      -2.69034409      -2.27125990       0.00000000       0.00000000      -0.02689381       0.00058511      -0.05039637       0.06176169
O        0.47526265      -1.31408768      -2.47738555       0.00000000       0.00000000      -0.00913034       0.00713308      -0.00977278      -0.27327150
C        1.15542847      -0.74759467      -3.60147111       0.00000000       0.00000000      -0.02397594      -0.04929250      -0.02193001       0.06533583
C        0.78849769      -1.20819030      -5.01442158       0.00000000       0.00000000      -0.03152365      -0.03617128      -0.02560551      -0.07899283
C        1.68713349      -0.46437063      -6.02593351       0.00000000       0.00000000      -0.08683721       0.02730283      -0.01983852      -0.06710639
C        1.02221732       0.69536131      -6.78331850       0.00000000       0.00000000       0.02830150       0.02140189       0.01242144      -0.06499330
C        0.22292708       0.30050981      -8.03787592       0.00000000       0.00000000       0.07462017       0.00340297       0.03043573      -0.06366908
C       -1.28499498       0.19417959      -7.84392883       0.00000000       0.00000000       0.04137673       0.00955610       0.00000583      -0.10303474
C       -0.44492543      -3.98739420       1.10981031       0.00000000       0.00000000       0.08599197       0.04147933      -0.07770614       0.26301940
O       -1.08039857      -2.98846219       1.44510621       0.00000000       0.00000000      -0.00108765      -0.05172175       0.04828183      -0.47333853
N       -0.80788884      -5.22702292       1.41526558       0.00000000       0.00000000       0.00176802      -0.08173234       0.06465016      -0.06719199
C       -0.06082568      -6.43576861       1.12537992       0.00000000       0.00000000      -0.03598571       0.03151247      -0.00029569      -0.06814613
C       -2.11924406      -5.44911161       2.04019052       0.00000000       0.00000000      -0.02381510       0.02265788       0.01313392      -0.00686934
C       -2.34224121      -4.69954309       3.35232342       0.00000000       0.00000000       0.00513313      -0.02683882       0.02725136      -0.07165003
C       -3.65184037      -5.12630421       4.01705731       0.00000000       0.00000000       0.00444146      -0.02188771      -0.00752013      -0.06877317
C       -4.00107521      -4.24791316       5.22570983       0.00000000       0.00000000      -0.02455501      -0.00524124      -0.02423624      -0.06714852
C       -4.85171854      -3.02018769       4.88905317       0.00000000       0.00000000      -0.01936319       0.01755175       0.00185287      -0.05733905
C       -6.28547145      -3.37528477       4.48292975       0.00000000       0.00000000       0.00039212      -0.02785265       0.02127958      -0.06814689
C       -7.25963296      -2.19484078       4.52136528       0.00000000       0.00000000       0.00500043      -0.03157866       0.02919517      -0.06307126
C       -7.11632509      -1.22996893       3.35234221       0.00000000       0.00000000      -0.00059086      -0.00901201       0.01024848      -0.10651760
H        4.46666133      -7.30902383       5.91037746       0.00000000       0.00000000       0.00520600       0.00425859      -0.01681481       0.04534464
H        3.14314104      -7.83450461       4.86761383       0.00000000       0.00000000       0.00383842      -0.00701702      -0.00871306       0.03076133
H        2.99113661      -7.94916057       6.61820664       0.00000000       0.00000000      -0.01723478       0.00308896       0.01949818       0.04914069
H        3.22887439      -5.35435384       5.03583875       0.00000000       0.00000000       0.02272845      -0.02017437      -0.02093688       0.01485307
H        3.08509660      -5.45893191       6.79020080       0.00000000       0.00000000      -0.03101154      -0.01099661       0.01387115       0.04083943
H        0.88693081      -6.64846861       6.48498510       0.00000000       0.00000000       0.02948513      -0.00448433      -0.00652801       0.04890327
H        0.99158177      -6.35197003       4.75460851       0.00000000       0.00000000       0.00307373       0.00668576       0.01228068       0.01595859
H        0.96994419      -4.16787007       6.88856236       0.00000000       0.00000000       0.00609134      -0.00527136       0.00703301       0.04755443
H       -0.47019138      -4.78704021       6.10630127       0.00000000       0.00000000       0.00080248      -0.01515207      -0.01659201       0.03447178
H       -0.09217051      -2.90986073       4.83731673       0.00000000       0.00000000      -0.04501347       0.02617026      -0.03126325       0.02087525
H        0.75463773      -4.09592237       3.86192954       0.00000000       0.00000000       0.05486093      -0.01807875      -0.01911124       0.01633632
H        2.91923313      -3.33091286       5.02825949       0.00000000       0.00000000      -0.02947495      -0.07242525       0.06980155       0.05453398
H        1.92373841      -2.21069180       5.93905703       0.00000000       0.00000000       0.06873878      -0.00816560       0.03596049       0.05061348
H        2.71470775      -0.81475131       4.35775989       0.00000000       0.00000000       0.01590737      -0.08944069      -0.07542051       0.05356431
H        1.23761216      -1.30993782       3.52415539       0.00000000       0.00000000      -0.03435731      -0.02485661       0.04138157       0.04400211
H        4.04595551      -2.40613664       3.00610197       0.00000000       0.00000000      -0.08826905      -0.09086003      -0.02152123       0.07784138
H        3.18544072      -1.17635913       2.06128045       0.00000000       0.00000000       0.06953247      -0.02677680       0.00671493       0.07717992
H        3.59984213      -4.52877304       2.79173445       0.00000000       0.00000000      -0.00027053       0.08234251       0.00343553       0.09976292
H        3.30504917      -4.85205204       1.09126380       0.00000000       0.00000000      -0.04566355      -0.03057043       0.00937486       0.07144346
H        2.01156722      -5.09078580       2.30432894       0.00000000       0.00000000       0.02320304      -0.02525170      -0.02636825       0.07634113
H        1.36555807      -4.57079357      -0.10412975       0.00000000       0.00000000      -0.06095400      -0.00787302       0.06263300       0.06320766
H       -0.60003839      -2.32447601      -0.75828063       0.00000000       0.00000000      -0.07336797      -0.00040509       0.04622716       0.13876660
H       -0.67593892      -3.97785355      -1.37865851       0.00000000       0.00000000      -0.02567355      -0.04610944      -0.06406195       0.05829798
H        0.51830714      -3.26831817      -3.15505628       0.00000000       0.00000000      -0.00401553      -0.00182458      -0.11973276       0.05945562
H        1.87233011      -2.79606762      -2.11433132       0.00000000       0.00000000       0.07270106       0.09031369      -0.00215112       0.07088036
H        2.23196530      -0.89008531      -3.46350368       0.00000000       0.00000000      -0.04516904      -0.02845188      -0.00459338       0.04606046
H        0.91436066       0.31009471      -3.54901751       0.00000000       0.00000000       0.05148044       0.04822858       0.00190405       0.05595794
H       -0.26178340      -1.00084730      -5.21052952       0.00000000       0.00000000      -0.03504519       0.01768403      -0.01815622       0.05143085
H        0.93432352      -2.27885330      -5.13007061       0.00000000       0.00000000       0.06626876      -0.04600086       0.07742037       0.05146536
H        2.07813452      -1.17402273      -6.75523224       0.00000000       0.00000000      -0.02524716       0.02750009       0.00556535       0.05969259
H        2.54799046      -0.05628144      -5.48553797       0.00000000       0.00000000       0.00768682      -0.08263798      -0.06501209       0.01998665
H        1.81895078       1.36888233      -7.10580065       0.00000000       0.00000000       0.03143843      -0.03925629       0.02153488       0.03973660
H        0.38848413       1.26450607      -6.10050064       0.00000000       0.00000000      -0.00793741      -0.06191590       0.01263940       0.01932019
H        0.60763023      -0.64091128      -8.42843125       0.00000000       0.00000000       0.00008229      -0.03999994       0.01049627       0.04839677
H        0.39885598       1.05735211      -8.80434122       0.00000000       0.00000000      -0.00727305      -0.03467004      -0.00776453       0.04666607
H       -1.55818150      -0.53047802      -7.08037175       0.00000000       0.00000000       0.04106495      -0.00704393       0.02515311       0.02587756
H       -1.74226088      -0.11389743      -8.78026159       0.00000000       0.00000000      -0.03338613      -0.00735440       0.02871439       0.05314194
H       -1.69778690       1.16517701      -7.57700535       0.00000000       0.00000000      -0.05646541      -0.00727918       0.04462567       0.02432604
H        0.91049538      -6.23066393       0.69063648       0.00000000       0.00000000      -0.01876594      -0.00557215      -0.03919197       0.06777916
H       -0.61599678      -7.06617828       0.42852464       0.00000000       0.00000000      -0.04268923      -0.01592925       0.04742828       0.08211583
H        0.10175572      -6.99000352       2.05052497       0.00000000       0.00000000      -0.08361675      -0.05896241       0.01493328       0.08378557
H       -2.21467910      -6.51949431       2.21715403       0.00000000       0.00000000       0.00482067      -0.00814737       0.01624452       0.07440452
H       -2.89631779      -5.15314619       1.32938124       0.00000000       0.00000000       0.02008397       0.02231098      -0.06904886       0.05142619
H       -2.35092852      -3.62769374       3.16119602       0.00000000       0.00000000      -0.00252660       0.00085209      -0.00119116       0.05141048
H       -1.51651050      -4.91548053       4.02708365       0.00000000       0.00000000       0.02138868      -0.01511437       0.03908250       0.05309064
H       -3.55243334      -6.16165347       4.34348709       0.00000000       0.00000000      -0.00626741      -0.00840098       0.00958199       0.04746734
H       -4.46766726      -5.09368240       3.29312547       0.00000000       0.00000000       0.02460925      -0.00399888       0.01886547       0.04052232
H       -3.07821494      -3.91727969       5.70900553       0.00000000       0.00000000      -0.00457512      -0.04125225      -0.01037759       0.03392800
H       -4.54838920      -4.84633211       5.95214589       0.00000000       0.00000000      -0.02153917      -0.01239545       0.02473925       0.05569193
H       -4.35340682      -2.43985016       4.10700252       0.00000000       0.00000000       0.00423496       0.02981848       0.00710368       0.00142685
H       -4.89815039      -2.38840991       5.77745625       0.00000000       0.00000000      -0.00215284       0.00728340       0.03804739       0.04110091
H       -6.64726603      -4.12473442       5.18643038       0.00000000       0.00000000      -0.01328705      -0.02801958       0.02046158       0.05168682
H       -6.31015486      -3.82524877       3.48831264       0.00000000       0.00000000       0.01843137       0.00583741      -0.00075324       0.02803144
H       -7.12594839      -1.65282772       5.45879641       0.00000000       0.00000000      -0.01983038      -0.00382436       0.01517166       0.04051572
H       -8.27628742      -2.58927076       4.50879431       0.00000000       0.00000000       0.00700395       0.01216527       0.03528911       0.05106258
H       -7.79538881      -0.39198958       3.48001530       0.00000000       0.00000000      -0.01181635       0.02227854       0.02307367       0.04222840
H       -6.10214467      -0.84639481       3.28315790       0.00000000       0.00000000       0.02833932      -0.00057696       0.03031216       0.00949192
H       -7.37325576      -1.72542518       2.42047395       0.00000000       0.00000000       0.00131187      -0.01782040       0.00694158       0.03846305
