70
Properties=species:S:1:pos:R:3:initial_charges:R:1:initial_magmoms:R:1:forces:R:3:charge:R:1 energy=-2891.3258629367133 free_energy=-2891.3258629367133 dipole="-0.2854111489806652 2.48363292333068 1.148222633851633" pbc="F F F"
Pr       0.09453672      -0.33660502      -0.08168987       2.00000000       0.00000000      -0.11185291      -0.02834168       0.06538448       0.83660475
C       -4.56260627       1.35221221      -2.63847098       0.00000000       0.00000000       0.02824846      -0.02508927      -0.01031030      -0.07254811
C       -3.57337319       2.40318445      -3.12158019       0.00000000       0.00000000       0.02613604       0.01515688       0.00031955      -0.07079627
C       -2.78400320       2.96110690      -1.93976155       0.00000000       0.00000000      -0.00281313       0.03458553       0.00374627      -0.08120203
C       -2.09312806       1.88147193      -1.10425356       0.00000000       0.00000000       0.03511533       0.03236610      -0.03729641       0.09721798
O       -1.01289360       1.16565569      -1.74563215       0.00000000       0.00000000       0.04706550      -0.07284653       0.02264878      -0.24708985
C       -0.09049478       1.92933279      -2.52104425       0.00000000       0.00000000      -0.05207368       0.03338109       0.02057936       0.05518352
C        0.97036812       0.94545342      -3.04190353       0.00000000       0.00000000      -0.10934526       0.07854407       0.01208977       0.04931546
O        1.47134610       0.13002857      -1.97695763       0.00000000       0.00000000       0.00692426      -0.06564286      -0.04932557      -0.23344414
C        2.78749664       0.42287356      -1.51574420       0.00000000       0.00000000      -0.00574068       0.07247322       0.02587594       0.04703073
C        2.79142542       1.65942836      -0.60725121       0.00000000       0.00000000      -0.01550161       0.06054198       0.04613911       0.04858115
O        1.71778856       1.49712081       0.32986247       0.00000000       0.00000000       0.02422381       0.04482947      -0.01129914      -0.25730616
C        1.25592234       2.70932120       0.96013194       0.00000000       0.00000000       0.05258046      -0.03590267      -0.05406336       0.09976668
C        2.34630985       3.63099668       1.50925826       0.00000000       0.00000000      -0.02697125      -0.04173221       0.01225924      -0.08435468
C        1.71196564       4.96047178       1.96640718       0.00000000       0.00000000      -0.00006353      -0.05192814      -0.01602276      -0.07772150
C        0.20030187       4.84501486       2.18424129       0.00000000       0.00000000       0.00463719      -0.07218844       0.04419250      -0.07348002
C       -0.18783787       3.52551320       2.85934785       0.00000000       0.00000000      -0.03441451      -0.02893221       0.01153310      -0.08645295
C        0.39101092       2.27962756       2.15087216       0.00000000       0.00000000      -0.00488383      -0.01536169       0.03820780       0.09351385
O       -0.61618784       1.35815117       1.66430366       0.00000000       0.00000000       0.01850165      -0.00358886       0.02658129      -0.27019836
C       -1.46816422       0.79784866       2.67965186       0.00000000       0.00000000       0.00573059       0.03608339      -0.00790590       0.04285518
C       -1.13425347      -0.67968850       2.97118648       0.00000000       0.00000000       0.00717812       0.03350926       0.01992511       0.04100668
O       -0.95871623      -1.46073761       1.78840878       0.00000000       0.00000000       0.07606664      -0.03092833      -0.01605437      -0.22241454
C       -2.11495536      -2.16572377       1.33227291       0.00000000       0.00000000      -0.06273265       0.03797400       0.00188930       0.05025489
C       -3.10719810      -1.22839109       0.62006145       0.00000000       0.00000000      -0.03326266       0.04629716      -0.02339392       0.04836344
O       -2.33282245      -0.19400232       0.01385096       0.00000000       0.00000000      -0.04279560       0.00881947       0.06543284      -0.24550401
C       -3.10512357       0.79204125      -0.68812163       0.00000000       0.00000000       0.03486481       0.03579689       0.01203967       0.10040492
C       -3.82252628       0.23152841      -1.91310654       0.00000000       0.00000000       0.03555300      -0.03338193       0.00170583      -0.08123226
H       -5.10805080       0.93262192      -3.48056292       0.00000000       0.00000000      -0.00577191       0.01497083      -0.05297698       0.07638418
H       -5.29118536       1.80896855      -1.96423756       0.00000000       0.00000000       0.03206189      -0.01945812      -0.02811328       0.05491208
H       -4.10509040       3.22404010      -3.59845147       0.00000000       0.00000000      -0.02111588       0.01344509      -0.05113490       0.07298144
H       -2.90563971       1.96288433      -3.86232412       0.00000000       0.00000000       0.02044200      -0.03235822       0.01264039       0.05414396
H       -3.47922204       3.47344633      -1.27191700       0.00000000       0.00000000      -0.00071070       0.01379561       0.00819453       0.06965931
H       -2.05537264       3.70233299      -2.27125007       0.00000000       0.00000000      -0.04109101      -0.00039036      -0.01065012       0.05796622
H       -1.67468966       2.35538709      -0.19709340       0.00000000       0.00000000      -0.03701159       0.03203445       0.01723903       0.06155136
H        0.36394219       2.71528221      -1.89784097       0.00000000       0.00000000      -0.00742063       0.02461345      -0.02811501       0.06310672
H       -0.59067180       2.39419244      -3.37664987       0.00000000       0.00000000       0.02380337       0.01773702      -0.04261225       0.09425604
H        1.77248211       1.49444758      -3.54609186       0.00000000       0.00000000      -0.00796349      -0.07461430       0.01337151       0.09136822
H        0.49365432       0.26371652      -3.75627143       0.00000000       0.00000000      -0.00458953      -0.03302070       0.00759999       0.11780311
H        3.47063822       0.58233691      -2.35588025       0.00000000       0.00000000       0.05679668      -0.05154248      -0.03476865       0.09873678
H        3.09971536      -0.46707363      -0.95079993       0.00000000       0.00000000       0.01431166      -0.00975269       0.00548877       0.13097193
H        2.64403199       2.56933671      -1.20251703       0.00000000       0.00000000      -0.03320948       0.00197576       0.00604934       0.07750326
H        3.74872033       1.72878689      -0.07770272       0.00000000       0.00000000       0.02408532      -0.00238035      -0.04179587       0.09229419
H        0.64482324       3.26679957       0.23276780       0.00000000       0.00000000       0.01560065      -0.04844450      -0.00686975       0.06186914
H        3.10974665       3.82813295       0.75661027       0.00000000       0.00000000      -0.07015829       0.02560237       0.06429155       0.06623361
H        2.82954461       3.12848097       2.34999572       0.00000000       0.00000000       0.02763928       0.04857117      -0.04114718       0.06064296
H        1.90094691       5.73187862       1.22117298       0.00000000       0.00000000      -0.02389972       0.02653251       0.01823781       0.06704465
H        2.19209509       5.28072350       2.88776598       0.00000000       0.00000000       0.01159316       0.00321286       0.03896019       0.07485617
H       -0.33033831       4.93934924       1.23543713       0.00000000       0.00000000       0.00936328       0.02346287       0.00001793       0.04181225
H       -0.13666161       5.66523983       2.81901821       0.00000000       0.00000000       0.02908061      -0.02751332      -0.05033292       0.07980028
H       -1.27832535       3.46169876       2.87683308       0.00000000       0.00000000       0.07263627       0.00205433       0.00738463       0.06763783
H        0.16525987       3.53883727       3.89058220       0.00000000       0.00000000      -0.02456500       0.04748941      -0.00782976       0.07146062
H        1.04376304       1.72219006       2.83673676       0.00000000       0.00000000       0.00077123      -0.02027382       0.04409611       0.06553064
H       -2.49440471       0.89923234       2.31107390       0.00000000       0.00000000       0.02063644      -0.02144224       0.01461380       0.09509261
H       -1.38218038       1.36557312       3.60898641       0.00000000       0.00000000      -0.00247264      -0.03047793       0.02507462       0.09256539
H       -1.92123542      -1.10419608       3.60196848       0.00000000       0.00000000      -0.02663525      -0.01035623       0.02368881       0.09505788
H       -0.18556386      -0.74853748       3.51463585       0.00000000       0.00000000       0.05179429       0.02479531      -0.02184173       0.10438181
H       -2.61259589      -2.67197932       2.16428890       0.00000000       0.00000000      -0.00993092      -0.04172653       0.08786581       0.09424850
H       -1.74680728      -2.93072778       0.63824350       0.00000000       0.00000000       0.03656340       0.04383510      -0.02381212       0.11524020
H       -3.81905631      -0.78619761       1.33371747       0.00000000       0.00000000       0.00716702      -0.00795900      -0.02705639       0.07290447
H       -3.66380187      -1.78798700      -0.13925708       0.00000000       0.00000000       0.00090347      -0.04330760       0.07614600       0.09926311
H       -3.83659604       1.23139778       0.00925355       0.00000000       0.00000000      -0.01253515       0.02624574      -0.04479977       0.06071464
H       -4.53900056      -0.53250954      -1.61745216       0.00000000       0.00000000      -0.02390648       0.00499500       0.02247664       0.06470229
H       -3.07704200      -0.23139404      -2.56371905       0.00000000       0.00000000       0.00003700       0.00081040      -0.03976706       0.08345454
N        0.32199919      -2.52100194      -1.27345916       0.00000000       0.00000000      -0.00322704       0.09542280       0.07370557       0.78704320
O        0.48784246      -3.50158939      -1.90419117       0.00000000       0.00000000       0.03980743      -0.13487205      -0.12025454      -0.36102130
O        1.10517247      -2.18453202      -0.35867490       0.00000000       0.00000000       0.02377867       0.03672837      -0.04312977      -0.49219873
O       -0.64804777      -1.76449310      -1.45751899       0.00000000       0.00000000       0.00789865      -0.00362553      -0.05931110      -0.46758068
O        1.91041917      -0.85397939       1.74511588       0.00000000       0.00000000      -0.13929400       0.11825042       0.01158680      -0.50945240
H        2.27302583      -1.73762596       1.59711831       0.00000000       0.00000000      -0.01958596      -0.17225228      -0.09390676       0.35631160
H        2.39267901      -0.51666548       2.50889076       0.00000000       0.00000000       0.08794834       0.07469369       0.08661788       0.33239154
